2048
Time=120000.00000010 pbc="T T T" Lattice="32.4896573 0 0 0 32.4896573 0 0 0 32.4896573" energy=-8003.5691 virial="-91.1243585 -7.68341876 9.41783393 -7.68341876 -123.260728 1.82963022 9.41783393 1.82963022 -99.3201172" stress="0.0014112325 -0.000282120902 0.000215166731 -0.000282120902 0.000579166641 8.10755693e-05 0.000215166731 8.10755693e-05 0.00109795579" Properties=species:S:1:pos:R:3
Al 32.3862956 0.105125925 32.4654751
Al 32.4367195 2.13503304 2.05411443
Al 1.78003431 0.0465088759 2.10682348
Al 1.95131434 2.09464356 0.241071374
Al 32.4133619 32.2920142 4.11084745
Al 0.0685074658 1.84389167 5.86882308
Al 1.82117518 32.2528104 6.1323516
Al 1.921183 1.91122868 3.94974636
Al 0.0454238515 32.4263454 8.08931111
Al 32.3598108 1.71004468 10.3688319
Al 2.54871711 0.0147507708 10.3073766
Al 1.93212202 2.05387117 7.84515225
Al 0.0149124635 0.0238971845 12.3147796
Al 0.144028156 2.20078677 13.9617853
Al 2.24695828 0.074782863 14.3866353
Al 1.95290259 1.93815787 11.9458411
Al 0.260318787 32.3470765 16.298092
Al 32.4539222 2.09233501 18.1279077
Al 2.43624675 32.3287417 18.1132167
Al 1.97542254 2.25848031 16.149081
Al 0.0105564518 32.4806871 20.3015193
Al 32.4361192 1.86144628 22.2856841
Al 1.89156623 0.111786346 22.0650578
Al 2.03529792 1.94733834 20.0568717
Al 32.4562868 0.0564903487 24.1406933
Al 0.125101076 1.92963581 26.0678972
Al 2.07900483 32.4582141 26.6396636
Al 2.33553352 2.08258043 24.3867049
Al 0.143808519 0.0491522451 28.2942406
Al 0.284094841 2.09418994 30.5452455
Al 2.00620914 0.103858701 30.9129994
Al 2.34728172 2.03797668 28.4371414
Al 32.4475444 3.94539458 0.0299319992
Al 0.183260737 5.97412682 1.91946898
Al 2.20332841 4.09155265 2.16837261
Al 1.93848901 6.2913772 0.00395510953
Al 32.4728168 4.03204222 3.83406199
Al 0.436656608 6.06142473 6.04409657
Al 2.26573093 4.27056646 5.5475626
Al 2.21924317 6.44020084 3.73082636
Al 0.311756128 3.94350976 8.0034648
Al 32.3557367 6.20976567 10.1126029
Al 2.15439157 4.14691102 10.2269757
Al 2.01257622 6.08891128 8.33509533
Al 32.3428578 4.11022418 12.0648744
Al 0.0289645403 5.97232191 14.2897949
Al 2.38186442 4.01666484 14.3337096
Al 2.01002731 6.05750418 12.1509899
Al 0.173875158 4.10364768 16.2383
Al 32.3650763 6.10130172 18.387336
Al 2.07088151 4.16908275 18.4161105
Al 2.23203721 5.94956926 16.5866766
Al 0.0232256949 3.88050992 20.1463374
Al 0.0549815114 5.84786547 22.4764301
Al 2.12834409 3.9746681 22.5252597
Al 1.75144964 5.94515667 20.5680514
Al 0.021842462 3.88038247 24.4647596
Al 32.481418 6.50631655 26.444626
Al 2.32758957 3.906712 26.3841546
Al 2.02695864 6.1943907 24.3615424
Al 0.10436907 4.12220051 28.0842694
Al 0.18531641 6.37720719 30.5780513
Al 2.06089143 4.12533838 30.6603565
Al 2.06452897 5.97226224 28.7336149
Al 32.4303821 8.32711435 0.100886182
Al 32.2532277 10.5304889 2.28563777
Al 2.05256349 8.35571248 2.01374445
Al 1.82682606 10.6900911 0.083104147
Al 0.168921912 8.07332435 4.22338409
Al 32.4239058 10.4413399 5.97848184
Al 2.22703237 8.37120561 6.26808231
Al 1.98284101 10.1781494 4.05318294
Al 0.0402928263 8.42918528 7.78255124
Al 0.0783518706 10.2195949 10.0842749
Al 2.04788961 8.31207423 10.15583
Al 2.1915151 10.2215492 8.09961674
Al 32.3821573 7.97918508 11.9325446
Al 32.4128255 9.98355128 13.9298149
Al 1.82323432 7.96855306 14.0430397
Al 2.27371373 9.88708068 12.2666175
Al 0.054403424 7.99996361 16.3104899
Al 0.0860676479 10.2632142 17.9468412
Al 2.06651393 8.17699211 18.1760271
Al 2.13429178 10.3039118 15.9960355
Al 32.3081475 8.31164143 20.0178812
Al 32.3758195 9.85388101 22.5577513
Al 1.8458596 8.11267445 22.4068067
Al 2.09003125 10.0652117 20.0725418
Al 32.3771721 8.13570423 24.3653606
Al 32.2390114 10.4216621 26.259602
Al 1.92443024 8.00813881 26.6466185
Al 1.81288442 9.89778872 24.6031362
Al 0.0023503316 8.36395463 28.4804596
Al 32.4261804 10.3479892 30.7327409
Al 2.06063246 8.42925502 30.7233828
Al 2.12567399 10.2578555 28.2874862
Al 32.3497517 12.5281117 32.426311
Al 32.4119743 14.2969213 2.17428791
Al 2.18306912 12.4135811 2.20744845
Al 2.12276765 14.1295513 32.4559711
Al 0.140722713 12.5544663 3.95263841
Al 32.1372386 14.7529807 6.16855825
Al 1.85253939 12.4075245 6.13247414
Al 1.97947376 14.427723 4.48205806
Al 0.119529552 12.2013276 8.16475794
Al 32.4658078 14.4337965 10.1693421
Al 2.05335709 12.0771725 10.3221036
Al 1.94471951 14.3907751 8.49861839
Al 32.3585247 12.0074783 12.0741579
Al 32.1406035 14.5259634 13.8202898
Al 1.74166366 12.1904313 14.0289594
Al 1.74929372 14.0302119 12.1234846
Al 0.0156744786 11.9451709 16.0638308
Al 32.3652334 14.2158665 18.3444849
Al 1.91020236 12.2494246 18.2530958
Al 1.85038013 14.1319599 15.9356339
Al 32.4184119 12.2934398 20.3593975
Al 32.2815451 14.1096614 22.386041
Al 1.85357154 12.3295317 22.3407756
Al 1.92935744 13.9863172 20.4191394
Al 0.00317233584 12.1732613 24.1823808
Al 32.3239621 14.1285635 26.3253213
Al 2.25437843 12.3354511 26.3270776
Al 2.04077674 14.2739279 24.3374524
Al 32.3228619 12.1799344 28.4039181
Al 32.3646304 14.2807698 30.4357953
Al 1.95135094 12.0003164 30.3751418
Al 1.56951943 14.2673634 28.3343285
Al 0.0945139961 16.3744818 0.0417681464
Al 32.4536105 18.2077385 1.85730871
Al 2.13160824 15.958042 2.08567693
Al 2.16453188 18.4180968 32.4465762
Al 0.274851146 16.2526424 4.33407254
Al 32.151337 18.5526475 6.0856817
Al 2.17750761 16.5381662 6.47042783
Al 1.957535 18.1351565 3.66622153
Al 32.4273398 16.6879876 7.9405541
Al 0.202586592 18.3635853 10.1238848
Al 2.30153777 16.303375 10.1120678
Al 2.25186328 18.5427232 8.31684591
Al 0.240437587 16.498596 12.3823574
Al 0.200783821 18.5811583 14.0140361
Al 2.30724659 16.0000512 14.3133171
Al 2.21672275 18.4935294 12.5226629
Al 0.000643563305 16.0297058 16.2401507
Al 32.4399483 18.2548712 18.2164039
Al 2.07985714 16.11108 18.191339
Al 1.80846961 18.3843702 16.2730031
Al 0.152584122 16.173123 20.6817663
Al 0.458625389 18.1823867 22.3667678
Al 2.25334439 16.1195851 22.3866903
Al 2.46019005 18.2373314 20.4872463
Al 32.4674754 16.2649689 24.0595189
Al 32.2079298 18.2028379 26.2444711
Al 1.71773277 16.3136707 26.3406858
Al 2.12578624 18.2880688 24.4634527
Al 0.0315248282 16.4645942 28.2615682
Al 0.0205966155 18.1427413 30.5502239
Al 2.17030517 16.3626505 30.5593623
Al 1.89942501 18.2697079 28.2575285
Al 32.2860763 20.1720446 32.2009692
Al 32.459875 22.2603207 2.00956559
Al 2.07776776 20.5311228 1.88926221
Al 1.90171969 22.2636773 32.4837312
Al 32.2472709 20.1135265 3.75056353
Al 0.139396683 21.9298591 5.68652524
Al 1.99160757 19.9600433 5.76562495
Al 1.85166071 22.5425209 3.8446872
Al 0.188710097 20.3560901 8.14298226
Al 32.1350374 22.5507889 9.9756494
Al 2.04806978 20.431307 10.2615242
Al 2.30449605 22.3156952 8.3127186
Al 0.0288806073 20.4257914 11.930503
Al 32.3823004 22.1805131 14.4318583
Al 1.9988257 20.3033615 14.2333731
Al 1.633648 22.5032433 12.3282279
Al 32.3278088 20.2345948 16.3616788
Al 32.4000265 22.3281511 18.2285305
Al 1.98087017 20.0028197 18.4213925
Al 1.84775401 22.1194729 16.2584445
Al 0.048410701 20.0438183 20.357075
Al 32.1600042 22.2784865 22.4152499
Al 2.05762601 20.2702403 22.5941235
Al 1.85614732 21.9917953 20.4967734
Al 0.0649635909 20.080012 24.2662869
Al 32.3535249 22.226969 26.190811
Al 1.71601572 20.2218729 26.3243639
Al 2.05225281 22.2205829 24.6214106
Al 32.32342 20.0930729 28.2275079
Al 32.2831589 22.126036 30.6149036
Al 1.81520033 20.3619083 30.179339
Al 1.92488155 22.0557909 28.2432013
Al 0.16038316 24.2542913 32.4679358
Al 32.4257949 26.3300218 1.89937147
Al 2.08718408 24.4999595 1.89126254
Al 1.91999509 26.4619898 32.2235241
Al 32.2497284 24.3077732 3.69914855
Al 0.300675912 26.0107239 5.99566957
Al 1.97124795 23.8241517 6.31475757
Al 2.03536744 26.0034075 4.16929897
Al 0.152383811 24.3392311 8.15366281
Al 32.3916605 26.7232247 10.388917
Al 1.94415276 24.1406568 10.1083833
Al 1.83365724 26.4518309 8.27697763
Al 32.2914159 24.4586291 12.2913769
Al 0.184097796 26.2100462 14.349551
Al 2.08290467 24.1640546 14.5864374
Al 1.86147778 26.2554689 12.2623948
Al 32.4259088 24.4755135 16.4827914
Al 0.234730535 26.2842179 18.3193999
Al 2.11518875 23.9253149 18.6358394
Al 2.19961709 26.3307897 16.5931887
Al 32.4557642 24.4983685 20.0986375
Al 0.0479285644 26.1132948 22.6168258
Al 1.6931808 24.2208728 22.4132765
Al 1.98387049 26.3592457 20.6335047
Al 32.1299989 24.0023163 24.3303556
Al 0.141299198 26.4451926 26.3310096
Al 1.96028259 24.2513011 26.2749377
Al 2.01584938 26.4905529 24.6102086
Al 0.00315600881 24.1949192 28.4210757
Al 32.0799975 26.1899332 30.2679636
Al 1.79563377 24.0035979 30.4187391
Al 1.88793687 26.0620577 28.2575292
Al 0.0935237142 28.4433392 32.3468755
Al 32.2344746 30.2018674 2.26781822
Al 1.91766838 28.3599883 1.86410105
Al 2.09175087 30.4235611 32.4382401
Al 0.175354793 28.0285193 3.93879228
Al 32.4392871 30.2871911 5.89212165
Al 2.07973023 28.5485323 6.35754345
Al 1.96736115 30.400605 3.94609869
Al 0.130407978 28.4758928 7.8337142
Al 0.142775838 30.7136146 10.2554295
Al 1.9771453 28.5847013 10.1121855
Al 2.08300063 30.4966423 8.27325691
Al 32.4298451 28.6645085 12.2990049
Al 32.4447032 30.6858638 14.2021364
Al 2.06318843 28.1054579 14.194373
Al 2.217602 30.4702686 12.2595269
Al 0.258266992 28.3608392 15.9834153
Al 0.452177917 30.5359137 17.9451585
Al 2.26979583 28.5790087 18.2935659
Al 2.45708447 30.3443316 16.0542657
Al 0.228794458 28.4488153 20.419897
Al 0.36220567 30.399135 22.1459533
Al 2.16467347 28.4987515 22.4587127
Al 2.60954861 30.5209217 20.4574878
Al 0.144271896 28.4044108 24.2847282
Al 32.2100707 30.5505116 26.4571386
Al 2.10132215 28.6735228 26.5583368
Al 2.09777614 30.5711227 24.555323
Al 0.0389221388 28.3273742 28.3192088
Al 0.327418574 30.5960286 30.0990158
Al 1.88352764 28.3115617 30.2083576
Al 1.97849535 30.5938014 28.3466663
Al 3.90070145 0.155199729 0.164158675
Al 4.21628237 1.9048001 2.15188386
Al 5.92340992 32.3917845 2.19065311
Al 6.07881215 2.0074004 0.0481685637
Al 3.80981278 32.3969144 4.06145967
Al 3.98328018 2.27770553 6.31953103
Al 6.05561142 32.2383029 5.96663539
Al 5.99199242 1.99481433 3.99249487
Al 3.92153738 0.0518478898 7.88309571
Al 4.10149765 2.02327719 10.1725217
Al 6.29794223 32.3654626 10.1918588
Al 6.21629224 2.23683066 7.85578792
Al 4.15262059 32.3813919 12.1305186
Al 4.05717421 1.91222747 14.1710935
Al 6.25699433 32.3928559 13.9157574
Al 6.12715718 2.16440062 12.0618371
Al 4.40922097 32.3679207 16.2708606
Al 3.80458462 2.02491748 18.1381672
Al 6.15277777 32.3041295 18.3993259
Al 5.99298973 1.8986904 16.1608829
Al 4.33001266 0.147063834 20.1680002
Al 4.04833227 2.03090023 22.3000825
Al 6.11022593 0.0840015705 22.405701
Al 6.40873377 1.69074125 20.4982101
Al 4.0048718 32.4686036 24.641649
Al 4.30882513 2.24488174 26.4857793
Al 6.20791004 32.3060622 26.505559
Al 6.06481038 2.04313052 24.5837901
Al 4.22512495 32.3687635 28.5162639
Al 3.95727605 2.14592307 30.5666909
Al 6.02807322 32.4844677 30.818124
Al 6.06934982 1.82008474 28.4048811
Al 4.15785139 3.73670026 0.161935108
Al 3.97090938 6.47421547 1.91637867
Al 6.17080818 4.51325595 2.29863677
Al 6.12155607 6.12477746 0.0620039704
Al 4.17447287 4.60427086 3.85209182
Al 3.90570126 6.48388173 6.18562688
Al 5.89181731 4.15784477 5.98224206
Al 5.87060824 6.57909894 4.14483473
Al 4.04057723 4.11334912 8.28638782
Al 4.36688497 6.16316234 10.3854222
Al 6.20319523 4.11169192 10.0689703
Al 5.89188521 5.96130525 8.2885018
Al 4.21038733 4.0469547 12.2017172
Al 4.24953007 5.97263945 14.2796608
Al 6.30053518 4.0171182 14.3174022
Al 6.26877921 6.22364607 12.3039843
Al 3.93356711 3.92355842 16.4849208
Al 3.96660274 6.05376788 18.5878496
Al 5.87904056 3.60628476 18.3894628
Al 5.80263595 5.959367 16.2981128
Al 3.79994653 3.77146738 20.3864382
Al 3.89288306 6.24802416 22.2575619
Al 6.14144386 4.3383851 22.4340502
Al 5.97936924 5.92091928 20.1825661
Al 4.06722533 4.39841266 24.3841728
Al 4.14241261 5.84748563 26.4868998
Al 6.21939528 4.34654778 26.4977599
Al 6.179265 6.13836701 24.4628307
Al 4.28626349 4.01113979 28.5373804
Al 4.27213671 5.91656254 30.7239163
Al 6.43665517 4.12148781 30.4617423
Al 6.15100062 6.04768697 28.668782
Al 4.18846038 8.2060431 32.4695812
Al 3.98554283 10.3831739 1.59527015
Al 6.19110245 8.36025753 2.12341497
Al 6.27992349 10.0353852 32.3744728
Al 4.09169293 8.52579279 3.80840565
Al 4.30902113 10.2938444 6.30402882
Al 6.26670736 8.15872032 6.44029752
Al 6.08858793 10.0661857 4.11408854
Al 4.18186179 8.28087748 8.22260813
Al 4.41581092 10.1270021 10.3271616
Al 6.45595532 7.99148612 10.490773
Al 6.42399787 10.202477 8.56175963
Al 4.21909117 8.2650029 12.3417227
Al 4.08877204 10.1589396 14.1105806
Al 5.96217678 7.82996902 14.4878571
Al 6.30534002 9.88049129 12.1494461
Al 3.93590971 7.99949855 16.020077
Al 4.25492677 10.3551253 18.2529546
Al 6.01245909 7.87408485 18.4219866
Al 5.90776537 10.046688 16.2650591
Al 3.96664898 8.19261867 20.2435556
Al 4.18622722 9.90562555 22.0853618
Al 6.15604548 7.80349001 22.5396078
Al 6.01786994 9.91262522 20.1298459
Al 3.87366831 8.13971585 24.4086551
Al 4.14166805 9.858402 26.3677802
Al 6.01217735 8.10302646 26.5357049
Al 6.323723 9.73337046 24.4030162
Al 3.97123688 7.97912038 28.5972412
Al 3.9679624 10.3049113 30.7121352
Al 6.05316951 8.06092502 30.5264608
Al 5.90812757 10.1145698 28.448028
Al 4.39365754 12.4853486 32.4156165
Al 4.29357435 14.1604846 2.25890415
Al 6.12053802 12.1351469 2.12520216
Al 6.1523096 14.3079639 0.265226024
Al 3.92798 12.0368694 4.15321622
Al 3.61553947 14.1219444 6.24371886
Al 6.18968525 12.0599365 6.03345382
Al 5.90415228 14.0350853 4.10034758
Al 4.22216188 12.0274193 8.20856105
Al 4.04863234 14.1397146 10.4153122
Al 6.14654216 12.3038116 10.4681103
Al 6.18126398 14.2245661 7.81596764
Al 4.14200769 12.1006128 11.9789384
Al 4.00918209 13.8410763 13.8846265
Al 5.97470483 11.9968454 14.268228
Al 6.36556083 14.5004855 12.1058056
Al 3.79768298 12.3616474 16.213259
Al 4.00899961 14.1077908 18.3614232
Al 6.11827267 12.3107134 18.3103365
Al 6.5189462 14.0465021 16.1779893
Al 3.80719782 12.0717846 20.1436268
Al 3.84472102 13.8491279 22.2617575
Al 6.08032707 12.0421802 22.5382858
Al 5.7948142 14.0768026 20.4439496
Al 3.99887072 11.3675068 24.2481942
Al 4.10556043 14.3563562 26.5543284
Al 6.31752867 11.981566 26.4194879
Al 5.98348193 14.1902761 24.737403
Al 4.07137367 12.1889194 28.4301945
Al 3.73071149 14.1146978 30.3867919
Al 6.24429046 12.3159266 30.6358206
Al 6.10705135 14.2647901 28.6613637
Al 3.94229847 16.174505 0.123813529
Al 3.99123237 18.3686763 1.92493022
Al 5.95185155 16.5064937 2.12890316
Al 6.17708784 18.0716351 32.4542848
Al 3.92874093 16.1996129 4.44053151
Al 4.1935766 18.3057752 6.16148598
Al 6.22889683 16.6289299 5.86642822
Al 5.74082093 18.4105862 3.76950143
Al 4.26076546 16.4248515 7.9571113
Al 4.11668721 18.534479 10.2675338
Al 5.88792093 16.2775658 10.1964462
Al 6.33776039 18.5257162 7.93010327
Al 4.28332477 16.1872115 12.0779794
Al 4.01892277 17.9106447 14.7258165
Al 5.99741931 16.2754145 14.3309586
Al 5.99465763 18.3082554 12.2648326
Al 4.27517892 15.6073081 16.2450519
Al 4.15473387 17.8253301 18.2166946
Al 6.19509178 16.0295687 18.0004883
Al 6.17771836 18.1600436 16.335009
Al 4.1736148 16.2037598 20.6283121
Al 4.17204927 17.99311 22.5349243
Al 6.22012763 16.1502972 22.6586435
Al 6.17615391 17.9847392 20.5128718
Al 4.12556995 16.3098102 24.4657283
Al 4.24638825 18.0543992 26.5353846
Al 6.17574321 16.1971138 26.6795841
Al 6.13056978 18.4588378 24.642396
Al 4.04973763 16.0263302 28.4738209
Al 4.03952161 18.2841118 30.1870581
Al 5.87750661 16.2225887 30.6477752
Al 6.27437232 18.0602175 28.3621104
Al 4.02056161 20.4170578 32.4094513
Al 4.03543313 22.4016464 1.89829502
Al 6.06395694 20.2184075 1.96214704
Al 6.02644417 22.4949722 32.2414039
Al 3.89209375 20.1607074 3.68632353
Al 4.26109529 22.4018081 6.03062028
Al 6.32796547 20.1015549 5.70413651
Al 6.00026139 22.2214678 3.83430159
Al 3.9765447 20.4152091 7.96793113
Al 3.97123081 22.1439483 10.1747605
Al 6.09444887 20.329915 10.3017962
Al 6.40890185 21.8553683 8.05693476
Al 3.87851119 20.8120788 12.2619684
Al 3.89424396 22.5353997 14.198439
Al 6.10675135 20.2907979 14.4062389
Al 6.09387221 22.3627671 11.957286
Al 3.91514231 20.1350293 16.2682913
Al 3.86215565 21.9812958 18.2263688
Al 6.03238427 20.2485454 18.1167573
Al 6.23654701 22.4859224 15.9656571
Al 4.0156825 20.075843 20.2476797
Al 3.78016182 22.1331716 22.265425
Al 5.78534991 20.2255914 22.310721
Al 6.14034888 22.1624869 19.9275767
Al 4.06265937 20.2795275 25.0610714
Al 3.87933478 22.2355408 26.5590289
Al 6.1554041 20.1484651 26.7877906
Al 6.09888997 22.4159543 24.6020693
Al 3.96885773 20.3110316 28.481301
Al 3.94338117 22.4713146 30.3050352
Al 5.84947428 20.3659818 30.1924724
Al 6.17118974 22.2146308 28.3364673
Al 3.85579898 24.5513912 32.2302722
Al 4.09795994 26.3765546 2.28950087
Al 6.05139381 24.2424797 1.96333817
Al 5.74945512 26.4179907 0.36351168
Al 4.04522479 24.314362 4.19913398
Al 3.76292736 26.2324093 6.28198412
Al 6.10865198 24.2739511 6.34240133
Al 5.73936617 26.3653509 4.33662119
Al 3.87127598 24.2685242 8.34605933
Al 3.7749335 26.1019714 10.3309916
Al 6.0449777 24.4738994 9.9423845
Al 5.95746999 26.2687775 8.06067269
Al 3.93080029 24.2352289 12.0698348
Al 4.12775738 25.9314076 13.9214106
Al 6.04994018 24.1498552 14.0813708
Al 6.27284292 25.9625405 12.1032147
Al 3.94404872 24.0569669 16.4615966
Al 3.93137372 25.9852086 18.4967213
Al 6.08990573 24.62391 17.8834889
Al 6.27014943 26.4695203 15.8310136
Al 3.92363499 24.4234393 21.0536488
Al 4.15034709 26.5804848 22.4780873
Al 6.19432346 24.3424088 22.2321238
Al 6.30934187 26.2064233 20.5143679
Al 4.06955964 24.3985747 24.2248083
Al 4.04383022 26.3628169 26.2146549
Al 6.18943489 24.5105257 26.59416
Al 5.88056897 26.4986429 24.6102893
Al 3.84581298 24.3774078 28.0349123
Al 3.76569818 26.1823912 30.1294277
Al 5.94068685 24.4938794 30.2163852
Al 5.98864867 26.3045915 28.4205369
Al 3.78184051 28.2270289 32.4066364
Al 3.87839569 30.4506586 2.20653906
Al 6.0072793 28.3892566 2.28141043
Al 5.59708469 30.3450994 0.227899108
Al 4.031816 28.4066179 4.29604946
Al 4.19385463 30.3365573 6.15280851
Al 5.91740022 28.3797531 6.23230868
Al 6.2457005 30.2837725 4.24948207
Al 3.85072858 28.3835081 8.47446894
Al 4.10378948 30.4049813 10.3329831
Al 6.3054713 28.3398193 10.1733122
Al 6.00478297 30.4144081 8.37492537
Al 4.12117884 28.1755203 12.0395474
Al 4.02706965 30.3069036 13.9108045
Al 6.2305183 28.3127604 13.9438055
Al 6.11606338 30.4652439 12.1318846
Al 4.03904477 28.2969317 16.0617183
Al 4.46628581 30.2124901 18.2809299
Al 6.11996418 27.8754239 18.453876
Al 6.07334078 30.5202598 15.8670611
Al 4.28238561 28.3898864 20.5577994
Al 4.01479095 30.333736 22.5990055
Al 6.31471058 28.392299 22.4926891
Al 6.11576657 30.617651 20.3361855
Al 4.20754919 28.5987454 24.3420649
Al 4.14796451 30.4276755 26.4251164
Al 6.06744014 28.7861156 26.6138193
Al 6.08798573 30.6214284 24.3232003
Al 3.87934669 28.290387 28.3193579
Al 4.33768 30.3920231 30.2990929
Al 5.95360732 28.0148586 30.6651686
Al 6.31808249 30.2722774 28.670264
Al 8.01542316 0.177847883 0.339872636
Al 8.09382449 2.12279517 2.27459365
Al 10.0560519 0.128058986 1.94374004
Al 10.0744674 2.41201433 0.150302015
Al 8.13633629 32.345455 3.9142814
Al 8.10601922 2.25469063 6.10344659
Al 9.99164726 0.0978447554 6.05142952
Al 9.91020008 2.15297214 3.89905455
Al 8.16870461 32.4047291 7.85945696
Al 8.08446643 2.05921649 10.0424942
Al 10.480672 32.2252482 10.1425022
Al 10.1488868 1.68368355 8.23380364
Al 8.29459733 32.1825379 12.2313744
Al 8.08369823 2.02734959 14.0643504
Al 10.3662978 32.4864077 14.0473074
Al 10.0856645 1.72288115 11.8401698
Al 8.25215264 32.3738044 16.362873
Al 8.33469175 2.14643743 18.1479874
Al 10.1635414 32.3331368 18.2685196
Al 10.2751277 1.78370526 16.1996232
Al 8.26539028 0.176888665 20.1053049
Al 8.20957351 1.94558626 22.3699349
Al 10.1040529 0.192674525 22.3975234
Al 10.1632014 1.91568724 20.1686541
Al 8.14011251 0.0110272418 24.3786762
Al 8.42865571 1.91523088 26.6696331
Al 10.0030422 32.4014098 26.5288276
Al 10.0298936 2.01712115 24.5158026
Al 8.22619925 0.0924890518 28.6095743
Al 7.91011278 1.80833289 30.6067579
Al 10.0546335 0.074470201 30.494963
Al 10.5190467 2.11454395 28.7296058
Al 7.78096108 4.20198328 0.188996869
Al 8.06943375 6.30589632 1.85707945
Al 9.88961398 4.12863182 2.27021984
Al 10.3604622 5.68778546 0.241961011
Al 7.91922596 4.13515942 4.32535272
Al 8.0079036 6.07216297 6.32070706
Al 10.299718 3.77896925 6.22756463
Al 9.97786039 5.78695646 4.44594572
Al 8.34554593 4.03391697 8.22241331
Al 8.12129922 6.00790004 9.99566889
Al 10.2969679 4.01969272 10.0766509
Al 10.5298983 5.9687418 7.9711338
Al 7.91947235 4.09121545 11.9952649
Al 8.28742718 5.67795812 14.2278406
Al 10.1392551 3.65943757 13.8783245
Al 10.0785191 5.87158079 12.3077091
Al 8.20559827 3.93360758 16.2698098
Al 7.83848466 5.95305161 18.2861693
Al 10.2555791 4.37522905 18.349959
Al 10.0951417 5.93261165 16.3236724
Al 7.72146838 3.87490292 20.1517295
Al 8.30044095 6.01479492 22.4871066
Al 9.97613823 3.81476586 22.3940436
Al 10.1292491 6.27167359 20.2014894
Al 8.18720083 3.96439779 24.4576476
Al 8.11173703 6.20541241 26.6836405
Al 10.225359 4.22158341 26.3210596
Al 10.3562984 6.18617716 24.3733429
Al 8.28942338 4.17959272 28.3232498
Al 8.34132902 6.13967053 30.3680223
Al 9.72164943 4.05901501 30.640805
Al 10.1069392 6.15542565 28.3407476
Al 8.36197654 7.74460795 32.3679752
Al 8.2633041 10.0381652 2.1263353
Al 10.0668163 8.05930728 2.29000238
Al 10.2210721 10.1679594 0.240311221
Al 8.10255 8.11308396 4.29217606
Al 8.04001733 10.0311587 6.05406069
Al 10.0691478 8.06631863 6.35697192
Al 10.1220421 10.0498015 4.3315682
Al 8.18570124 8.08863018 8.34676759
Al 8.65808161 10.0358242 10.1964207
Al 10.5617768 7.96995194 10.244578
Al 10.2391276 10.1819246 7.91160219
Al 8.38507438 8.1128917 12.0829273
Al 7.94954709 10.0596991 14.3456197
Al 9.80093134 7.74898394 14.4838719
Al 10.1186145 9.77848195 12.2481928
Al 7.98277451 8.28976598 16.354878
Al 8.02608745 10.0727087 18.3779807
Al 9.71663054 7.92357997 18.2333337
Al 10.2443291 9.72785607 16.1960363
Al 8.0023644 8.04347078 20.4636029
Al 7.94052862 10.0914813 22.452662
Al 10.0182581 7.91876885 22.2971282
Al 9.95035459 10.0315372 20.5742565
Al 8.2452842 7.86777096 24.538946
Al 7.97892834 9.953412 26.5423614
Al 10.3835444 8.25525153 26.5684823
Al 9.92446856 10.0547435 24.4359988
Al 8.31348161 8.23169067 28.6018465
Al 8.39276735 10.419903 30.7016107
Al 10.1411473 8.08457346 30.342937
Al 10.1618658 10.3857028 28.4398787
Al 8.06624104 12.3426294 0.0602738464
Al 8.00990682 14.1585565 2.13316816
Al 10.2996747 12.1208588 2.17572881
Al 9.9869943 14.0782998 32.4105707
Al 8.07241385 11.9940107 4.16549181
Al 8.02723831 14.3860728 5.73658679
Al 10.3244575 12.2150332 6.24638703
Al 10.1632494 14.1634926 4.20316348
Al 8.20648497 12.2019366 7.74661231
Al 8.03196584 14.3584145 10.0464164
Al 10.2643417 12.1375094 10.0936026
Al 9.85490528 14.0872124 7.98291526
Al 8.40579416 12.2192914 12.1603729
Al 7.99558864 14.0482791 14.3077777
Al 9.88525186 12.0235355 14.3593521
Al 10.4416494 14.1984578 12.0143942
Al 8.07291737 11.7584073 16.4728379
Al 8.30570726 14.6070691 18.6625471
Al 9.88460374 12.0491594 18.3703824
Al 9.73299251 13.9060517 16.5288513
Al 7.82063075 12.113709 20.2571151
Al 7.91456924 14.1739693 22.3952895
Al 9.92464078 12.1192997 22.381565
Al 10.1176996 14.1234749 20.5973763
Al 8.03170867 12.343 24.2902073
Al 8.3498034 14.1736475 26.1816027
Al 10.1897554 12.276927 26.3830993
Al 10.4680066 14.3469271 24.0533827
Al 8.09424175 12.0008513 28.4131273
Al 8.01365562 14.2598012 30.4344853
Al 10.5400932 12.1781064 30.5050527
Al 10.3921511 13.9197909 28.4283277
Al 8.22807379 16.1005119 0.14454926
Al 8.03190118 18.220831 1.82366373
Al 10.3207283 16.1671622 2.23802287
Al 10.0160121 18.4013484 0.0852008747
Al 8.07401293 16.2411844 3.96349895
Al 8.31823746 18.2733414 5.91947888
Al 10.1612721 16.223238 5.8613
Al 9.91115079 18.3591799 3.78637023
Al 8.01285789 16.148707 7.84022404
Al 8.00743286 18.1570284 10.0018353
Al 9.74362839 16.2908196 10.193185
Al 9.76701038 18.1883149 7.99726845
Al 8.56469717 15.807556 12.3388178
Al 8.28814812 18.3897246 13.9383197
Al 10.0310682 16.0460882 14.4685475
Al 10.4716089 18.2663512 12.3292913
Al 8.15763472 16.5971034 16.0784454
Al 7.92904736 18.5880877 18.211556
Al 10.3684709 16.3069794 18.2372476
Al 10.5008443 18.5920906 16.5440905
Al 8.16878075 16.2594767 20.3812345
Al 8.05536423 18.4545749 22.5628664
Al 9.9686534 16.3957038 22.4638231
Al 10.1336505 18.0779687 20.1531824
Al 8.10487261 16.1500591 24.521507
Al 8.41681873 18.1216463 26.6744008
Al 10.2642187 16.1008913 26.668416
Al 10.1994531 18.1901863 24.2207222
Al 8.32773334 15.9961519 28.4778737
Al 8.1483768 17.7444953 30.437317
Al 10.3240965 16.0781678 30.4394688
Al 10.4527867 18.0696531 28.5793162
Al 7.96271537 20.0612005 32.1153249
Al 7.87526624 22.2907774 1.86187001
Al 10.0535792 20.5181566 1.86045084
Al 9.81588781 22.3518061 32.4603783
Al 8.09742173 20.0629441 3.9373091
Al 8.19006752 22.2892822 5.98010771
Al 10.0377965 20.2890537 5.764792
Al 9.90194812 22.2560237 4.11632427
Al 8.23080494 20.3059524 8.06178645
Al 8.13440816 22.2800162 10.0479113
Al 10.0345563 20.0705893 10.0629774
Al 10.164246 22.1326331 7.9548809
Al 8.17985448 20.2753155 12.0827453
Al 8.13183234 22.293787 14.3072842
Al 10.1064751 20.4659441 14.2209948
Al 10.3198916 22.1826091 12.0989549
Al 8.25095061 20.3673228 16.1922932
Al 8.01492212 22.3909111 18.1072812
Al 10.0078449 20.43201 18.2811338
Al 10.1561965 22.3233551 16.3363117
Al 8.04637296 20.2937237 20.3768382
Al 8.16276215 22.3985467 22.3752627
Al 9.89327813 20.0218319 22.1118419
Al 10.285086 22.1919339 20.3470391
Al 8.40264864 20.2020799 24.4440687
Al 8.10044872 22.2327919 26.7379046
Al 10.332414 20.3183143 26.2585747
Al 10.1279345 22.2455894 24.4484649
Al 8.1352395 20.119204 28.7472526
Al 8.07457212 22.4816678 30.5009389
Al 10.0622285 20.0413562 30.4454961
Al 9.96266256 22.3740754 28.5382358
Al 7.87488182 24.3829188 32.4094102
Al 7.6252585 26.4330577 2.33741974
Al 9.74670136 24.5090924 1.90005362
Al 9.86632287 26.4377296 32.4268507
Al 8.13427964 24.0914616 4.1101755
Al 7.79911111 26.2872114 5.94395165
Al 10.060642 24.2446153 6.28872047
Al 9.95117316 26.5024262 4.16623273
Al 8.02366859 24.1970558 8.08165037
Al 8.47232464 26.3460944 9.98553514
Al 10.032995 24.2745672 10.1356688
Al 10.4242672 26.338873 8.14271831
Al 8.24013371 24.2232793 12.1934522
Al 8.20019989 26.1237632 13.9381504
Al 10.2183344 24.2437567 14.1254637
Al 10.4741437 26.2774035 12.1025903
Al 8.20750182 24.5462812 16.0943078
Al 8.36513587 26.1234268 18.4760892
Al 10.3188584 24.3347178 18.3048446
Al 10.2529284 26.2840911 16.34394
Al 8.38997786 24.1516896 20.5351501
Al 8.20401161 26.6105774 22.5978471
Al 10.0338683 24.4727452 22.4703107
Al 10.0797752 26.2040707 20.4584739
Al 8.4173583 24.1968235 24.5629192
Al 7.97441073 26.5037605 26.3753069
Al 10.0406355 24.4624139 26.6457697
Al 10.0633114 26.5634145 24.4794769
Al 8.25931164 24.520455 28.6112114
Al 8.0932773 26.6476987 30.5435121
Al 10.3319673 24.3942561 30.5875388
Al 10.1083185 26.6106969 28.2867423
Al 7.7523743 28.209059 0.163322015
Al 8.0123708 30.2635188 2.07935961
Al 9.96496228 28.3814094 2.0660593
Al 9.98402934 30.5910928 0.17346023
Al 7.92758217 28.3087795 4.18457044
Al 7.95376119 30.30905 6.31074788
Al 10.4169254 28.203946 6.26170296
Al 10.046705 30.2132322 4.04232131
Al 8.04105184 28.1452479 7.9609376
Al 8.30812883 30.2781731 9.99946883
Al 10.3658051 28.2560297 10.0787081
Al 10.4598373 30.3182842 8.03855051
Al 8.37680025 28.0988533 11.962815
Al 8.14664038 30.2231513 14.1855318
Al 10.1219987 28.4166888 14.1888088
Al 10.2281981 30.4526666 12.3030295
Al 8.2405263 28.3679901 16.1473639
Al 8.02836075 30.4839446 18.0815776
Al 9.99482868 28.2130421 18.1493363
Al 10.2031988 30.3060585 16.3258335
Al 7.97067148 28.4283417 20.2548612
Al 8.22960122 30.6194608 22.273122
Al 10.3213861 28.5628601 22.3861975
Al 10.1375347 30.5274432 20.336497
Al 8.30245467 28.6362673 24.3204276
Al 8.14902818 30.4551156 26.5810597
Al 10.1248618 28.5225176 26.3735186
Al 10.3036598 30.3745154 24.4109925
Al 8.15534413 28.4372027 28.504309
Al 8.05984428 30.6532716 30.6135138
Al 10.1507904 28.6079469 30.5008996
Al 10.289934 30.4234954 28.3742161
Al 12.3267036 31.9507638 0.206840193
Al 12.0865722 1.88300984 1.98008521
Al 14.2778033 32.3082486 2.07203131
Al 14.4332571 1.72726926 32.3333621
Al 11.8865609 32.3659717 4.16283136
Al 12.0446384 2.00547428 6.03057179
Al 14.2323606 0.322212967 6.08321185
Al 14.0560768 1.86215943 4.08310625
Al 12.3821454 0.0532465602 8.00897544
Al 12.4806181 2.10152558 10.3840244
Al 14.1385422 0.0550654902 10.1100043
Al 14.4542739 1.75523671 8.18883353
Al 12.3949664 0.124006746 12.3934182
Al 12.3410519 2.16572807 14.2598354
Al 14.4429367 32.3694885 14.3178474
Al 14.2921604 2.10718381 12.3652829
Al 12.3798266 32.4131014 15.8902305
Al 12.1798013 2.03965119 18.3715206
Al 14.2574372 32.4777236 18.2668202
Al 13.960819 2.05438745 16.5125576
Al 12.0654947 32.4345835 20.2611275
Al 12.1743791 1.92086694 22.5545444
Al 14.2417728 32.3694543 22.6241594
Al 14.0466237 1.70825786 20.3922761
Al 12.0012795 32.4657239 24.5740234
Al 12.3045056 2.2589766 26.5335471
Al 14.6678881 32.4286412 26.4559153
Al 14.5266187 1.9318895 24.5162238
Al 12.4051269 0.0871147698 28.3955459
Al 12.0661881 2.02364158 30.7229513
Al 13.9823062 32.4153513 30.4999836
Al 14.3109598 2.18623412 28.3380627
Al 12.3250239 3.83016697 32.4228488
Al 12.2318001 6.00553979 2.17003047
Al 14.2989078 3.97503096 1.92467468
Al 13.8534322 6.15758903 0.0194947209
Al 12.2712512 3.83903733 3.80828299
Al 12.058247 6.31223764 5.80504167
Al 14.0938896 4.23867264 6.06466244
Al 14.2929701 5.59315122 3.81149862
Al 12.3259699 3.8184614 8.15555957
Al 12.326081 5.99866437 9.92670354
Al 14.463399 3.86474779 10.1978798
Al 14.1670821 6.01091688 7.86913562
Al 12.2019975 4.26909439 12.218502
Al 12.0816458 6.06524582 14.7013256
Al 14.3534335 4.13399012 14.3020127
Al 14.2998613 5.85473089 11.9890373
Al 12.0905549 3.96733127 16.3561734
Al 12.1858038 6.29821242 18.4133174
Al 14.1985701 4.09736051 18.4760179
Al 14.274495 5.86058628 16.5527786
Al 11.9578808 4.03775733 20.1836968
Al 11.9273463 5.67309449 22.3941265
Al 14.2763654 3.66857887 22.3505119
Al 14.0542072 5.93739595 20.3983226
Al 12.0759459 3.87845547 24.354865
Al 12.349073 5.79542962 26.591693
Al 14.2978305 4.26083928 26.3481322
Al 14.3941951 5.87051591 24.2505184
Al 12.4024845 4.0755065 28.6759523
Al 12.1420285 6.06643266 30.5558675
Al 14.5943915 3.83627627 30.3857409
Al 14.1321126 6.13229131 28.7203328
Al 11.9314903 8.16537533 0.31196922
Al 12.3744938 10.0773458 2.30636228
Al 14.2538992 8.25031051 2.40230095
Al 14.0892251 10.123004 0.0381205183
Al 11.883742 8.14060185 4.14019286
Al 12.3359289 10.267248 6.15208877
Al 14.4522792 8.09448158 5.82745516
Al 14.3186986 10.4051543 4.25499663
Al 12.1415909 8.12462685 7.81776692
Al 12.323434 9.98472047 10.0375568
Al 14.181733 7.60002025 10.1581066
Al 14.3098212 9.86707748 8.3923968
Al 12.2540937 7.94168343 12.5210699
Al 12.0216768 10.5072959 14.26573
Al 14.2097312 8.64115586 14.4287187
Al 14.2552137 9.68472646 11.9144672
Al 12.1693355 8.07533638 16.3898876
Al 11.7514788 10.02184 18.5025454
Al 14.1267083 8.22024206 18.380645
Al 14.1503632 10.1115063 16.6184451
Al 12.2904866 8.05882171 20.8264206
Al 11.9226186 9.99363867 22.6145937
Al 14.1893932 8.2090236 22.4671846
Al 13.8822779 9.95988701 20.4327418
Al 12.2940575 7.91529269 24.4499596
Al 12.4080775 10.2320859 26.3963652
Al 14.2101244 7.99591896 26.2821889
Al 13.8846127 10.1904568 24.3197943
Al 12.3651372 8.0894234 28.2607718
Al 12.1502894 9.80559758 30.3925869
Al 13.9855539 8.02648482 30.6973518
Al 14.4346536 10.0135223 28.5273533
Al 12.2196891 11.8212539 32.164719
Al 12.2219776 14.1671718 1.74143746
Al 14.2739274 12.3123994 1.85082619
Al 14.7134918 14.1024881 0.0383619599
Al 12.1533405 12.2118778 4.13000574
Al 12.2294286 14.2349174 6.09518307
Al 14.0776754 12.5110891 6.0819575
Al 14.2458626 14.1540411 4.09703889
Al 12.410456 12.1725057 8.25295286
Al 12.153927 14.1630744 9.96344852
Al 14.3910378 12.1194898 10.0317662
Al 14.0453862 14.3157446 8.1953936
Al 12.0598711 12.1722542 12.0699757
Al 11.9363592 13.7571771 14.6618441
Al 14.1525773 11.8432857 14.6580406
Al 14.1138621 13.762826 12.0737717
Al 11.9259054 12.0355975 16.7250632
Al 11.9960508 14.1531903 18.659824
Al 14.0990322 12.2187603 18.5202626
Al 14.1794009 14.1193669 16.6087393
Al 11.9787607 12.1258316 20.1430379
Al 12.172728 14.2377979 22.1323608
Al 13.8344886 11.9993615 22.4280391
Al 14.4449761 14.4825553 20.1400668
Al 12.0882935 12.3112657 24.2613829
Al 12.287001 14.554819 26.1723349
Al 14.6022744 12.1629405 26.5462637
Al 14.0737841 14.1585856 24.2273605
Al 12.6040827 11.9195136 28.2745737
Al 12.4615058 14.2491045 30.5419708
Al 14.6729269 12.1860822 30.5888531
Al 14.5196913 14.1555608 28.5998707
Al 12.4650023 16.2498125 32.314838
Al 12.2896964 17.8329818 2.10729311
Al 14.3826427 16.2496032 2.08452444
Al 14.3243891 18.3166713 32.2777243
Al 12.2697232 15.9479119 4.03513397
Al 11.904613 18.1572977 6.0134187
Al 14.0111279 16.1793777 6.35883514
Al 14.39373 17.9975711 4.17221084
Al 11.6684152 16.3385886 8.05210816
Al 12.0009333 17.9766979 10.0037021
Al 14.2988237 16.294289 10.3417535
Al 14.1597448 17.9790873 8.0406048
Al 12.0467644 15.8985986 12.1774475
Al 12.12723 18.3726128 14.4151467
Al 13.9808592 15.9563251 14.128642
Al 13.8814389 18.2931971 12.1972887
Al 12.1673938 16.1659024 16.3494746
Al 12.2775263 18.3779081 18.4804475
Al 14.3258847 16.5955339 18.3189924
Al 14.284796 18.1957942 15.8983619
Al 12.3671585 16.4326874 20.3983327
Al 12.0494399 18.3094197 22.4034457
Al 14.4393197 16.4121671 22.2728508
Al 14.2487101 18.5010518 20.4158575
Al 12.3229642 16.1895001 24.1274836
Al 12.2045341 18.2025432 26.4439848
Al 14.3847475 16.1569064 26.1165145
Al 14.1007802 18.4813831 24.1108434
Al 12.7410263 16.2890361 28.3036066
Al 12.4201421 18.5189074 30.5949946
Al 14.342293 16.4214647 30.4675277
Al 14.5990867 18.3893634 28.3570818
Al 12.1976985 20.3342785 32.4184555
Al 11.7216058 22.4805034 1.71378169
Al 13.9344933 20.1523605 2.26930502
Al 14.0630596 22.5348508 0.141827267
Al 11.9113969 20.5492859 3.77788261
Al 11.9589787 22.23922 5.84297013
Al 14.0270962 20.3619154 5.84342434
Al 13.9201197 22.575697 3.91467344
Al 12.0836978 19.8184664 8.23823576
Al 12.317612 22.2276841 10.2538701
Al 14.1435655 20.2202664 10.0674525
Al 14.023889 22.1567449 7.94878431
Al 12.2201035 20.3603587 12.2995259
Al 12.0941029 22.4723832 14.2402913
Al 14.2526051 20.3144018 14.2903667
Al 14.268083 22.3685436 12.2778694
Al 12.3710784 20.6628357 16.0417442
Al 12.4629581 21.8051749 18.1661624
Al 14.4867818 20.0258517 17.8996181
Al 14.0913431 22.348774 16.1861108
Al 12.0889721 20.299223 20.3410465
Al 12.1782561 22.504772 22.2265942
Al 14.0512245 20.430618 22.3719545
Al 14.2241368 22.6584399 20.3550034
Al 12.000533 20.4651987 24.1444866
Al 12.1455818 22.581991 26.1776325
Al 14.0334418 20.4495776 25.9413605
Al 14.2429718 22.8476652 24.4582662
Al 12.2334569 20.5855088 28.3265535
Al 11.901391 22.341988 30.5482478
Al 14.4160969 20.6352569 30.2374558
Al 14.134017 22.2975495 28.2133996
Al 12.1108661 24.7574666 32.4620323
Al 11.9150736 26.5441309 1.89950618
Al 13.8388095 24.5714211 2.15596928
Al 14.1240758 26.6539013 0.0212835828
Al 11.7139965 24.3547717 4.05813609
Al 11.9359355 26.2281803 6.08872331
Al 13.7724135 24.0376663 6.07973361
Al 14.0649908 26.2389353 4.32160971
Al 12.270944 24.153681 8.38416476
Al 12.570051 26.2914536 10.2196751
Al 14.3481564 24.0942306 10.2044685
Al 14.3510508 26.5631579 7.8193983
Al 11.9742717 24.3265314 12.0114172
Al 12.3695666 26.0616972 13.9117158
Al 14.4371329 24.3070754 14.054175
Al 14.3678126 26.1083022 12.0449106
Al 12.1384462 24.2647059 16.1987818
Al 12.332764 26.3746893 18.2705535
Al 14.212647 24.2907512 18.1911396
Al 14.1749438 25.9594355 16.1891001
Al 12.3388782 24.5861911 20.3924246
Al 12.3856116 26.4168997 22.5336929
Al 14.3539303 24.7133812 22.3309373
Al 14.2927555 26.5202659 20.3204024
Al 11.7215718 24.4047361 24.4019408
Al 12.1164614 26.5112998 26.2397266
Al 13.9298409 24.5685929 26.5729006
Al 14.2793352 26.6356397 24.5428201
Al 12.0881596 24.3260172 28.45537
Al 12.079014 26.8003887 30.5058667
Al 13.9230162 24.4170155 30.6736479
Al 14.1987212 26.5235324 28.9969792
Al 11.8529899 28.4725372 0.0418891211
Al 12.1343927 30.4425929 2.54856311
Al 13.9199488 28.171965 2.35884334
Al 14.2924365 30.5562358 0.179726578
Al 12.1003952 28.3818493 4.3866433
Al 12.2157695 30.2837783 6.00977328
Al 14.5965431 28.4690002 5.94101196
Al 14.4301877 30.5004317 3.95747268
Al 12.4946683 28.5742447 8.08228479
Al 12.5112836 30.5159024 10.3877102
Al 14.5875292 28.6268323 10.4185865
Al 14.1299611 30.3767148 8.03604745
Al 12.3962402 28.4634983 12.6246806
Al 12.5125995 30.3986037 14.0946218
Al 14.4458449 28.2882085 14.3913639
Al 14.4169186 30.4850804 12.4508158
Al 12.1825161 28.2795692 16.1284083
Al 12.3114831 30.6808269 18.1744905
Al 14.1262293 28.3279941 18.3176895
Al 14.183176 30.2967401 16.0030441
Al 12.0424712 28.4058053 20.4271014
Al 12.2097457 30.6111867 22.4372411
Al 14.1055314 28.5323079 22.6714271
Al 14.3941454 30.3387796 20.1673794
Al 12.0636479 28.5749673 24.5963592
Al 12.3617565 30.5833461 26.4630141
Al 14.3180035 28.7435392 26.3041075
Al 14.4138747 30.3496746 24.3194624
Al 12.2961253 28.5098304 28.5065213
Al 11.9752514 30.5878174 30.5105283
Al 14.2215387 28.6556004 30.6963914
Al 14.2542146 30.4093642 28.6638854
Al 16.1886478 32.3869849 0.189601864
Al 16.069683 2.0741935 1.98232554
Al 18.1755459 0.271966888 2.13542532
Al 18.1487318 1.94894984 32.4681588
Al 16.1801923 0.202520124 4.15886269
Al 15.9615017 2.01610907 5.83298418
Al 18.5077548 32.2116967 6.17606728
Al 18.3298335 2.03337814 4.48615804
Al 16.1681628 0.0552806467 7.92534654
Al 16.4292313 1.88215717 10.1230653
Al 18.4169508 32.3529768 10.4022958
Al 18.2532151 2.09548843 7.96817516
Al 16.2790075 0.00330499468 12.1875815
Al 16.0307527 2.09758622 14.387875
Al 18.2704183 32.4050419 14.4045048
Al 18.2333443 1.74687681 12.1511278
Al 16.1713684 0.165989821 16.2428364
Al 16.2157519 2.09050283 18.2855622
Al 18.2936787 32.4191798 18.1312363
Al 18.2926203 2.04556666 16.3560735
Al 16.3485563 32.1006164 20.1290115
Al 16.2579229 1.75478549 22.0917863
Al 18.1755013 32.449984 22.1506466
Al 18.3117415 1.91077133 19.9364631
Al 16.2719453 32.2020651 24.430255
Al 16.3535847 1.90903535 26.4196041
Al 18.5178802 32.4617841 26.405524
Al 18.2091595 2.01558157 24.4514806
Al 16.3026242 0.241152693 28.2871669
Al 16.2375696 1.59429086 30.5486055
Al 18.4857613 0.0381465403 30.190544
Al 18.4990392 2.14388226 28.3388031
Al 16.2318813 4.18212514 32.3831529
Al 16.2224733 6.02613808 1.84237362
Al 18.4896654 3.85133547 2.25586002
Al 18.1367776 6.1131417 32.2284826
Al 16.2474582 3.94725121 4.06263871
Al 16.4088828 6.1895065 6.15151614
Al 18.2053463 4.20089896 6.3034216
Al 17.9688219 6.14361984 4.06456975
Al 16.1002119 3.81086079 8.0110897
Al 16.2693211 5.9201722 10.2024999
Al 18.3813037 4.06914646 10.0534625
Al 18.1368018 6.28346837 8.02317739
Al 16.1385975 3.99535291 12.2540417
Al 16.1852793 6.12748315 14.3105498
Al 18.2298471 4.07948525 14.2238792
Al 18.0533373 6.20756877 12.2865348
Al 16.5633933 4.23538071 16.68335
Al 16.4309718 6.34298468 18.3571694
Al 18.5708208 4.22146965 18.4162639
Al 18.5224252 6.1947435 16.4485117
Al 16.1569599 3.84886375 20.3123759
Al 16.0961275 6.07182762 22.0374449
Al 18.1926907 3.68854529 22.2615913
Al 18.2221236 6.11287279 20.405134
Al 16.2863203 3.94491197 24.4011339
Al 16.1655938 6.20751934 26.4683099
Al 18.2357439 4.16432968 26.2078941
Al 18.2907167 5.89719365 24.088015
Al 16.4910154 4.00508772 28.3202485
Al 16.0833242 6.07465788 30.3624484
Al 18.1663642 4.23112876 30.4264213
Al 18.2983026 6.08920893 28.3355028
Al 15.8777315 8.28257638 0.187562395
Al 16.2885502 10.4047511 1.92943269
Al 18.1384903 8.24248672 1.95357496
Al 18.291566 10.0530577 32.1846491
Al 16.5944286 8.53237195 4.08256344
Al 15.7549078 10.4334504 6.17762382
Al 18.3069605 8.26100298 5.98504531
Al 18.22569 10.437678 4.43139719
Al 16.3388361 7.98288275 7.97506465
Al 16.3525367 10.0405921 10.1180792
Al 18.3820661 8.12085576 10.0479354
Al 18.3100896 10.569836 8.12605624
Al 16.0886597 7.90639136 11.9166135
Al 16.5363767 10.3752729 14.2636064
Al 18.2044286 8.21024678 14.2029983
Al 18.2763679 10.1328128 12.379673
Al 15.9391606 7.9738275 16.1279157
Al 16.2799572 10.0523931 18.0911955
Al 18.1704274 8.33635293 18.0651427
Al 18.2079637 10.3362586 16.1856816
Al 15.7453703 8.10675981 20.2747131
Al 15.8897405 9.97314741 22.406423
Al 17.9879089 8.22612255 22.2155707
Al 18.130809 10.3764088 20.2757678
Al 16.1076461 7.98488246 24.3914183
Al 16.1005717 10.080589 26.1129811
Al 18.1080761 7.95536285 26.2318619
Al 18.2988469 9.81081087 24.2839061
Al 16.0727616 8.12490533 28.4186121
Al 16.1966146 10.0248153 30.4321946
Al 18.286708 8.15589549 30.3790048
Al 18.2276016 10.2154418 28.6671984
Al 16.6176811 12.2314748 0.0104241313
Al 16.3291087 14.1548215 1.9939019
Al 18.4058965 12.3769906 2.16413312
Al 18.0807767 14.4045931 0.211621268
Al 16.2119997 12.2968683 4.17435352
Al 15.9630197 14.2123404 6.36743562
Al 17.8927407 12.5354331 6.12844572
Al 18.3065224 14.2484596 4.05865038
Al 16.4014259 12.3651376 8.25739542
Al 16.1093652 14.4050122 10.2450254
Al 18.2394955 12.2758076 10.4091136
Al 18.4955781 14.0159381 8.32935187
Al 16.3844208 12.1180506 12.5022279
Al 16.1699879 14.0566752 14.4165835
Al 18.3585572 12.388833 14.4496729
Al 18.4442366 14.4525407 12.3136871
Al 16.3304463 12.3193563 16.182699
Al 16.237585 14.0698017 18.3665976
Al 18.3770561 12.3848135 18.4772192
Al 18.3700827 14.334569 16.2699554
Al 15.998818 11.9765457 20.2918643
Al 16.0157065 14.438812 22.1907738
Al 17.8961189 12.1395246 22.3617611
Al 18.374869 14.3618948 20.4468139
Al 16.1626207 12.0845376 24.2926508
Al 16.1245713 14.3087159 26.351891
Al 17.7654363 12.2812557 26.3704799
Al 18.1615541 13.9354826 24.1751304
Al 16.0339225 12.0116834 28.5407242
Al 16.2396004 14.5246024 30.5202144
Al 18.1662701 12.4882576 30.3416676
Al 18.0114782 14.3567696 28.3541615
Al 16.2850953 16.3115431 32.476198
Al 16.4115967 18.4295769 1.87785769
Al 18.4076745 16.2951722 2.21682089
Al 18.150998 18.6571353 32.3860919
Al 16.1908413 16.1044419 4.35193385
Al 16.1474098 18.1132405 6.34397616
Al 18.3245476 16.4284894 6.10817369
Al 17.9115415 18.4402275 4.17997048
Al 16.2042104 16.1362681 8.14341125
Al 16.0610544 18.2921262 10.4841006
Al 18.4634222 16.2026177 10.100891
Al 18.1243925 18.4051269 8.20726451
Al 15.8897385 16.0896908 12.344747
Al 16.0970256 18.4621258 13.7961622
Al 17.9493268 16.1807728 14.4671082
Al 18.6010275 18.0443728 12.2170157
Al 16.1474377 16.2837271 16.4882887
Al 16.4316749 18.2786555 18.4835336
Al 18.4435215 16.1729381 17.9826052
Al 18.3455422 18.439943 16.2323113
Al 16.6236327 16.4846677 20.3107582
Al 16.3137624 18.2875537 22.2667598
Al 18.4177301 16.3826353 22.1737749
Al 18.5490933 18.442072 20.2173844
Al 16.3443953 15.8145486 24.3518845
Al 15.8925166 18.2094849 25.9310026
Al 18.0181691 16.3923158 26.0340756
Al 18.272785 18.3472572 24.2966932
Al 15.924463 16.24023 28.4123624
Al 16.574421 18.3398952 30.3687183
Al 18.3357802 16.3756727 30.3885428
Al 17.9675873 18.1155752 28.3354758
Al 15.7913168 20.4132182 0.139400888
Al 15.9023156 22.1837404 2.07718854
Al 18.375225 20.3135918 2.03651808
Al 18.0979953 22.3200108 0.133651342
Al 16.0581707 20.3544989 4.01067574
Al 15.9007752 22.2440522 6.13726302
Al 18.0783314 20.3164735 6.17061854
Al 18.0702922 22.2084951 4.31751913
Al 15.9979157 20.1508413 8.13142589
Al 16.2135476 22.1789224 9.87724077
Al 18.6865795 20.447638 10.0799877
Al 18.2224051 22.2631123 8.07817265
Al 16.5537724 20.5839033 11.9713369
Al 16.3317109 22.2696009 14.1033388
Al 18.3794248 20.3778229 13.9964358
Al 18.6246851 22.3339248 11.8356618
Al 16.2822927 20.2641464 16.3877198
Al 16.1506874 22.5172716 18.2596341
Al 18.3898176 20.7544997 18.3603438
Al 18.3418805 22.4771472 16.0381183
Al 16.2955492 20.3384735 20.1285399
Al 16.1566418 22.3303296 22.3031592
Al 18.150537 20.4981244 22.1371552
Al 18.2691018 22.4855899 20.5921373
Al 16.2453939 20.1836929 24.3089231
Al 16.1736763 22.4595246 26.2259203
Al 18.150812 20.1122794 26.2812939
Al 18.0260086 22.2155493 24.3047646
Al 16.395492 20.6508129 28.6614623
Al 16.168342 22.7299129 30.5394979
Al 17.9347395 20.6880876 30.628951
Al 18.4014843 22.9023828 27.990468
Al 16.1455745 24.5349796 0.192458989
Al 16.1866203 26.4725344 1.89138471
Al 17.9259033 24.4029564 2.06647581
Al 18.4078529 26.5872002 32.1519685
Al 16.4083311 24.1809864 4.22379383
Al 16.3249053 26.3184986 5.93200055
Al 18.2321753 24.4515411 6.274703
Al 18.2717688 26.0912785 4.00125387
Al 16.110118 24.1033772 7.7536481
Al 15.9172214 26.4255917 9.9916057
Al 18.4861972 24.4198223 9.77280339
Al 18.2816453 26.5840517 8.33988717
Al 16.6681809 24.0376985 11.9419451
Al 16.0827236 26.2672865 14.1844345
Al 18.2137175 24.3893956 14.0664822
Al 18.1807403 26.3941413 11.9572436
Al 16.2987454 24.2280737 16.346369
Al 16.2136005 26.5058879 18.4524051
Al 18.6178865 24.2271018 18.2831691
Al 18.3260025 26.2387685 16.3377326
Al 16.2160702 24.5760282 20.0825135
Al 16.3496321 26.5253036 22.232115
Al 18.217479 24.6169556 22.5135966
Al 18.3855328 26.4010878 20.2092035
Al 16.2489654 24.5370348 24.3784907
Al 16.1015051 26.7325981 26.5278002
Al 18.1465207 24.5951397 26.1156179
Al 18.3226133 26.4332994 24.4104524
Al 16.5228476 24.8113867 28.5013057
Al 16.1181781 26.3486551 30.5514613
Al 18.4707364 24.5358047 30.7037274
Al 18.5419492 26.4212482 28.1239144
Al 16.3709402 28.4635151 32.3975801
Al 16.0921933 30.3934253 1.82750262
Al 18.3747697 28.5020358 1.88623703
Al 18.1486898 30.6255153 0.0135063296
Al 16.6014122 28.8371869 3.91795245
Al 16.2713775 30.7217233 6.03366587
Al 18.2954468 28.3269956 5.91305067
Al 18.3905307 30.5973094 4.07632531
Al 16.1754315 28.7158975 8.03314407
Al 16.2626599 30.711915 10.1478835
Al 18.4375038 28.5826239 10.1203951
Al 18.4226399 30.7241904 8.15232017
Al 16.2634293 28.375395 12.3917976
Al 16.5281084 30.4459073 14.4122656
Al 18.0480782 28.1544074 14.3658618
Al 18.160055 30.4048551 12.0702753
Al 16.1825835 28.1214789 16.4043995
Al 16.0587183 30.5557574 17.9784087
Al 18.1748862 28.417147 18.2093177
Al 18.7773624 30.2984547 16.3054116
Al 16.3774624 28.650046 20.2130843
Al 16.1271726 30.4316768 22.3517848
Al 18.3419185 28.5273606 22.5087119
Al 18.3777445 30.2939432 20.2083887
Al 16.2027711 28.2969462 24.4934044
Al 16.4467835 30.5984096 26.4670681
Al 18.346846 28.4871226 26.3243236
Al 18.4724751 30.6621941 24.1556623
Al 16.2773695 28.5279011 28.6133904
Al 16.4135876 30.6483032 30.359694
Al 18.4623873 28.5569029 30.3721125
Al 18.3227568 30.5286138 28.5741918
Al 20.3396539 32.3577872 0.0318837099
Al 20.2537892 2.01655781 1.88652352
Al 22.3001853 32.3918291 2.04300459
Al 21.9514708 2.07255167 32.329399
Al 20.2407941 32.4387271 3.68290083
Al 20.3589666 2.19097483 6.26297941
Al 21.8307139 32.244637 5.8633442
Al 22.1583044 1.84697719 4.02755627
Al 20.4923117 0.269960165 8.26054722
Al 20.2148523 2.06759852 10.0961644
Al 22.6053804 32.4226674 10.2721824
Al 22.563828 2.11716771 8.58449691
Al 20.4377554 0.159553093 11.8592593
Al 20.1498268 1.8430113 14.0510464
Al 22.3325526 0.423811062 14.213578
Al 22.2040414 2.18833104 12.0440153
Al 20.3739017 32.2930482 16.3361641
Al 20.3462167 2.10999148 18.118003
Al 22.2844015 0.213221408 18.542664
Al 22.2870731 2.33188537 16.642779
Al 20.1951972 32.4137299 20.3568842
Al 20.2336924 1.92018396 22.5456171
Al 22.1538687 0.0931582713 22.3662891
Al 22.1473721 2.02754334 20.4817339
Al 20.3100759 32.4450462 24.2672117
Al 20.405752 2.01264623 26.2895572
Al 22.5740866 32.4863019 26.0876184
Al 22.6571728 2.23178839 24.2050896
Al 20.4874786 0.112193849 28.3673386
Al 20.0593819 2.30470862 30.4684489
Al 22.3916807 0.277556249 30.5533144
Al 22.3013619 2.08199641 28.2780289
Al 19.917571 4.05257077 0.0403863427
Al 19.7900901 6.10388908 1.86448216
Al 22.2273532 4.10200126 1.74024089
Al 22.0077134 6.03547768 0.00997431429
Al 20.6643865 4.23218168 3.95690565
Al 20.3159133 5.8950055 6.16434738
Al 22.4681462 3.8019177 6.25184784
Al 22.1466125 6.20617765 3.75387695
Al 20.400675 4.07197751 8.28392427
Al 19.9310324 6.16957113 9.94995697
Al 22.2112478 4.16143952 10.2742977
Al 22.159614 5.98141585 8.16949982
Al 20.4208471 4.11419727 12.278475
Al 20.3277289 5.91001787 14.4191024
Al 22.2617649 4.08443445 14.5052921
Al 22.1930977 6.1143886 12.0991208
Al 20.2082558 4.05941274 16.2787558
Al 20.4794208 6.51516303 18.6437773
Al 22.3295235 4.00292718 18.635111
Al 22.4631745 6.24463622 16.2834529
Al 20.0510953 4.21235364 20.3504532
Al 20.0539877 6.42274705 22.4482206
Al 22.1600211 4.36741989 22.3511144
Al 22.2596459 6.46820636 20.752151
Al 20.1497708 4.03045093 24.3021741
Al 20.1071349 6.37178381 26.2615388
Al 22.3021366 4.2537936 26.4807995
Al 22.1983946 6.23269779 24.5265124
Al 20.1814052 4.13356367 28.3218108
Al 20.2180999 6.0229758 30.3841951
Al 22.2138213 3.77337546 30.3253296
Al 22.4758472 5.99563035 28.5415335
Al 20.2910262 8.17820274 32.3999245
Al 20.1358951 10.2573708 1.98753698
Al 22.0562877 8.15001616 1.86213829
Al 22.2173005 10.4321042 32.290714
Al 20.0903967 8.03285484 3.94349379
Al 20.3740093 10.2019203 5.99561222
Al 22.3217693 7.75400312 6.08584983
Al 22.0642055 9.93841168 3.99992481
Al 20.2556833 7.98855731 7.94651884
Al 20.1883642 10.3265295 10.1857009
Al 22.1672763 8.027829 9.98618446
Al 22.4258311 10.2248593 8.13413192
Al 20.0777429 8.01164129 12.3060443
Al 20.1691526 10.380655 14.3854876
Al 21.8719047 7.97580385 14.0963904
Al 22.1539378 10.0479226 12.1060678
Al 20.1766403 8.47001907 16.2137886
Al 20.102201 10.3222405 18.2387801
Al 22.2333507 8.280647 18.2929331
Al 22.3595185 10.024974 16.1958303
Al 20.0244258 8.24821265 20.5465998
Al 20.1964665 10.0217993 22.6693406
Al 22.3724815 8.51698065 22.7952812
Al 22.2159647 10.0643755 20.4120472
Al 20.1971217 8.05359554 24.4617927
Al 20.0283045 10.3474421 26.6113507
Al 22.1017241 8.05804765 26.6648551
Al 22.5289112 10.2604702 24.6412286
Al 20.0668381 8.18747439 28.3528955
Al 19.9889164 10.3786218 30.2219702
Al 22.2185652 8.01765019 30.4739141
Al 22.022997 10.1743953 28.2461037
Al 20.4230103 12.3418668 32.3323852
Al 20.1534974 14.5018472 1.76834718
Al 22.3369904 12.2430408 1.8364969
Al 22.2352547 14.5868719 32.0812549
Al 20.4787742 12.3210454 4.17319338
Al 20.0645447 14.4946763 5.93271735
Al 22.4730639 12.4853242 6.00349485
Al 22.5060471 14.0423556 3.7804584
Al 20.566068 12.341687 7.9096097
Al 20.3745095 14.2161255 10.1494915
Al 22.395104 12.1026122 10.1080093
Al 22.2673181 14.4386542 7.8239594
Al 20.1646702 12.1469046 12.1344305
Al 20.464483 14.3401829 14.3109
Al 22.565096 11.9340829 14.2575049
Al 22.2109732 14.1504074 12.0155182
Al 20.5375408 12.1101584 16.3773953
Al 20.2355269 14.4415763 18.4588247
Al 22.1393095 12.2471842 18.3892386
Al 22.5384432 14.0649423 16.1053303
Al 20.1923267 12.0986853 20.5056075
Al 20.175715 14.2653163 22.410265
Al 22.1100005 12.1832004 22.4849678
Al 21.9791487 13.8770109 20.4218341
Al 20.3314958 11.9997882 24.5068087
Al 19.9476915 14.5963379 26.3485209
Al 22.0582557 12.3527798 26.6266964
Al 21.9260313 14.1538779 24.304473
Al 20.1295068 12.5615819 28.2730859
Al 20.0965299 14.0893232 30.3974777
Al 22.1527566 12.3366106 30.1540081
Al 22.3497608 14.4096817 28.2491102
Al 20.1312979 16.4563661 32.2197296
Al 20.266137 18.2039093 2.00929492
Al 22.4598453 16.2881602 1.76812793
Al 22.2277107 18.330772 0.172054852
Al 20.3655801 16.3296974 4.12197945
Al 20.2051593 18.3854876 6.06869955
Al 22.3765303 16.2918855 5.90627324
Al 22.4192216 18.2260964 3.95556783
Al 20.3941175 16.3387644 8.11208035
Al 20.2787636 18.3220262 10.1711809
Al 22.3429755 16.3866622 10.1112071
Al 22.0223708 18.1192303 8.15395641
Al 20.3879582 16.1773923 12.302151
Al 20.4485296 18.2726806 14.3541829
Al 22.796894 16.2725539 14.4071116
Al 22.5555534 18.2636894 12.013081
Al 20.5226056 16.4803982 16.311855
Al 20.7137573 18.8093393 18.1970018
Al 22.2664146 16.1668851 18.6728866
Al 22.5631836 18.2344122 16.4837748
Al 20.3486087 16.2408324 20.440648
Al 20.2258481 18.4714168 22.3594873
Al 22.3710305 16.2307778 22.2587555
Al 22.1442635 18.356671 20.4754821
Al 20.1670385 16.1899371 24.1426772
Al 20.0094437 18.3547203 26.6201438
Al 22.3350457 16.315975 26.3129623
Al 21.9912362 18.3900696 24.6547912
Al 20.3723369 16.5154644 28.4252258
Al 20.267381 18.6186751 30.7222918
Al 22.2411935 16.4212977 30.3764652
Al 22.0118067 18.6702466 28.5560179
Al 20.3803242 20.4432851 0.124023255
Al 20.1813915 22.3892204 1.96757359
Al 22.4138692 20.4751458 2.02464569
Al 22.4738162 22.625922 0.177617177
Al 20.1376771 20.2748364 4.250126
Al 20.0627846 22.2872488 6.14043843
Al 22.4007355 19.9501164 6.0688124
Al 22.1713469 22.2919971 4.1036927
Al 20.5305498 20.1740788 7.88193745
Al 20.5972683 22.480657 10.0094934
Al 22.2686819 20.2584358 10.2744393
Al 22.3768364 22.3109704 7.99647644
Al 20.4245987 20.1775172 12.0829517
Al 20.4310871 22.4121609 13.9650698
Al 22.4321085 20.1657588 13.9809304
Al 22.2955527 22.5231971 12.3002439
Al 20.4091498 20.331785 16.3216236
Al 20.7085642 22.4533589 18.0686134
Al 22.7411923 20.7048606 18.3172302
Al 22.9091381 22.5189182 15.8463182
Al 20.4187788 20.4888273 20.3902953
Al 20.1196439 22.7461085 22.5804345
Al 22.1741302 20.3836071 22.2631924
Al 22.5319883 22.2479565 20.3343065
Al 20.2806584 20.4034998 24.2398713
Al 20.2805556 22.3208033 26.4381239
Al 22.2437544 20.501006 26.5301242
Al 22.4937284 22.3522372 24.3727007
Al 19.8983497 20.329918 28.5090062
Al 20.5245606 22.2650478 30.7035163
Al 22.433325 20.4026972 30.7287736
Al 22.0919949 22.5446133 28.5284564
Al 20.1284928 24.4951754 0.314340167
Al 20.1552723 26.3519828 2.27224651
Al 22.1487158 24.2529498 2.1419738
Al 22.4018461 26.3490367 0.208042588
Al 20.1878575 24.1105567 4.29805554
Al 20.2770544 26.4254167 5.90907546
Al 22.092473 24.4016921 5.97471781
Al 22.2950406 26.1308073 4.06400936
Al 20.4494695 24.6955316 8.08775139
Al 20.3225584 26.4701916 10.2169925
Al 22.1158392 24.6583094 10.2885764
Al 22.112571 26.5170113 7.75632729
Al 20.1296331 24.6404042 12.1121291
Al 20.3200435 26.4773719 14.2720019
Al 22.5739679 24.6646563 14.1947993
Al 22.2368374 26.6402325 12.2208126
Al 20.5694678 24.3254698 16.0713526
Al 20.472062 26.358288 18.5426243
Al 22.6468511 24.3586986 18.1373638
Al 22.6243929 26.708047 16.4853142
Al 20.1311026 24.1495627 20.1994309
Al 20.3372734 26.2762648 22.231358
Al 22.2558953 24.3343392 22.2979953
Al 22.4096597 26.4492193 20.4513968
Al 20.5346477 24.3985523 24.6362605
Al 20.1053121 26.167938 26.2762185
Al 22.665123 24.1902431 26.4553017
Al 22.3971917 26.293949 24.5657084
Al 20.3034433 24.4216384 28.7487837
Al 20.330689 26.7957184 30.3331511
Al 22.4086459 24.4313723 30.5015863
Al 22.1260306 25.9838812 28.1734976
Al 20.5363156 28.3080289 0.203100267
Al 20.1893987 30.3734326 1.90527405
Al 22.6519262 28.4593642 1.8985394
Al 22.5400956 30.4730421 0.0903853721
Al 20.1680223 28.4420828 4.00386673
Al 20.3203764 30.1399173 5.82722237
Al 22.4956377 28.2408221 5.91880195
Al 22.2613603 30.1124577 3.92771679
Al 20.2388197 28.4451864 8.15781438
Al 20.4274561 30.5328738 10.1043259
Al 22.1643216 28.3984733 9.93675795
Al 22.3082778 30.4762647 7.82203983
Al 19.8189637 28.2945457 12.3708328
Al 20.5154487 30.145925 14.1577604
Al 22.5644729 28.6900406 14.5042596
Al 22.4243459 30.4479606 12.2193804
Al 20.3628766 27.8867443 16.3486431
Al 20.3351265 29.9802809 18.3402731
Al 22.5870152 28.3831181 18.4965931
Al 22.2556867 30.6606322 16.6214829
Al 20.4869847 28.5405479 20.3680794
Al 20.4718138 30.4074001 22.3649689
Al 22.243805 28.1948438 22.2904963
Al 22.3661148 30.5809569 20.2307934
Al 20.5883502 28.3424716 24.44675
Al 20.5441905 30.4768177 26.3834118
Al 22.3461793 28.3477988 26.2667596
Al 22.330633 30.4763242 24.3715297
Al 20.4942717 28.5239197 28.1489508
Al 20.4349118 30.3747062 30.5018817
Al 22.3341407 28.5976106 30.6299897
Al 22.4556257 30.672587 28.3462593
Al 24.6408853 0.147864888 0.158946453
Al 24.1840101 1.94249643 2.13718447
Al 26.4613749 32.3245256 2.04416871
Al 26.572368 2.20603657 32.3323064
Al 24.195701 0.0652989949 4.10092989
Al 24.3111486 1.97405727 6.16048965
Al 26.5266164 32.4562345 6.35465655
Al 26.7150392 1.84545138 3.82197706
Al 24.2483181 32.4303013 8.33072533
Al 24.2933208 2.11974104 10.3128881
Al 26.2279789 0.232406573 10.6064188
Al 26.1574841 2.14041155 8.28678255
Al 24.2659286 0.0313553946 12.2408331
Al 24.2110023 2.24868792 14.7154449
Al 26.5757655 0.183817218 14.4807787
Al 26.4384725 2.06360603 12.3236938
Al 24.2348416 0.0635209048 16.4811209
Al 24.548941 2.09048216 18.4894229
Al 26.3443676 32.467965 18.3422557
Al 26.2995342 2.34838532 16.3820084
Al 24.1439277 0.335303861 20.7410425
Al 24.4510663 2.31035116 22.2683782
Al 26.3039874 0.167554849 22.3368367
Al 26.4273299 1.79976862 20.2422378
Al 24.526992 0.0826943966 24.3026574
Al 24.4276655 2.38417162 26.4504906
Al 26.2624799 0.189892967 26.6216221
Al 26.1478137 2.29437963 24.4756215
Al 24.2921036 0.101428378 28.5006195
Al 24.2567764 2.08174876 30.2254201
Al 26.5458492 0.272512184 30.4801057
Al 26.5507256 2.40189381 28.2060544
Al 24.2115109 3.95150124 32.1754569
Al 24.3762972 5.95380786 2.00846795
Al 26.5286779 4.22005677 2.18030694
Al 26.232341 5.79411152 32.4634401
Al 24.457063 3.95027732 4.00832963
Al 24.2341455 5.8703145 6.11593698
Al 26.4605912 4.20505438 5.7245626
Al 26.3079838 6.15792492 4.18859702
Al 24.3505192 4.08277431 8.1603452
Al 24.0950991 6.21290854 10.2123023
Al 26.5515034 4.21449007 9.9150444
Al 26.3612087 6.08332271 7.98444311
Al 24.0853651 4.05070274 12.5252117
Al 24.4427549 5.97748092 14.4670779
Al 26.4258794 4.1848067 14.2806043
Al 26.0491927 5.7627189 12.443272
Al 24.3415123 4.03589946 16.5053493
Al 24.3086317 6.23299572 18.4394679
Al 26.5492743 4.1481569 18.2468649
Al 26.5535751 6.19041462 16.1657759
Al 24.2584374 4.38587133 20.4652201
Al 24.3403965 6.47454528 22.4838445
Al 26.4594811 4.40868946 22.5603242
Al 26.3180103 6.04089582 20.5533675
Al 24.412762 4.38508954 24.2733218
Al 24.1741754 6.19972359 26.239132
Al 26.5401109 4.33310578 26.1907161
Al 26.3949472 6.32688037 24.5243626
Al 24.3493625 4.28761903 28.4618651
Al 24.2880348 6.29831079 30.7858095
Al 26.3921158 4.15936902 30.1843242
Al 26.1530779 6.25272101 28.3311929
Al 24.4957568 8.4820114 32.3495608
Al 24.071386 10.1566468 1.86067012
Al 26.523667 8.01441385 2.06293852
Al 26.3895555 10.2402968 32.2466632
Al 24.2755119 7.95367357 3.93178968
Al 23.8467009 10.278643 5.71604032
Al 26.0544792 8.07429004 6.14371859
Al 26.0678212 9.96339947 3.69533188
Al 24.1371988 8.06403426 8.0489462
Al 24.6530382 9.98308944 10.4234027
Al 26.3827694 8.00027257 10.1452805
Al 26.1733973 10.0590522 8.23945928
Al 24.2045237 8.18260716 12.3474716
Al 24.68634 10.2898841 14.1564771
Al 26.5131474 8.15783012 13.9919541
Al 26.6043219 10.371481 11.9746457
Al 24.5612611 7.88708491 16.1142399
Al 24.248368 10.1046086 18.4097227
Al 26.6270346 8.13761756 18.1090912
Al 26.2936708 9.75792771 16.0239622
Al 24.5357402 8.01207333 20.0504347
Al 24.2920028 10.2661353 22.4488584
Al 26.5160635 8.24788883 22.3908788
Al 26.4974725 10.1932647 20.2289831
Al 24.4855212 8.40844301 24.3335923
Al 24.3481263 10.0399826 26.6494865
Al 26.4088288 8.26225497 26.5388987
Al 26.3896546 10.3199825 24.6500465
Al 24.3331093 7.91835298 28.5064384
Al 23.9642658 10.2822093 30.2072026
Al 26.4028355 7.91489684 30.5189395
Al 26.3095709 10.1760619 28.5667353
Al 24.389636 12.3096576 32.4892789
Al 24.3438131 14.2868216 1.72179218
Al 26.4983989 11.8445362 1.78618009
Al 26.2679384 14.2632934 0.0507602349
Al 24.2941339 12.0848607 3.5353202
Al 24.5529345 14.2749852 5.79690213
Al 26.3420248 12.0260549 5.65609161
Al 26.3343389 14.2541493 3.89250909
Al 24.3369504 12.1267206 7.90736822
Al 24.2615851 14.1820323 10.0249648
Al 26.3639199 12.060601 9.91239047
Al 26.5156856 14.0296212 7.95390128
Al 24.210761 12.1629464 12.2179796
Al 24.4494365 14.1364189 14.361489
Al 26.4983015 12.238004 14.1834434
Al 26.3632957 13.9852634 12.1560111
Al 24.2746367 11.9348682 16.2955592
Al 24.6129709 13.8283947 17.9432185
Al 26.5627489 12.0328117 17.7816926
Al 26.6419894 14.2733937 16.0102145
Al 24.2244458 12.1205302 20.3978009
Al 24.5145381 14.3331212 22.162847
Al 26.2770086 12.2855081 22.2104288
Al 26.6902778 14.382373 19.81136
Al 24.4194345 12.4783689 24.3160584
Al 24.1405611 14.2716705 26.3143622
Al 26.4511745 12.3047534 26.2198499
Al 26.3395931 14.0603282 24.1787109
Al 24.3303617 12.2770099 28.1891763
Al 24.1779912 14.2346131 30.3198682
Al 26.3616764 12.409302 30.5104054
Al 26.3486299 14.2149322 28.1311599
Al 24.1949729 16.3541728 32.3846306
Al 24.5535199 18.4062331 2.03512602
Al 26.5011442 16.1542667 2.11732763
Al 26.4123426 18.0520471 32.3758734
Al 24.3221144 16.4694864 3.68815453
Al 24.5706713 18.4188072 6.05837387
Al 26.1614714 16.2552201 5.81250941
Al 26.3943565 18.3294541 4.02942062
Al 24.3698441 15.9854775 7.92307747
Al 24.4136217 17.8845857 9.97486163
Al 26.3269581 16.1111776 9.92241088
Al 26.2937776 18.4123074 8.00499007
Al 24.2789809 15.8719153 11.9454786
Al 24.725181 18.2690015 14.2437087
Al 26.2862567 16.1062669 14.1361936
Al 26.5911975 18.2553062 11.9966877
Al 24.5408803 16.4188603 16.4288405
Al 24.2197683 18.5078146 18.5963629
Al 26.643334 16.3215695 18.0604553
Al 26.5509826 18.503968 15.9998066
Al 24.5608686 16.1552729 20.1271096
Al 24.2777689 18.5615985 22.4523855
Al 26.6011374 16.2757433 22.2231988
Al 26.3240769 18.5112668 20.5393822
Al 24.4541282 16.4194334 24.2665274
Al 24.3217795 18.217654 26.1565988
Al 26.3980972 16.1053382 26.2836326
Al 26.3267315 18.3968805 24.1592828
Al 24.1287407 16.2382998 28.2286585
Al 24.086069 18.4295797 30.5944223
Al 26.3491582 16.1125845 30.4806172
Al 26.237369 18.1977393 28.3110264
Al 24.4709404 20.2381301 32.4215411
Al 24.5574135 22.1125584 1.98985528
Al 26.4863601 20.3615293 1.75314064
Al 26.4298667 22.4902594 32.1056491
Al 24.4456894 20.2139999 4.22320883
Al 24.3297677 22.2680147 6.16534774
Al 26.4991161 20.5199488 6.27811932
Al 26.5037785 22.5541009 4.05421213
Al 24.1830026 20.1647691 8.21355748
Al 24.8431566 22.361929 10.344503
Al 26.3929247 19.9763582 10.0880971
Al 26.5320864 21.958042 8.45143485
Al 24.4113453 20.2247567 12.1156455
Al 24.6065834 22.2701775 14.0489617
Al 26.4564631 20.4266766 14.0079459
Al 26.6810273 22.5117813 12.1874597
Al 24.2885181 20.1398927 16.2065079
Al 24.9103688 22.4122483 18.190219
Al 26.4286678 20.1570024 18.3171842
Al 26.4479718 22.1771963 15.9991027
Al 24.4191246 20.5553076 20.4720928
Al 24.5449933 22.3242009 22.3475476
Al 26.4902678 20.4543453 22.2978716
Al 26.5497146 22.3155204 20.3112392
Al 24.4905976 20.5260071 24.3351783
Al 24.4979094 22.1368597 26.296816
Al 26.3333759 20.0790479 26.3383321
Al 26.4125783 22.3137272 24.3668225
Al 24.3104 20.3865097 28.253705
Al 24.0183229 22.2643574 30.5432256
Al 26.3063926 20.4555444 30.3598533
Al 26.2683801 22.4982525 28.2736319
Al 24.44825 24.4138821 0.016447647
Al 24.3791896 26.490324 1.77381262
Al 26.2163813 24.203871 1.98381057
Al 26.417794 26.4235811 0.182699841
Al 24.4235913 24.1505236 4.37471202
Al 24.4193687 26.3108959 6.29179625
Al 26.2841673 24.0684917 6.36047448
Al 26.67488 25.856063 4.04955795
Al 24.3988267 24.3530899 8.37054222
Al 24.6010015 26.8407093 10.3535582
Al 26.3690646 24.5263504 10.3558484
Al 26.1895529 26.2010712 8.24631267
Al 24.2642119 24.709777 12.4570064
Al 24.409639 26.6884451 14.4954894
Al 26.6080242 24.2243205 14.1377981
Al 26.412146 26.3860508 12.5191219
Al 24.6628644 24.7808446 16.1268896
Al 24.6806145 26.3213595 18.522461
Al 26.7794542 24.4687543 17.93625
Al 26.6208548 26.6489119 16.4213625
Al 24.6337492 24.4615051 20.4787192
Al 24.086299 26.4073796 22.4179504
Al 26.6860631 24.4065306 22.3183996
Al 26.3708867 26.4594091 20.4993052
Al 24.7708902 24.2575712 24.4460302
Al 24.6315762 26.2653176 26.4116603
Al 26.6647962 24.3644722 26.4600344
Al 26.5443635 26.4505845 24.369569
Al 24.3361307 24.3610822 28.4459263
Al 24.2007129 26.5670195 30.6932552
Al 26.1967888 24.6340879 30.5309817
Al 26.4447326 26.3002091 28.2254931
Al 24.3090056 28.553223 32.1947924
Al 24.3339014 30.5101761 1.86570849
Al 26.4867149 28.2635913 2.03867376
Al 26.4434712 30.4636634 32.2257673
Al 24.5798217 28.0606637 3.78024137
Al 24.454538 30.4274813 5.85451178
Al 26.3513523 28.3741306 5.93798196
Al 26.5478041 30.0595058 4.07123162
Al 24.3042833 28.363973 8.06754765
Al 24.1447586 30.3186963 10.2173038
Al 26.3049645 28.5892052 10.4393973
Al 26.5567222 30.4169342 8.11598182
Al 24.336503 28.4787412 12.4111186
Al 24.498059 30.6994133 14.4297494
Al 26.6225746 28.7488449 14.410106
Al 26.4705463 30.5576957 12.3609002
Al 24.5765342 28.8090783 16.4708932
Al 24.3617263 30.5636125 18.5199509
Al 26.4901733 28.3645048 18.4597579
Al 26.6135068 30.7176353 16.5582097
Al 24.3501922 28.6241646 20.4162401
Al 24.3791804 30.6437186 22.6536718
Al 26.1588265 28.490712 22.4879801
Al 26.219641 30.514425 20.5275862
Al 24.0505303 28.3885325 24.4778211
Al 24.3932348 30.5013534 26.5759877
Al 26.8187188 28.4261094 26.4690132
Al 26.6304586 30.6592028 24.6192719
Al 24.2978037 28.0576305 28.3286483
Al 24.241729 30.7847322 30.6283964
Al 26.6980968 28.2967759 30.4255072
Al 26.0353641 30.4158863 28.5330571
Al 28.5434881 0.157114714 0.115780861
Al 28.5207249 2.28409945 2.18118057
Al 30.4052471 0.171258585 2.16328162
Al 30.3854562 2.17568024 32.4270988
Al 28.2796914 32.3970585 4.02793989
Al 28.422219 2.33306491 5.90626912
Al 29.7498203 32.2145134 6.39114056
Al 30.4278193 2.07268842 4.0731176
Al 28.2606896 0.322714691 8.43323651
Al 28.4738633 2.15318238 10.5011744
Al 30.246552 0.00444538611 10.1459549
Al 30.548141 1.7913204 7.78824863
Al 28.3981734 0.0413481876 12.1846479
Al 28.446515 2.07572706 14.4325482
Al 30.4852823 0.30752473 14.3681033
Al 30.596916 2.07613566 12.0995478
Al 28.5101191 0.0322780691 16.6529563
Al 28.3694815 2.25791229 18.580752
Al 30.7417051 0.0308380026 18.2970387
Al 30.8197779 2.25390143 16.0110068
Al 28.5063416 0.0437590385 20.4199419
Al 28.3300207 2.10461267 22.0568854
Al 30.3463103 32.3358111 22.4352011
Al 30.6456513 1.75774381 20.1813146
Al 28.3413503 0.107837604 24.3338058
Al 28.5727117 2.29820807 25.9584319
Al 30.6195851 0.175303175 26.1330072
Al 30.4961452 2.11710647 24.0989711
Al 28.3547386 0.186055448 28.6636668
Al 28.6252509 2.29952085 30.2434775
Al 30.5841605 0.232162183 30.2039248
Al 30.5293204 2.05393862 27.8289765
Al 28.5753116 4.30809325 32.1724788
Al 28.4825489 6.33089221 2.21875013
Al 30.6008724 4.17274853 1.92013078
Al 30.8748366 5.95049352 32.488696
Al 28.6714678 4.23858992 3.82225271
Al 28.2894129 6.10647945 6.05764305
Al 30.8042521 4.05167093 6.06440388
Al 30.657464 5.99385396 4.00198396
Al 28.5596224 4.06032708 8.10377269
Al 29.1200436 5.93305543 9.65217007
Al 30.8084768 3.76435794 9.68069927
Al 30.8926846 6.36326587 7.88341969
Al 28.327109 4.03869588 12.1046345
Al 28.4110363 6.05207624 13.9981903
Al 30.5238478 4.0108208 14.0190003
Al 30.2793572 5.65968897 12.1033557
Al 28.4135165 4.19032582 16.4040685
Al 28.6669979 6.35924301 18.2714654
Al 30.5977347 3.92765999 18.1761672
Al 30.4979177 5.76189932 16.4110784
Al 28.5277956 4.28831314 20.1737546
Al 28.3089602 6.29420778 22.176735
Al 30.5715827 3.91071581 22.1771271
Al 30.7151041 6.10732672 20.5276542
Al 28.6227816 4.30107177 24.054319
Al 28.430443 6.36980138 26.4389153
Al 30.3434261 4.57594737 26.2856023
Al 30.523081 6.06772285 24.1520988
Al 28.6045136 4.1465887 28.1407775
Al 28.1947597 6.12228997 30.1136296
Al 30.8820286 4.37634282 30.2220614
Al 30.4684867 6.53964687 28.6211922
Al 28.9104416 7.44797114 0.0079535491
Al 28.3002936 10.0291196 2.35353274
Al 30.6116129 8.2141 2.12586475
Al 30.4990356 10.0751452 32.4254448
Al 28.3897651 8.2461701 4.1556602
Al 28.3001954 10.3018009 6.05512309
Al 30.4008873 7.84604036 5.79370566
Al 30.3955143 10.3401561 4.11539129
Al 28.5948167 7.99503499 8.32813164
Al 28.5501772 10.0162076 10.220681
Al 30.7349397 8.37824475 9.85667598
Al 30.243934 10.1898461 8.08002688
Al 28.2937983 7.88224546 11.9486534
Al 28.3647665 10.0231075 13.8633295
Al 30.5911397 7.6173293 14.0355532
Al 30.4344794 10.0878197 12.012524
Al 28.7251 7.95275899 15.9433861
Al 28.5672349 10.1312002 17.9164914
Al 30.4639257 8.15895944 18.156555
Al 30.4527419 10.0099148 15.8822281
Al 28.3300427 8.21184588 20.2598486
Al 28.2822588 10.6138542 22.2399505
Al 30.4382744 8.19451924 22.1564642
Al 29.9933162 10.3586758 20.26113
Al 28.5066626 8.18637538 24.2781473
Al 28.5291653 10.1297057 26.2011964
Al 30.3929706 8.20508646 26.2644053
Al 30.2700685 10.2752187 24.2709622
Al 28.3241433 8.37055439 28.5979973
Al 28.2584868 9.59840301 30.7421843
Al 30.5370161 8.03998762 30.6123091
Al 30.3574117 10.2372802 28.7617667
Al 28.3911067 12.1885884 0.0294166148
Al 28.4741503 14.2608917 1.82876334
Al 30.2844178 12.2986351 1.97362961
Al 30.474994 14.4842733 32.3536546
Al 28.3865078 12.3274097 3.64939495
Al 28.2580041 14.3762677 5.61835386
Al 30.4817732 12.1778737 5.99623158
Al 30.3721632 14.1146425 3.81071012
Al 28.4232416 12.1623295 7.88344232
Al 28.2955131 14.1756969 9.8948158
Al 30.5592869 12.1890113 10.0572929
Al 30.2216757 13.9849971 7.82924901
Al 28.6639467 12.1204968 12.1971808
Al 28.5918423 14.1817717 14.0902739
Al 30.5548176 12.2784949 13.8463302
Al 30.4323636 14.2842089 11.7414372
Al 28.5318533 12.1125025 16.0805567
Al 28.6119498 14.3357576 17.8710988
Al 30.5023588 12.1459573 18.1506866
Al 30.423869 14.0728517 15.950225
Al 28.4452535 12.5036312 20.2974249
Al 28.5079409 14.4970079 22.2976758
Al 30.3128009 12.3893551 22.1090055
Al 30.6027726 14.3429333 20.3457894
Al 28.3603606 12.1915001 24.3470445
Al 28.54447 14.1708074 26.0274029
Al 30.1869963 12.2008352 26.6655569
Al 30.4728241 14.238692 24.1085505
Al 28.2278015 12.2052381 28.7470917
Al 28.3924573 14.4172031 30.3961104
Al 30.2768053 12.4158647 30.4308316
Al 30.2648775 14.3613261 28.3918932
Al 28.4182752 16.3510502 0.264853437
Al 28.246744 18.2393977 1.9035709
Al 30.5579526 16.1773752 2.00965761
Al 30.3095811 18.2430916 0.0314296198
Al 28.4277394 16.2559145 3.8265352
Al 28.0448167 18.2403011 6.21617779
Al 30.3600702 16.5775426 5.88518649
Al 30.4233523 18.3467754 3.99128384
Al 28.1960204 16.0264187 7.90869889
Al 28.221506 17.9664232 9.99332108
Al 30.4324252 16.1475234 9.7211274
Al 30.1725568 18.384399 8.01588236
Al 28.3277641 15.8718233 12.1252541
Al 28.4098832 18.4978189 14.1874524
Al 30.4254145 16.9041632 13.8415853
Al 30.1418738 18.0809314 11.7246097
Al 28.5486264 16.4708344 15.9392664
Al 28.6976078 18.4216664 18.3631703
Al 30.5315551 16.2253943 18.2268841
Al 30.4835764 18.2720185 16.3616528
Al 28.5171519 16.2728204 20.22252
Al 28.6071557 18.4406537 22.0916339
Al 30.4174231 16.6170437 22.1666581
Al 30.6554076 18.2764769 20.155908
Al 28.2213015 16.2752588 24.3789175
Al 28.3304156 18.0153245 26.0418983
Al 30.3525948 16.2807422 26.2269668
Al 30.3285306 18.2628931 24.295987
Al 28.3104237 16.4383258 28.560456
Al 28.5383114 17.9926157 30.516786
Al 30.5439812 16.3548553 30.1413104
Al 30.2622796 18.1980781 28.2316277
Al 28.323066 20.2650828 32.2841783
Al 28.1706277 22.2616284 1.67976744
Al 30.1803691 20.4672139 1.76813515
Al 29.9872306 22.5139889 32.0581824
Al 28.3846694 20.1573227 4.04340292
Al 28.5195248 22.4994285 6.17581651
Al 30.1299345 20.3302285 5.96326066
Al 30.3366033 22.1735826 3.9566192
Al 28.4041627 20.3973852 8.17651605
Al 28.5412712 22.2408668 10.0845993
Al 30.5970081 20.4454634 9.98898355
Al 30.3594845 22.4348799 7.96239787
Al 28.5791952 20.324113 12.0826173
Al 28.7016171 22.1713448 14.0752334
Al 30.7280096 20.1063857 14.4420042
Al 30.6881099 22.4878251 12.4419999
Al 28.5846785 20.3989041 16.4430028
Al 28.3792468 22.4623247 18.4227051
Al 30.6309581 20.5223031 18.3702777
Al 30.4010483 22.4928535 16.5833812
Al 28.7979169 20.1819587 20.2839005
Al 28.5557469 22.2110363 22.2824666
Al 30.7161843 20.3333629 22.1847817
Al 30.2614079 22.6204393 20.1945028
Al 28.2862861 20.2911328 24.0125123
Al 28.2359605 22.074678 26.3866127
Al 30.1470009 20.1744929 26.1561298
Al 30.4420892 21.9810843 24.399255
Al 28.2003148 20.1104742 28.1557371
Al 28.3237973 22.1598279 29.9532457
Al 30.4207404 19.9703581 30.2922748
Al 30.4261972 22.0094684 28.162576
Al 28.2256332 24.5452464 32.3368722
Al 28.7767266 26.1712869 1.71635123
Al 30.1194472 23.9750908 1.76722837
Al 30.7423369 25.8721271 32.3688292
Al 28.3533511 24.0169317 3.92623462
Al 28.408334 25.8047372 6.10255355
Al 30.495574 24.2159492 6.06371731
Al 30.2021827 26.2668374 3.80943342
Al 28.5263734 24.2227858 8.12413597
Al 28.4731658 26.2672545 9.99266659
Al 30.3605333 24.6970324 10.1088841
Al 30.5455869 26.2330416 8.01004648
Al 28.346951 24.5411695 12.1105444
Al 28.4917088 26.5231735 14.5114055
Al 30.4285122 24.7120174 14.2942277
Al 30.3482039 26.5807416 12.3980068
Al 28.3949634 24.2144632 16.109238
Al 28.7931989 26.6426346 18.319402
Al 30.3580649 24.6210457 18.3010149
Al 30.7043593 26.5690276 16.367856
Al 28.3841642 24.5981748 20.240637
Al 28.4423094 26.6872518 22.3895246
Al 30.4353791 24.2580623 22.435942
Al 30.5268062 26.6763043 20.4286937
Al 28.3106087 24.3863552 24.2940302
Al 28.6194598 26.1673105 26.2693237
Al 30.0886341 24.1326271 26.4875861
Al 30.6159572 26.2571279 24.3958958
Al 28.4420856 24.3898042 28.5890717
Al 28.7090182 26.4544055 30.7056814
Al 30.5188962 24.2113883 30.2432816
Al 30.5980271 26.2145988 28.0983851
Al 28.2889698 28.5151972 0.302818225
Al 28.6251876 30.6394651 1.90989294
Al 30.511439 28.2472873 1.69319152
Al 30.6968334 30.5789998 32.1799534
Al 28.4805638 28.2907992 3.81572657
Al 28.5178743 30.0452484 5.91616302
Al 30.4870017 28.0282153 5.90295886
Al 30.4084754 30.5751594 4.19530082
Al 28.5051848 27.9260874 7.87710397
Al 28.1828555 30.5065267 10.3257592
Al 30.3996683 28.633909 10.0461052
Al 30.5229815 30.5465759 8.19364073
Al 28.3764436 28.2845036 12.2799355
Al 28.6472618 30.8240576 14.3726041
Al 30.4327254 28.4442611 14.1338618
Al 30.3379129 30.442601 12.250076
Al 28.7462507 28.5576711 16.4805892
Al 28.3835779 30.4087336 18.5757367
Al 31.0961292 28.6739584 18.2017578
Al 30.3239999 30.677053 16.4721974
Al 28.7394949 28.4803652 20.3330617
Al 28.4532235 30.4303399 22.5038276
Al 30.3688993 28.7628997 22.3018118
Al 30.4767372 30.5016778 20.3174392
Al 28.5932145 28.5549621 24.5373824
Al 28.362558 30.7304348 26.6152199
Al 30.3634234 28.3375596 26.3219047
Al 30.60729 30.3787811 24.3991035
Al 28.7567721 27.920944 28.5633741
Al 28.4846596 30.5150732 30.4164966
Al 30.5726031 28.4883855 30.4760316
Al 30.4218281 30.2061661 28.5801643
