frame 0 of H_solid_798.15/prod.xyz

2048 atoms
1 atom types

0 32.48965730 xlo xhi
0 32.48965730 ylo yhi
0 32.48965730 zlo zhi

Masses

1 26.982

Atoms # atomic

1 1 32.386296 0.105126 32.465475
2 1 32.436720 2.135033 2.054114
3 1 1.780034 0.046509 2.106823
4 1 1.951314 2.094644 0.241071
5 1 32.413362 32.292014 4.110847
6 1 0.068507 1.843892 5.868823
7 1 1.821175 32.252810 6.132352
8 1 1.921183 1.911229 3.949746
9 1 0.045424 32.426345 8.089311
10 1 32.359811 1.710045 10.368832
11 1 2.548717 0.014751 10.307377
12 1 1.932122 2.053871 7.845152
13 1 0.014912 0.023897 12.314780
14 1 0.144028 2.200787 13.961785
15 1 2.246958 0.074783 14.386635
16 1 1.952903 1.938158 11.945841
17 1 0.260319 32.347077 16.298092
18 1 32.453922 2.092335 18.127908
19 1 2.436247 32.328742 18.113217
20 1 1.975423 2.258480 16.149081
21 1 0.010556 32.480687 20.301519
22 1 32.436119 1.861446 22.285684
23 1 1.891566 0.111786 22.065058
24 1 2.035298 1.947338 20.056872
25 1 32.456287 0.056490 24.140693
26 1 0.125101 1.929636 26.067897
27 1 2.079005 32.458214 26.639664
28 1 2.335534 2.082580 24.386705
29 1 0.143809 0.049152 28.294241
30 1 0.284095 2.094190 30.545246
31 1 2.006209 0.103859 30.912999
32 1 2.347282 2.037977 28.437141
33 1 32.447544 3.945395 0.029932
34 1 0.183261 5.974127 1.919469
35 1 2.203328 4.091553 2.168373
36 1 1.938489 6.291377 0.003955
37 1 32.472817 4.032042 3.834062
38 1 0.436657 6.061425 6.044097
39 1 2.265731 4.270566 5.547563
40 1 2.219243 6.440201 3.730826
41 1 0.311756 3.943510 8.003465
42 1 32.355737 6.209766 10.112603
43 1 2.154392 4.146911 10.226976
44 1 2.012576 6.088911 8.335095
45 1 32.342858 4.110224 12.064874
46 1 0.028965 5.972322 14.289795
47 1 2.381864 4.016665 14.333710
48 1 2.010027 6.057504 12.150990
49 1 0.173875 4.103648 16.238300
50 1 32.365076 6.101302 18.387336
51 1 2.070882 4.169083 18.416110
52 1 2.232037 5.949569 16.586677
53 1 0.023226 3.880510 20.146337
54 1 0.054982 5.847865 22.476430
55 1 2.128344 3.974668 22.525260
56 1 1.751450 5.945157 20.568051
57 1 0.021842 3.880382 24.464760
58 1 32.481418 6.506317 26.444626
59 1 2.327590 3.906712 26.384155
60 1 2.026959 6.194391 24.361542
61 1 0.104369 4.122201 28.084269
62 1 0.185316 6.377207 30.578051
63 1 2.060891 4.125338 30.660356
64 1 2.064529 5.972262 28.733615
65 1 32.430382 8.327114 0.100886
66 1 32.253228 10.530489 2.285638
67 1 2.052563 8.355712 2.013744
68 1 1.826826 10.690091 0.083104
69 1 0.168922 8.073324 4.223384
70 1 32.423906 10.441340 5.978482
71 1 2.227032 8.371206 6.268082
72 1 1.982841 10.178149 4.053183
73 1 0.040293 8.429185 7.782551
74 1 0.078352 10.219595 10.084275
75 1 2.047890 8.312074 10.155830
76 1 2.191515 10.221549 8.099617
77 1 32.382157 7.979185 11.932545
78 1 32.412825 9.983551 13.929815
79 1 1.823234 7.968553 14.043040
80 1 2.273714 9.887081 12.266618
81 1 0.054403 7.999964 16.310490
82 1 0.086068 10.263214 17.946841
83 1 2.066514 8.176992 18.176027
84 1 2.134292 10.303912 15.996035
85 1 32.308147 8.311641 20.017881
86 1 32.375819 9.853881 22.557751
87 1 1.845860 8.112674 22.406807
88 1 2.090031 10.065212 20.072542
89 1 32.377172 8.135704 24.365361
90 1 32.239011 10.421662 26.259602
91 1 1.924430 8.008139 26.646618
92 1 1.812884 9.897789 24.603136
93 1 0.002350 8.363955 28.480460
94 1 32.426180 10.347989 30.732741
95 1 2.060632 8.429255 30.723383
96 1 2.125674 10.257855 28.287486
97 1 32.349752 12.528112 32.426311
98 1 32.411974 14.296921 2.174288
99 1 2.183069 12.413581 2.207448
100 1 2.122768 14.129551 32.455971
101 1 0.140723 12.554466 3.952638
102 1 32.137239 14.752981 6.168558
103 1 1.852539 12.407524 6.132474
104 1 1.979474 14.427723 4.482058
105 1 0.119530 12.201328 8.164758
106 1 32.465808 14.433796 10.169342
107 1 2.053357 12.077172 10.322104
108 1 1.944720 14.390775 8.498618
109 1 32.358525 12.007478 12.074158
110 1 32.140603 14.525963 13.820290
111 1 1.741664 12.190431 14.028959
112 1 1.749294 14.030212 12.123485
113 1 0.015674 11.945171 16.063831
114 1 32.365233 14.215867 18.344485
115 1 1.910202 12.249425 18.253096
116 1 1.850380 14.131960 15.935634
117 1 32.418412 12.293440 20.359398
118 1 32.281545 14.109661 22.386041
119 1 1.853572 12.329532 22.340776
120 1 1.929357 13.986317 20.419139
121 1 0.003172 12.173261 24.182381
122 1 32.323962 14.128564 26.325321
123 1 2.254378 12.335451 26.327078
124 1 2.040777 14.273928 24.337452
125 1 32.322862 12.179934 28.403918
126 1 32.364630 14.280770 30.435795
127 1 1.951351 12.000316 30.375142
128 1 1.569519 14.267363 28.334329
129 1 0.094514 16.374482 0.041768
130 1 32.453611 18.207739 1.857309
131 1 2.131608 15.958042 2.085677
132 1 2.164532 18.418097 32.446576
133 1 0.274851 16.252642 4.334073
134 1 32.151337 18.552647 6.085682
135 1 2.177508 16.538166 6.470428
136 1 1.957535 18.135157 3.666222
137 1 32.427340 16.687988 7.940554
138 1 0.202587 18.363585 10.123885
139 1 2.301538 16.303375 10.112068
140 1 2.251863 18.542723 8.316846
141 1 0.240438 16.498596 12.382357
142 1 0.200784 18.581158 14.014036
143 1 2.307247 16.000051 14.313317
144 1 2.216723 18.493529 12.522663
145 1 0.000644 16.029706 16.240151
146 1 32.439948 18.254871 18.216404
147 1 2.079857 16.111080 18.191339
148 1 1.808470 18.384370 16.273003
149 1 0.152584 16.173123 20.681766
150 1 0.458625 18.182387 22.366768
151 1 2.253344 16.119585 22.386690
152 1 2.460190 18.237331 20.487246
153 1 32.467475 16.264969 24.059519
154 1 32.207930 18.202838 26.244471
155 1 1.717733 16.313671 26.340686
156 1 2.125786 18.288069 24.463453
157 1 0.031525 16.464594 28.261568
158 1 0.020597 18.142741 30.550224
159 1 2.170305 16.362651 30.559362
160 1 1.899425 18.269708 28.257528
161 1 32.286076 20.172045 32.200969
162 1 32.459875 22.260321 2.009566
163 1 2.077768 20.531123 1.889262
164 1 1.901720 22.263677 32.483731
165 1 32.247271 20.113526 3.750564
166 1 0.139397 21.929859 5.686525
167 1 1.991608 19.960043 5.765625
168 1 1.851661 22.542521 3.844687
169 1 0.188710 20.356090 8.142982
170 1 32.135037 22.550789 9.975649
171 1 2.048070 20.431307 10.261524
172 1 2.304496 22.315695 8.312719
173 1 0.028881 20.425791 11.930503
174 1 32.382300 22.180513 14.431858
175 1 1.998826 20.303362 14.233373
176 1 1.633648 22.503243 12.328228
177 1 32.327809 20.234595 16.361679
178 1 32.400027 22.328151 18.228531
179 1 1.980870 20.002820 18.421392
180 1 1.847754 22.119473 16.258444
181 1 0.048411 20.043818 20.357075
182 1 32.160004 22.278486 22.415250
183 1 2.057626 20.270240 22.594123
184 1 1.856147 21.991795 20.496773
185 1 0.064964 20.080012 24.266287
186 1 32.353525 22.226969 26.190811
187 1 1.716016 20.221873 26.324364
188 1 2.052253 22.220583 24.621411
189 1 32.323420 20.093073 28.227508
190 1 32.283159 22.126036 30.614904
191 1 1.815200 20.361908 30.179339
192 1 1.924882 22.055791 28.243201
193 1 0.160383 24.254291 32.467936
194 1 32.425795 26.330022 1.899371
195 1 2.087184 24.499959 1.891263
196 1 1.919995 26.461990 32.223524
197 1 32.249728 24.307773 3.699149
198 1 0.300676 26.010724 5.995670
199 1 1.971248 23.824152 6.314758
200 1 2.035367 26.003408 4.169299
201 1 0.152384 24.339231 8.153663
202 1 32.391661 26.723225 10.388917
203 1 1.944153 24.140657 10.108383
204 1 1.833657 26.451831 8.276978
205 1 32.291416 24.458629 12.291377
206 1 0.184098 26.210046 14.349551
207 1 2.082905 24.164055 14.586437
208 1 1.861478 26.255469 12.262395
209 1 32.425909 24.475514 16.482791
210 1 0.234731 26.284218 18.319400
211 1 2.115189 23.925315 18.635839
212 1 2.199617 26.330790 16.593189
213 1 32.455764 24.498369 20.098637
214 1 0.047929 26.113295 22.616826
215 1 1.693181 24.220873 22.413276
216 1 1.983870 26.359246 20.633505
217 1 32.129999 24.002316 24.330356
218 1 0.141299 26.445193 26.331010
219 1 1.960283 24.251301 26.274938
220 1 2.015849 26.490553 24.610209
221 1 0.003156 24.194919 28.421076
222 1 32.079997 26.189933 30.267964
223 1 1.795634 24.003598 30.418739
224 1 1.887937 26.062058 28.257529
225 1 0.093524 28.443339 32.346876
226 1 32.234475 30.201867 2.267818
227 1 1.917668 28.359988 1.864101
228 1 2.091751 30.423561 32.438240
229 1 0.175355 28.028519 3.938792
230 1 32.439287 30.287191 5.892122
231 1 2.079730 28.548532 6.357543
232 1 1.967361 30.400605 3.946099
233 1 0.130408 28.475893 7.833714
234 1 0.142776 30.713615 10.255429
235 1 1.977145 28.584701 10.112186
236 1 2.083001 30.496642 8.273257
237 1 32.429845 28.664509 12.299005
238 1 32.444703 30.685864 14.202136
239 1 2.063188 28.105458 14.194373
240 1 2.217602 30.470269 12.259527
241 1 0.258267 28.360839 15.983415
242 1 0.452178 30.535914 17.945159
243 1 2.269796 28.579009 18.293566
244 1 2.457084 30.344332 16.054266
245 1 0.228794 28.448815 20.419897
246 1 0.362206 30.399135 22.145953
247 1 2.164673 28.498752 22.458713
248 1 2.609549 30.520922 20.457488
249 1 0.144272 28.404411 24.284728
250 1 32.210071 30.550512 26.457139
251 1 2.101322 28.673523 26.558337
252 1 2.097776 30.571123 24.555323
253 1 0.038922 28.327374 28.319209
254 1 0.327419 30.596029 30.099016
255 1 1.883528 28.311562 30.208358
256 1 1.978495 30.593801 28.346666
257 1 3.900701 0.155200 0.164159
258 1 4.216282 1.904800 2.151884
259 1 5.923410 32.391784 2.190653
260 1 6.078812 2.007400 0.048169
261 1 3.809813 32.396914 4.061460
262 1 3.983280 2.277706 6.319531
263 1 6.055611 32.238303 5.966635
264 1 5.991992 1.994814 3.992495
265 1 3.921537 0.051848 7.883096
266 1 4.101498 2.023277 10.172522
267 1 6.297942 32.365463 10.191859
268 1 6.216292 2.236831 7.855788
269 1 4.152621 32.381392 12.130519
270 1 4.057174 1.912227 14.171093
271 1 6.256994 32.392856 13.915757
272 1 6.127157 2.164401 12.061837
273 1 4.409221 32.367921 16.270861
274 1 3.804585 2.024917 18.138167
275 1 6.152778 32.304130 18.399326
276 1 5.992990 1.898690 16.160883
277 1 4.330013 0.147064 20.168000
278 1 4.048332 2.030900 22.300082
279 1 6.110226 0.084002 22.405701
280 1 6.408734 1.690741 20.498210
281 1 4.004872 32.468604 24.641649
282 1 4.308825 2.244882 26.485779
283 1 6.207910 32.306062 26.505559
284 1 6.064810 2.043131 24.583790
285 1 4.225125 32.368764 28.516264
286 1 3.957276 2.145923 30.566691
287 1 6.028073 32.484468 30.818124
288 1 6.069350 1.820085 28.404881
289 1 4.157851 3.736700 0.161935
290 1 3.970909 6.474215 1.916379
291 1 6.170808 4.513256 2.298637
292 1 6.121556 6.124777 0.062004
293 1 4.174473 4.604271 3.852092
294 1 3.905701 6.483882 6.185627
295 1 5.891817 4.157845 5.982242
296 1 5.870608 6.579099 4.144835
297 1 4.040577 4.113349 8.286388
298 1 4.366885 6.163162 10.385422
299 1 6.203195 4.111692 10.068970
300 1 5.891885 5.961305 8.288502
301 1 4.210387 4.046955 12.201717
302 1 4.249530 5.972639 14.279661
303 1 6.300535 4.017118 14.317402
304 1 6.268779 6.223646 12.303984
305 1 3.933567 3.923558 16.484921
306 1 3.966603 6.053768 18.587850
307 1 5.879041 3.606285 18.389463
308 1 5.802636 5.959367 16.298113
309 1 3.799947 3.771467 20.386438
310 1 3.892883 6.248024 22.257562
311 1 6.141444 4.338385 22.434050
312 1 5.979369 5.920919 20.182566
313 1 4.067225 4.398413 24.384173
314 1 4.142413 5.847486 26.486900
315 1 6.219395 4.346548 26.497760
316 1 6.179265 6.138367 24.462831
317 1 4.286263 4.011140 28.537380
318 1 4.272137 5.916563 30.723916
319 1 6.436655 4.121488 30.461742
320 1 6.151001 6.047687 28.668782
321 1 4.188460 8.206043 32.469581
322 1 3.985543 10.383174 1.595270
323 1 6.191102 8.360258 2.123415
324 1 6.279923 10.035385 32.374473
325 1 4.091693 8.525793 3.808406
326 1 4.309021 10.293844 6.304029
327 1 6.266707 8.158720 6.440298
328 1 6.088588 10.066186 4.114089
329 1 4.181862 8.280877 8.222608
330 1 4.415811 10.127002 10.327162
331 1 6.455955 7.991486 10.490773
332 1 6.423998 10.202477 8.561760
333 1 4.219091 8.265003 12.341723
334 1 4.088772 10.158940 14.110581
335 1 5.962177 7.829969 14.487857
336 1 6.305340 9.880491 12.149446
337 1 3.935910 7.999499 16.020077
338 1 4.254927 10.355125 18.252955
339 1 6.012459 7.874085 18.421987
340 1 5.907765 10.046688 16.265059
341 1 3.966649 8.192619 20.243556
342 1 4.186227 9.905626 22.085362
343 1 6.156045 7.803490 22.539608
344 1 6.017870 9.912625 20.129846
345 1 3.873668 8.139716 24.408655
346 1 4.141668 9.858402 26.367780
347 1 6.012177 8.103026 26.535705
348 1 6.323723 9.733370 24.403016
349 1 3.971237 7.979120 28.597241
350 1 3.967962 10.304911 30.712135
351 1 6.053170 8.060925 30.526461
352 1 5.908128 10.114570 28.448028
353 1 4.393658 12.485349 32.415616
354 1 4.293574 14.160485 2.258904
355 1 6.120538 12.135147 2.125202
356 1 6.152310 14.307964 0.265226
357 1 3.927980 12.036869 4.153216
358 1 3.615539 14.121944 6.243719
359 1 6.189685 12.059936 6.033454
360 1 5.904152 14.035085 4.100348
361 1 4.222162 12.027419 8.208561
362 1 4.048632 14.139715 10.415312
363 1 6.146542 12.303812 10.468110
364 1 6.181264 14.224566 7.815968
365 1 4.142008 12.100613 11.978938
366 1 4.009182 13.841076 13.884626
367 1 5.974705 11.996845 14.268228
368 1 6.365561 14.500485 12.105806
369 1 3.797683 12.361647 16.213259
370 1 4.009000 14.107791 18.361423
371 1 6.118273 12.310713 18.310336
372 1 6.518946 14.046502 16.177989
373 1 3.807198 12.071785 20.143627
374 1 3.844721 13.849128 22.261758
375 1 6.080327 12.042180 22.538286
376 1 5.794814 14.076803 20.443950
377 1 3.998871 11.367507 24.248194
378 1 4.105560 14.356356 26.554328
379 1 6.317529 11.981566 26.419488
380 1 5.983482 14.190276 24.737403
381 1 4.071374 12.188919 28.430194
382 1 3.730711 14.114698 30.386792
383 1 6.244290 12.315927 30.635821
384 1 6.107051 14.264790 28.661364
385 1 3.942298 16.174505 0.123814
386 1 3.991232 18.368676 1.924930
387 1 5.951852 16.506494 2.128903
388 1 6.177088 18.071635 32.454285
389 1 3.928741 16.199613 4.440532
390 1 4.193577 18.305775 6.161486
391 1 6.228897 16.628930 5.866428
392 1 5.740821 18.410586 3.769501
393 1 4.260765 16.424851 7.957111
394 1 4.116687 18.534479 10.267534
395 1 5.887921 16.277566 10.196446
396 1 6.337760 18.525716 7.930103
397 1 4.283325 16.187212 12.077979
398 1 4.018923 17.910645 14.725817
399 1 5.997419 16.275415 14.330959
400 1 5.994658 18.308255 12.264833
401 1 4.275179 15.607308 16.245052
402 1 4.154734 17.825330 18.216695
403 1 6.195092 16.029569 18.000488
404 1 6.177718 18.160044 16.335009
405 1 4.173615 16.203760 20.628312
406 1 4.172049 17.993110 22.534924
407 1 6.220128 16.150297 22.658644
408 1 6.176154 17.984739 20.512872
409 1 4.125570 16.309810 24.465728
410 1 4.246388 18.054399 26.535385
411 1 6.175743 16.197114 26.679584
412 1 6.130570 18.458838 24.642396
413 1 4.049738 16.026330 28.473821
414 1 4.039522 18.284112 30.187058
415 1 5.877507 16.222589 30.647775
416 1 6.274372 18.060218 28.362110
417 1 4.020562 20.417058 32.409451
418 1 4.035433 22.401646 1.898295
419 1 6.063957 20.218408 1.962147
420 1 6.026444 22.494972 32.241404
421 1 3.892094 20.160707 3.686324
422 1 4.261095 22.401808 6.030620
423 1 6.327965 20.101555 5.704137
424 1 6.000261 22.221468 3.834302
425 1 3.976545 20.415209 7.967931
426 1 3.971231 22.143948 10.174760
427 1 6.094449 20.329915 10.301796
428 1 6.408902 21.855368 8.056935
429 1 3.878511 20.812079 12.261968
430 1 3.894244 22.535400 14.198439
431 1 6.106751 20.290798 14.406239
432 1 6.093872 22.362767 11.957286
433 1 3.915142 20.135029 16.268291
434 1 3.862156 21.981296 18.226369
435 1 6.032384 20.248545 18.116757
436 1 6.236547 22.485922 15.965657
437 1 4.015682 20.075843 20.247680
438 1 3.780162 22.133172 22.265425
439 1 5.785350 20.225591 22.310721
440 1 6.140349 22.162487 19.927577
441 1 4.062659 20.279528 25.061071
442 1 3.879335 22.235541 26.559029
443 1 6.155404 20.148465 26.787791
444 1 6.098890 22.415954 24.602069
445 1 3.968858 20.311032 28.481301
446 1 3.943381 22.471315 30.305035
447 1 5.849474 20.365982 30.192472
448 1 6.171190 22.214631 28.336467
449 1 3.855799 24.551391 32.230272
450 1 4.097960 26.376555 2.289501
451 1 6.051394 24.242480 1.963338
452 1 5.749455 26.417991 0.363512
453 1 4.045225 24.314362 4.199134
454 1 3.762927 26.232409 6.281984
455 1 6.108652 24.273951 6.342401
456 1 5.739366 26.365351 4.336621
457 1 3.871276 24.268524 8.346059
458 1 3.774933 26.101971 10.330992
459 1 6.044978 24.473899 9.942384
460 1 5.957470 26.268777 8.060673
461 1 3.930800 24.235229 12.069835
462 1 4.127757 25.931408 13.921411
463 1 6.049940 24.149855 14.081371
464 1 6.272843 25.962540 12.103215
465 1 3.944049 24.056967 16.461597
466 1 3.931374 25.985209 18.496721
467 1 6.089906 24.623910 17.883489
468 1 6.270149 26.469520 15.831014
469 1 3.923635 24.423439 21.053649
470 1 4.150347 26.580485 22.478087
471 1 6.194323 24.342409 22.232124
472 1 6.309342 26.206423 20.514368
473 1 4.069560 24.398575 24.224808
474 1 4.043830 26.362817 26.214655
475 1 6.189435 24.510526 26.594160
476 1 5.880569 26.498643 24.610289
477 1 3.845813 24.377408 28.034912
478 1 3.765698 26.182391 30.129428
479 1 5.940687 24.493879 30.216385
480 1 5.988649 26.304592 28.420537
481 1 3.781841 28.227029 32.406636
482 1 3.878396 30.450659 2.206539
483 1 6.007279 28.389257 2.281410
484 1 5.597085 30.345099 0.227899
485 1 4.031816 28.406618 4.296049
486 1 4.193855 30.336557 6.152809
487 1 5.917400 28.379753 6.232309
488 1 6.245700 30.283773 4.249482
489 1 3.850729 28.383508 8.474469
490 1 4.103789 30.404981 10.332983
491 1 6.305471 28.339819 10.173312
492 1 6.004783 30.414408 8.374925
493 1 4.121179 28.175520 12.039547
494 1 4.027070 30.306904 13.910804
495 1 6.230518 28.312760 13.943805
496 1 6.116063 30.465244 12.131885
497 1 4.039045 28.296932 16.061718
498 1 4.466286 30.212490 18.280930
499 1 6.119964 27.875424 18.453876
500 1 6.073341 30.520260 15.867061
501 1 4.282386 28.389886 20.557799
502 1 4.014791 30.333736 22.599006
503 1 6.314711 28.392299 22.492689
504 1 6.115767 30.617651 20.336185
505 1 4.207549 28.598745 24.342065
506 1 4.147965 30.427675 26.425116
507 1 6.067440 28.786116 26.613819
508 1 6.087986 30.621428 24.323200
509 1 3.879347 28.290387 28.319358
510 1 4.337680 30.392023 30.299093
511 1 5.953607 28.014859 30.665169
512 1 6.318082 30.272277 28.670264
513 1 8.015423 0.177848 0.339873
514 1 8.093824 2.122795 2.274594
515 1 10.056052 0.128059 1.943740
516 1 10.074467 2.412014 0.150302
517 1 8.136336 32.345455 3.914281
518 1 8.106019 2.254691 6.103447
519 1 9.991647 0.097845 6.051430
520 1 9.910200 2.152972 3.899055
521 1 8.168705 32.404729 7.859457
522 1 8.084466 2.059216 10.042494
523 1 10.480672 32.225248 10.142502
524 1 10.148887 1.683684 8.233804
525 1 8.294597 32.182538 12.231374
526 1 8.083698 2.027350 14.064350
527 1 10.366298 32.486408 14.047307
528 1 10.085665 1.722881 11.840170
529 1 8.252153 32.373804 16.362873
530 1 8.334692 2.146437 18.147987
531 1 10.163541 32.333137 18.268520
532 1 10.275128 1.783705 16.199623
533 1 8.265390 0.176889 20.105305
534 1 8.209574 1.945586 22.369935
535 1 10.104053 0.192675 22.397523
536 1 10.163201 1.915687 20.168654
537 1 8.140113 0.011027 24.378676
538 1 8.428656 1.915231 26.669633
539 1 10.003042 32.401410 26.528828
540 1 10.029894 2.017121 24.515803
541 1 8.226199 0.092489 28.609574
542 1 7.910113 1.808333 30.606758
543 1 10.054633 0.074470 30.494963
544 1 10.519047 2.114544 28.729606
545 1 7.780961 4.201983 0.188997
546 1 8.069434 6.305896 1.857079
547 1 9.889614 4.128632 2.270220
548 1 10.360462 5.687785 0.241961
549 1 7.919226 4.135159 4.325353
550 1 8.007904 6.072163 6.320707
551 1 10.299718 3.778969 6.227565
552 1 9.977860 5.786956 4.445946
553 1 8.345546 4.033917 8.222413
554 1 8.121299 6.007900 9.995669
555 1 10.296968 4.019693 10.076651
556 1 10.529898 5.968742 7.971134
557 1 7.919472 4.091215 11.995265
558 1 8.287427 5.677958 14.227841
559 1 10.139255 3.659438 13.878324
560 1 10.078519 5.871581 12.307709
561 1 8.205598 3.933608 16.269810
562 1 7.838485 5.953052 18.286169
563 1 10.255579 4.375229 18.349959
564 1 10.095142 5.932612 16.323672
565 1 7.721468 3.874903 20.151729
566 1 8.300441 6.014795 22.487107
567 1 9.976138 3.814766 22.394044
568 1 10.129249 6.271674 20.201489
569 1 8.187201 3.964398 24.457648
570 1 8.111737 6.205412 26.683640
571 1 10.225359 4.221583 26.321060
572 1 10.356298 6.186177 24.373343
573 1 8.289423 4.179593 28.323250
574 1 8.341329 6.139671 30.368022
575 1 9.721649 4.059015 30.640805
576 1 10.106939 6.155426 28.340748
577 1 8.361977 7.744608 32.367975
578 1 8.263304 10.038165 2.126335
579 1 10.066816 8.059307 2.290002
580 1 10.221072 10.167959 0.240311
581 1 8.102550 8.113084 4.292176
582 1 8.040017 10.031159 6.054061
583 1 10.069148 8.066319 6.356972
584 1 10.122042 10.049801 4.331568
585 1 8.185701 8.088630 8.346768
586 1 8.658082 10.035824 10.196421
587 1 10.561777 7.969952 10.244578
588 1 10.239128 10.181925 7.911602
589 1 8.385074 8.112892 12.082927
590 1 7.949547 10.059699 14.345620
591 1 9.800931 7.748984 14.483872
592 1 10.118614 9.778482 12.248193
593 1 7.982775 8.289766 16.354878
594 1 8.026087 10.072709 18.377981
595 1 9.716631 7.923580 18.233334
596 1 10.244329 9.727856 16.196036
597 1 8.002364 8.043471 20.463603
598 1 7.940529 10.091481 22.452662
599 1 10.018258 7.918769 22.297128
600 1 9.950355 10.031537 20.574257
601 1 8.245284 7.867771 24.538946
602 1 7.978928 9.953412 26.542361
603 1 10.383544 8.255252 26.568482
604 1 9.924469 10.054744 24.435999
605 1 8.313482 8.231691 28.601847
606 1 8.392767 10.419903 30.701611
607 1 10.141147 8.084573 30.342937
608 1 10.161866 10.385703 28.439879
609 1 8.066241 12.342629 0.060274
610 1 8.009907 14.158556 2.133168
611 1 10.299675 12.120859 2.175729
612 1 9.986994 14.078300 32.410571
613 1 8.072414 11.994011 4.165492
614 1 8.027238 14.386073 5.736587
615 1 10.324457 12.215033 6.246387
616 1 10.163249 14.163493 4.203163
617 1 8.206485 12.201937 7.746612
618 1 8.031966 14.358415 10.046416
619 1 10.264342 12.137509 10.093603
620 1 9.854905 14.087212 7.982915
621 1 8.405794 12.219291 12.160373
622 1 7.995589 14.048279 14.307778
623 1 9.885252 12.023535 14.359352
624 1 10.441649 14.198458 12.014394
625 1 8.072917 11.758407 16.472838
626 1 8.305707 14.607069 18.662547
627 1 9.884604 12.049159 18.370382
628 1 9.732993 13.906052 16.528851
629 1 7.820631 12.113709 20.257115
630 1 7.914569 14.173969 22.395290
631 1 9.924641 12.119300 22.381565
632 1 10.117700 14.123475 20.597376
633 1 8.031709 12.343000 24.290207
634 1 8.349803 14.173647 26.181603
635 1 10.189755 12.276927 26.383099
636 1 10.468007 14.346927 24.053383
637 1 8.094242 12.000851 28.413127
638 1 8.013656 14.259801 30.434485
639 1 10.540093 12.178106 30.505053
640 1 10.392151 13.919791 28.428328
641 1 8.228074 16.100512 0.144549
642 1 8.031901 18.220831 1.823664
643 1 10.320728 16.167162 2.238023
644 1 10.016012 18.401348 0.085201
645 1 8.074013 16.241184 3.963499
646 1 8.318237 18.273341 5.919479
647 1 10.161272 16.223238 5.861300
648 1 9.911151 18.359180 3.786370
649 1 8.012858 16.148707 7.840224
650 1 8.007433 18.157028 10.001835
651 1 9.743628 16.290820 10.193185
652 1 9.767010 18.188315 7.997268
653 1 8.564697 15.807556 12.338818
654 1 8.288148 18.389725 13.938320
655 1 10.031068 16.046088 14.468547
656 1 10.471609 18.266351 12.329291
657 1 8.157635 16.597103 16.078445
658 1 7.929047 18.588088 18.211556
659 1 10.368471 16.306979 18.237248
660 1 10.500844 18.592091 16.544090
661 1 8.168781 16.259477 20.381235
662 1 8.055364 18.454575 22.562866
663 1 9.968653 16.395704 22.463823
664 1 10.133650 18.077969 20.153182
665 1 8.104873 16.150059 24.521507
666 1 8.416819 18.121646 26.674401
667 1 10.264219 16.100891 26.668416
668 1 10.199453 18.190186 24.220722
669 1 8.327733 15.996152 28.477874
670 1 8.148377 17.744495 30.437317
671 1 10.324096 16.078168 30.439469
672 1 10.452787 18.069653 28.579316
673 1 7.962715 20.061201 32.115325
674 1 7.875266 22.290777 1.861870
675 1 10.053579 20.518157 1.860451
676 1 9.815888 22.351806 32.460378
677 1 8.097422 20.062944 3.937309
678 1 8.190068 22.289282 5.980108
679 1 10.037797 20.289054 5.764792
680 1 9.901948 22.256024 4.116324
681 1 8.230805 20.305952 8.061786
682 1 8.134408 22.280016 10.047911
683 1 10.034556 20.070589 10.062977
684 1 10.164246 22.132633 7.954881
685 1 8.179854 20.275316 12.082745
686 1 8.131832 22.293787 14.307284
687 1 10.106475 20.465944 14.220995
688 1 10.319892 22.182609 12.098955
689 1 8.250951 20.367323 16.192293
690 1 8.014922 22.390911 18.107281
691 1 10.007845 20.432010 18.281134
692 1 10.156197 22.323355 16.336312
693 1 8.046373 20.293724 20.376838
694 1 8.162762 22.398547 22.375263
695 1 9.893278 20.021832 22.111842
696 1 10.285086 22.191934 20.347039
697 1 8.402649 20.202080 24.444069
698 1 8.100449 22.232792 26.737905
699 1 10.332414 20.318314 26.258575
700 1 10.127935 22.245589 24.448465
701 1 8.135240 20.119204 28.747253
702 1 8.074572 22.481668 30.500939
703 1 10.062228 20.041356 30.445496
704 1 9.962663 22.374075 28.538236
705 1 7.874882 24.382919 32.409410
706 1 7.625259 26.433058 2.337420
707 1 9.746701 24.509092 1.900054
708 1 9.866323 26.437730 32.426851
709 1 8.134280 24.091462 4.110176
710 1 7.799111 26.287211 5.943952
711 1 10.060642 24.244615 6.288720
712 1 9.951173 26.502426 4.166233
713 1 8.023669 24.197056 8.081650
714 1 8.472325 26.346094 9.985535
715 1 10.032995 24.274567 10.135669
716 1 10.424267 26.338873 8.142718
717 1 8.240134 24.223279 12.193452
718 1 8.200200 26.123763 13.938150
719 1 10.218334 24.243757 14.125464
720 1 10.474144 26.277403 12.102590
721 1 8.207502 24.546281 16.094308
722 1 8.365136 26.123427 18.476089
723 1 10.318858 24.334718 18.304845
724 1 10.252928 26.284091 16.343940
725 1 8.389978 24.151690 20.535150
726 1 8.204012 26.610577 22.597847
727 1 10.033868 24.472745 22.470311
728 1 10.079775 26.204071 20.458474
729 1 8.417358 24.196824 24.562919
730 1 7.974411 26.503760 26.375307
731 1 10.040636 24.462414 26.645770
732 1 10.063311 26.563415 24.479477
733 1 8.259312 24.520455 28.611211
734 1 8.093277 26.647699 30.543512
735 1 10.331967 24.394256 30.587539
736 1 10.108318 26.610697 28.286742
737 1 7.752374 28.209059 0.163322
738 1 8.012371 30.263519 2.079360
739 1 9.964962 28.381409 2.066059
740 1 9.984029 30.591093 0.173460
741 1 7.927582 28.308779 4.184570
742 1 7.953761 30.309050 6.310748
743 1 10.416925 28.203946 6.261703
744 1 10.046705 30.213232 4.042321
745 1 8.041052 28.145248 7.960938
746 1 8.308129 30.278173 9.999469
747 1 10.365805 28.256030 10.078708
748 1 10.459837 30.318284 8.038551
749 1 8.376800 28.098853 11.962815
750 1 8.146640 30.223151 14.185532
751 1 10.121999 28.416689 14.188809
752 1 10.228198 30.452667 12.303029
753 1 8.240526 28.367990 16.147364
754 1 8.028361 30.483945 18.081578
755 1 9.994829 28.213042 18.149336
756 1 10.203199 30.306058 16.325834
757 1 7.970671 28.428342 20.254861
758 1 8.229601 30.619461 22.273122
759 1 10.321386 28.562860 22.386198
760 1 10.137535 30.527443 20.336497
761 1 8.302455 28.636267 24.320428
762 1 8.149028 30.455116 26.581060
763 1 10.124862 28.522518 26.373519
764 1 10.303660 30.374515 24.410992
765 1 8.155344 28.437203 28.504309
766 1 8.059844 30.653272 30.613514
767 1 10.150790 28.607947 30.500900
768 1 10.289934 30.423495 28.374216
769 1 12.326704 31.950764 0.206840
770 1 12.086572 1.883010 1.980085
771 1 14.277803 32.308249 2.072031
772 1 14.433257 1.727269 32.333362
773 1 11.886561 32.365972 4.162831
774 1 12.044638 2.005474 6.030572
775 1 14.232361 0.322213 6.083212
776 1 14.056077 1.862159 4.083106
777 1 12.382145 0.053247 8.008975
778 1 12.480618 2.101526 10.384024
779 1 14.138542 0.055065 10.110004
780 1 14.454274 1.755237 8.188834
781 1 12.394966 0.124007 12.393418
782 1 12.341052 2.165728 14.259835
783 1 14.442937 32.369489 14.317847
784 1 14.292160 2.107184 12.365283
785 1 12.379827 32.413101 15.890230
786 1 12.179801 2.039651 18.371521
787 1 14.257437 32.477724 18.266820
788 1 13.960819 2.054387 16.512558
789 1 12.065495 32.434584 20.261128
790 1 12.174379 1.920867 22.554544
791 1 14.241773 32.369454 22.624159
792 1 14.046624 1.708258 20.392276
793 1 12.001280 32.465724 24.574023
794 1 12.304506 2.258977 26.533547
795 1 14.667888 32.428641 26.455915
796 1 14.526619 1.931890 24.516224
797 1 12.405127 0.087115 28.395546
798 1 12.066188 2.023642 30.722951
799 1 13.982306 32.415351 30.499984
800 1 14.310960 2.186234 28.338063
801 1 12.325024 3.830167 32.422849
802 1 12.231800 6.005540 2.170030
803 1 14.298908 3.975031 1.924675
804 1 13.853432 6.157589 0.019495
805 1 12.271251 3.839037 3.808283
806 1 12.058247 6.312238 5.805042
807 1 14.093890 4.238673 6.064662
808 1 14.292970 5.593151 3.811499
809 1 12.325970 3.818461 8.155560
810 1 12.326081 5.998664 9.926704
811 1 14.463399 3.864748 10.197880
812 1 14.167082 6.010917 7.869136
813 1 12.201997 4.269094 12.218502
814 1 12.081646 6.065246 14.701326
815 1 14.353433 4.133990 14.302013
816 1 14.299861 5.854731 11.989037
817 1 12.090555 3.967331 16.356173
818 1 12.185804 6.298212 18.413317
819 1 14.198570 4.097361 18.476018
820 1 14.274495 5.860586 16.552779
821 1 11.957881 4.037757 20.183697
822 1 11.927346 5.673094 22.394126
823 1 14.276365 3.668579 22.350512
824 1 14.054207 5.937396 20.398323
825 1 12.075946 3.878455 24.354865
826 1 12.349073 5.795430 26.591693
827 1 14.297830 4.260839 26.348132
828 1 14.394195 5.870516 24.250518
829 1 12.402484 4.075507 28.675952
830 1 12.142029 6.066433 30.555868
831 1 14.594392 3.836276 30.385741
832 1 14.132113 6.132291 28.720333
833 1 11.931490 8.165375 0.311969
834 1 12.374494 10.077346 2.306362
835 1 14.253899 8.250311 2.402301
836 1 14.089225 10.123004 0.038121
837 1 11.883742 8.140602 4.140193
838 1 12.335929 10.267248 6.152089
839 1 14.452279 8.094482 5.827455
840 1 14.318699 10.405154 4.254997
841 1 12.141591 8.124627 7.817767
842 1 12.323434 9.984720 10.037557
843 1 14.181733 7.600020 10.158107
844 1 14.309821 9.867077 8.392397
845 1 12.254094 7.941683 12.521070
846 1 12.021677 10.507296 14.265730
847 1 14.209731 8.641156 14.428719
848 1 14.255214 9.684726 11.914467
849 1 12.169336 8.075336 16.389888
850 1 11.751479 10.021840 18.502545
851 1 14.126708 8.220242 18.380645
852 1 14.150363 10.111506 16.618445
853 1 12.290487 8.058822 20.826421
854 1 11.922619 9.993639 22.614594
855 1 14.189393 8.209024 22.467185
856 1 13.882278 9.959887 20.432742
857 1 12.294057 7.915293 24.449960
858 1 12.408077 10.232086 26.396365
859 1 14.210124 7.995919 26.282189
860 1 13.884613 10.190457 24.319794
861 1 12.365137 8.089423 28.260772
862 1 12.150289 9.805598 30.392587
863 1 13.985554 8.026485 30.697352
864 1 14.434654 10.013522 28.527353
865 1 12.219689 11.821254 32.164719
866 1 12.221978 14.167172 1.741437
867 1 14.273927 12.312399 1.850826
868 1 14.713492 14.102488 0.038362
869 1 12.153341 12.211878 4.130006
870 1 12.229429 14.234917 6.095183
871 1 14.077675 12.511089 6.081957
872 1 14.245863 14.154041 4.097039
873 1 12.410456 12.172506 8.252953
874 1 12.153927 14.163074 9.963449
875 1 14.391038 12.119490 10.031766
876 1 14.045386 14.315745 8.195394
877 1 12.059871 12.172254 12.069976
878 1 11.936359 13.757177 14.661844
879 1 14.152577 11.843286 14.658041
880 1 14.113862 13.762826 12.073772
881 1 11.925905 12.035597 16.725063
882 1 11.996051 14.153190 18.659824
883 1 14.099032 12.218760 18.520263
884 1 14.179401 14.119367 16.608739
885 1 11.978761 12.125832 20.143038
886 1 12.172728 14.237798 22.132361
887 1 13.834489 11.999361 22.428039
888 1 14.444976 14.482555 20.140067
889 1 12.088294 12.311266 24.261383
890 1 12.287001 14.554819 26.172335
891 1 14.602274 12.162940 26.546264
892 1 14.073784 14.158586 24.227360
893 1 12.604083 11.919514 28.274574
894 1 12.461506 14.249104 30.541971
895 1 14.672927 12.186082 30.588853
896 1 14.519691 14.155561 28.599871
897 1 12.465002 16.249813 32.314838
898 1 12.289696 17.832982 2.107293
899 1 14.382643 16.249603 2.084524
900 1 14.324389 18.316671 32.277724
901 1 12.269723 15.947912 4.035134
902 1 11.904613 18.157298 6.013419
903 1 14.011128 16.179378 6.358835
904 1 14.393730 17.997571 4.172211
905 1 11.668415 16.338589 8.052108
906 1 12.000933 17.976698 10.003702
907 1 14.298824 16.294289 10.341753
908 1 14.159745 17.979087 8.040605
909 1 12.046764 15.898599 12.177447
910 1 12.127230 18.372613 14.415147
911 1 13.980859 15.956325 14.128642
912 1 13.881439 18.293197 12.197289
913 1 12.167394 16.165902 16.349475
914 1 12.277526 18.377908 18.480448
915 1 14.325885 16.595534 18.318992
916 1 14.284796 18.195794 15.898362
917 1 12.367159 16.432687 20.398333
918 1 12.049440 18.309420 22.403446
919 1 14.439320 16.412167 22.272851
920 1 14.248710 18.501052 20.415858
921 1 12.322964 16.189500 24.127484
922 1 12.204534 18.202543 26.443985
923 1 14.384747 16.156906 26.116515
924 1 14.100780 18.481383 24.110843
925 1 12.741026 16.289036 28.303607
926 1 12.420142 18.518907 30.594995
927 1 14.342293 16.421465 30.467528
928 1 14.599087 18.389363 28.357082
929 1 12.197698 20.334278 32.418456
930 1 11.721606 22.480503 1.713782
931 1 13.934493 20.152361 2.269305
932 1 14.063060 22.534851 0.141827
933 1 11.911397 20.549286 3.777883
934 1 11.958979 22.239220 5.842970
935 1 14.027096 20.361915 5.843424
936 1 13.920120 22.575697 3.914673
937 1 12.083698 19.818466 8.238236
938 1 12.317612 22.227684 10.253870
939 1 14.143565 20.220266 10.067452
940 1 14.023889 22.156745 7.948784
941 1 12.220104 20.360359 12.299526
942 1 12.094103 22.472383 14.240291
943 1 14.252605 20.314402 14.290367
944 1 14.268083 22.368544 12.277869
945 1 12.371078 20.662836 16.041744
946 1 12.462958 21.805175 18.166162
947 1 14.486782 20.025852 17.899618
948 1 14.091343 22.348774 16.186111
949 1 12.088972 20.299223 20.341047
950 1 12.178256 22.504772 22.226594
951 1 14.051225 20.430618 22.371955
952 1 14.224137 22.658440 20.355003
953 1 12.000533 20.465199 24.144487
954 1 12.145582 22.581991 26.177633
955 1 14.033442 20.449578 25.941360
956 1 14.242972 22.847665 24.458266
957 1 12.233457 20.585509 28.326553
958 1 11.901391 22.341988 30.548248
959 1 14.416097 20.635257 30.237456
960 1 14.134017 22.297549 28.213400
961 1 12.110866 24.757467 32.462032
962 1 11.915074 26.544131 1.899506
963 1 13.838809 24.571421 2.155969
964 1 14.124076 26.653901 0.021284
965 1 11.713997 24.354772 4.058136
966 1 11.935935 26.228180 6.088723
967 1 13.772414 24.037666 6.079734
968 1 14.064991 26.238935 4.321610
969 1 12.270944 24.153681 8.384165
970 1 12.570051 26.291454 10.219675
971 1 14.348156 24.094231 10.204469
972 1 14.351051 26.563158 7.819398
973 1 11.974272 24.326531 12.011417
974 1 12.369567 26.061697 13.911716
975 1 14.437133 24.307075 14.054175
976 1 14.367813 26.108302 12.044911
977 1 12.138446 24.264706 16.198782
978 1 12.332764 26.374689 18.270553
979 1 14.212647 24.290751 18.191140
980 1 14.174944 25.959436 16.189100
981 1 12.338878 24.586191 20.392425
982 1 12.385612 26.416900 22.533693
983 1 14.353930 24.713381 22.330937
984 1 14.292756 26.520266 20.320402
985 1 11.721572 24.404736 24.401941
986 1 12.116461 26.511300 26.239727
987 1 13.929841 24.568593 26.572901
988 1 14.279335 26.635640 24.542820
989 1 12.088160 24.326017 28.455370
990 1 12.079014 26.800389 30.505867
991 1 13.923016 24.417016 30.673648
992 1 14.198721 26.523532 28.996979
993 1 11.852990 28.472537 0.041889
994 1 12.134393 30.442593 2.548563
995 1 13.919949 28.171965 2.358843
996 1 14.292437 30.556236 0.179727
997 1 12.100395 28.381849 4.386643
998 1 12.215770 30.283778 6.009773
999 1 14.596543 28.469000 5.941012
1000 1 14.430188 30.500432 3.957473
1001 1 12.494668 28.574245 8.082285
1002 1 12.511284 30.515902 10.387710
1003 1 14.587529 28.626832 10.418586
1004 1 14.129961 30.376715 8.036047
1005 1 12.396240 28.463498 12.624681
1006 1 12.512600 30.398604 14.094622
1007 1 14.445845 28.288208 14.391364
1008 1 14.416919 30.485080 12.450816
1009 1 12.182516 28.279569 16.128408
1010 1 12.311483 30.680827 18.174491
1011 1 14.126229 28.327994 18.317690
1012 1 14.183176 30.296740 16.003044
1013 1 12.042471 28.405805 20.427101
1014 1 12.209746 30.611187 22.437241
1015 1 14.105531 28.532308 22.671427
1016 1 14.394145 30.338780 20.167379
1017 1 12.063648 28.574967 24.596359
1018 1 12.361757 30.583346 26.463014
1019 1 14.318003 28.743539 26.304108
1020 1 14.413875 30.349675 24.319462
1021 1 12.296125 28.509830 28.506521
1022 1 11.975251 30.587817 30.510528
1023 1 14.221539 28.655600 30.696391
1024 1 14.254215 30.409364 28.663885
1025 1 16.188648 32.386985 0.189602
1026 1 16.069683 2.074193 1.982326
1027 1 18.175546 0.271967 2.135425
1028 1 18.148732 1.948950 32.468159
1029 1 16.180192 0.202520 4.158863
1030 1 15.961502 2.016109 5.832984
1031 1 18.507755 32.211697 6.176067
1032 1 18.329833 2.033378 4.486158
1033 1 16.168163 0.055281 7.925347
1034 1 16.429231 1.882157 10.123065
1035 1 18.416951 32.352977 10.402296
1036 1 18.253215 2.095488 7.968175
1037 1 16.279007 0.003305 12.187582
1038 1 16.030753 2.097586 14.387875
1039 1 18.270418 32.405042 14.404505
1040 1 18.233344 1.746877 12.151128
1041 1 16.171368 0.165990 16.242836
1042 1 16.215752 2.090503 18.285562
1043 1 18.293679 32.419180 18.131236
1044 1 18.292620 2.045567 16.356074
1045 1 16.348556 32.100616 20.129012
1046 1 16.257923 1.754785 22.091786
1047 1 18.175501 32.449984 22.150647
1048 1 18.311742 1.910771 19.936463
1049 1 16.271945 32.202065 24.430255
1050 1 16.353585 1.909035 26.419604
1051 1 18.517880 32.461784 26.405524
1052 1 18.209159 2.015582 24.451481
1053 1 16.302624 0.241153 28.287167
1054 1 16.237570 1.594291 30.548606
1055 1 18.485761 0.038147 30.190544
1056 1 18.499039 2.143882 28.338803
1057 1 16.231881 4.182125 32.383153
1058 1 16.222473 6.026138 1.842374
1059 1 18.489665 3.851335 2.255860
1060 1 18.136778 6.113142 32.228483
1061 1 16.247458 3.947251 4.062639
1062 1 16.408883 6.189507 6.151516
1063 1 18.205346 4.200899 6.303422
1064 1 17.968822 6.143620 4.064570
1065 1 16.100212 3.810861 8.011090
1066 1 16.269321 5.920172 10.202500
1067 1 18.381304 4.069146 10.053463
1068 1 18.136802 6.283468 8.023177
1069 1 16.138597 3.995353 12.254042
1070 1 16.185279 6.127483 14.310550
1071 1 18.229847 4.079485 14.223879
1072 1 18.053337 6.207569 12.286535
1073 1 16.563393 4.235381 16.683350
1074 1 16.430972 6.342985 18.357169
1075 1 18.570821 4.221470 18.416264
1076 1 18.522425 6.194744 16.448512
1077 1 16.156960 3.848864 20.312376
1078 1 16.096128 6.071828 22.037445
1079 1 18.192691 3.688545 22.261591
1080 1 18.222124 6.112873 20.405134
1081 1 16.286320 3.944912 24.401134
1082 1 16.165594 6.207519 26.468310
1083 1 18.235744 4.164330 26.207894
1084 1 18.290717 5.897194 24.088015
1085 1 16.491015 4.005088 28.320249
1086 1 16.083324 6.074658 30.362448
1087 1 18.166364 4.231129 30.426421
1088 1 18.298303 6.089209 28.335503
1089 1 15.877731 8.282576 0.187562
1090 1 16.288550 10.404751 1.929433
1091 1 18.138490 8.242487 1.953575
1092 1 18.291566 10.053058 32.184649
1093 1 16.594429 8.532372 4.082563
1094 1 15.754908 10.433450 6.177624
1095 1 18.306960 8.261003 5.985045
1096 1 18.225690 10.437678 4.431397
1097 1 16.338836 7.982883 7.975065
1098 1 16.352537 10.040592 10.118079
1099 1 18.382066 8.120856 10.047935
1100 1 18.310090 10.569836 8.126056
1101 1 16.088660 7.906391 11.916614
1102 1 16.536377 10.375273 14.263606
1103 1 18.204429 8.210247 14.202998
1104 1 18.276368 10.132813 12.379673
1105 1 15.939161 7.973827 16.127916
1106 1 16.279957 10.052393 18.091196
1107 1 18.170427 8.336353 18.065143
1108 1 18.207964 10.336259 16.185682
1109 1 15.745370 8.106760 20.274713
1110 1 15.889741 9.973147 22.406423
1111 1 17.987909 8.226123 22.215571
1112 1 18.130809 10.376409 20.275768
1113 1 16.107646 7.984882 24.391418
1114 1 16.100572 10.080589 26.112981
1115 1 18.108076 7.955363 26.231862
1116 1 18.298847 9.810811 24.283906
1117 1 16.072762 8.124905 28.418612
1118 1 16.196615 10.024815 30.432195
1119 1 18.286708 8.155895 30.379005
1120 1 18.227602 10.215442 28.667198
1121 1 16.617681 12.231475 0.010424
1122 1 16.329109 14.154822 1.993902
1123 1 18.405897 12.376991 2.164133
1124 1 18.080777 14.404593 0.211621
1125 1 16.212000 12.296868 4.174354
1126 1 15.963020 14.212340 6.367436
1127 1 17.892741 12.535433 6.128446
1128 1 18.306522 14.248460 4.058650
1129 1 16.401426 12.365138 8.257395
1130 1 16.109365 14.405012 10.245025
1131 1 18.239496 12.275808 10.409114
1132 1 18.495578 14.015938 8.329352
1133 1 16.384421 12.118051 12.502228
1134 1 16.169988 14.056675 14.416583
1135 1 18.358557 12.388833 14.449673
1136 1 18.444237 14.452541 12.313687
1137 1 16.330446 12.319356 16.182699
1138 1 16.237585 14.069802 18.366598
1139 1 18.377056 12.384813 18.477219
1140 1 18.370083 14.334569 16.269955
1141 1 15.998818 11.976546 20.291864
1142 1 16.015707 14.438812 22.190774
1143 1 17.896119 12.139525 22.361761
1144 1 18.374869 14.361895 20.446814
1145 1 16.162621 12.084538 24.292651
1146 1 16.124571 14.308716 26.351891
1147 1 17.765436 12.281256 26.370480
1148 1 18.161554 13.935483 24.175130
1149 1 16.033922 12.011683 28.540724
1150 1 16.239600 14.524602 30.520214
1151 1 18.166270 12.488258 30.341668
1152 1 18.011478 14.356770 28.354162
1153 1 16.285095 16.311543 32.476198
1154 1 16.411597 18.429577 1.877858
1155 1 18.407674 16.295172 2.216821
1156 1 18.150998 18.657135 32.386092
1157 1 16.190841 16.104442 4.351934
1158 1 16.147410 18.113240 6.343976
1159 1 18.324548 16.428489 6.108174
1160 1 17.911541 18.440227 4.179970
1161 1 16.204210 16.136268 8.143411
1162 1 16.061054 18.292126 10.484101
1163 1 18.463422 16.202618 10.100891
1164 1 18.124392 18.405127 8.207265
1165 1 15.889738 16.089691 12.344747
1166 1 16.097026 18.462126 13.796162
1167 1 17.949327 16.180773 14.467108
1168 1 18.601028 18.044373 12.217016
1169 1 16.147438 16.283727 16.488289
1170 1 16.431675 18.278655 18.483534
1171 1 18.443521 16.172938 17.982605
1172 1 18.345542 18.439943 16.232311
1173 1 16.623633 16.484668 20.310758
1174 1 16.313762 18.287554 22.266760
1175 1 18.417730 16.382635 22.173775
1176 1 18.549093 18.442072 20.217384
1177 1 16.344395 15.814549 24.351885
1178 1 15.892517 18.209485 25.931003
1179 1 18.018169 16.392316 26.034076
1180 1 18.272785 18.347257 24.296693
1181 1 15.924463 16.240230 28.412362
1182 1 16.574421 18.339895 30.368718
1183 1 18.335780 16.375673 30.388543
1184 1 17.967587 18.115575 28.335476
1185 1 15.791317 20.413218 0.139401
1186 1 15.902316 22.183740 2.077189
1187 1 18.375225 20.313592 2.036518
1188 1 18.097995 22.320011 0.133651
1189 1 16.058171 20.354499 4.010676
1190 1 15.900775 22.244052 6.137263
1191 1 18.078331 20.316474 6.170619
1192 1 18.070292 22.208495 4.317519
1193 1 15.997916 20.150841 8.131426
1194 1 16.213548 22.178922 9.877241
1195 1 18.686580 20.447638 10.079988
1196 1 18.222405 22.263112 8.078173
1197 1 16.553772 20.583903 11.971337
1198 1 16.331711 22.269601 14.103339
1199 1 18.379425 20.377823 13.996436
1200 1 18.624685 22.333925 11.835662
1201 1 16.282293 20.264146 16.387720
1202 1 16.150687 22.517272 18.259634
1203 1 18.389818 20.754500 18.360344
1204 1 18.341880 22.477147 16.038118
1205 1 16.295549 20.338473 20.128540
1206 1 16.156642 22.330330 22.303159
1207 1 18.150537 20.498124 22.137155
1208 1 18.269102 22.485590 20.592137
1209 1 16.245394 20.183693 24.308923
1210 1 16.173676 22.459525 26.225920
1211 1 18.150812 20.112279 26.281294
1212 1 18.026009 22.215549 24.304765
1213 1 16.395492 20.650813 28.661462
1214 1 16.168342 22.729913 30.539498
1215 1 17.934739 20.688088 30.628951
1216 1 18.401484 22.902383 27.990468
1217 1 16.145574 24.534980 0.192459
1218 1 16.186620 26.472534 1.891385
1219 1 17.925903 24.402956 2.066476
1220 1 18.407853 26.587200 32.151969
1221 1 16.408331 24.180986 4.223794
1222 1 16.324905 26.318499 5.932001
1223 1 18.232175 24.451541 6.274703
1224 1 18.271769 26.091279 4.001254
1225 1 16.110118 24.103377 7.753648
1226 1 15.917221 26.425592 9.991606
1227 1 18.486197 24.419822 9.772803
1228 1 18.281645 26.584052 8.339887
1229 1 16.668181 24.037699 11.941945
1230 1 16.082724 26.267287 14.184435
1231 1 18.213718 24.389396 14.066482
1232 1 18.180740 26.394141 11.957244
1233 1 16.298745 24.228074 16.346369
1234 1 16.213600 26.505888 18.452405
1235 1 18.617887 24.227102 18.283169
1236 1 18.326003 26.238768 16.337733
1237 1 16.216070 24.576028 20.082514
1238 1 16.349632 26.525304 22.232115
1239 1 18.217479 24.616956 22.513597
1240 1 18.385533 26.401088 20.209204
1241 1 16.248965 24.537035 24.378491
1242 1 16.101505 26.732598 26.527800
1243 1 18.146521 24.595140 26.115618
1244 1 18.322613 26.433299 24.410452
1245 1 16.522848 24.811387 28.501306
1246 1 16.118178 26.348655 30.551461
1247 1 18.470736 24.535805 30.703727
1248 1 18.541949 26.421248 28.123914
1249 1 16.370940 28.463515 32.397580
1250 1 16.092193 30.393425 1.827503
1251 1 18.374770 28.502036 1.886237
1252 1 18.148690 30.625515 0.013506
1253 1 16.601412 28.837187 3.917952
1254 1 16.271377 30.721723 6.033666
1255 1 18.295447 28.326996 5.913051
1256 1 18.390531 30.597309 4.076325
1257 1 16.175431 28.715898 8.033144
1258 1 16.262660 30.711915 10.147884
1259 1 18.437504 28.582624 10.120395
1260 1 18.422640 30.724190 8.152320
1261 1 16.263429 28.375395 12.391798
1262 1 16.528108 30.445907 14.412266
1263 1 18.048078 28.154407 14.365862
1264 1 18.160055 30.404855 12.070275
1265 1 16.182583 28.121479 16.404400
1266 1 16.058718 30.555757 17.978409
1267 1 18.174886 28.417147 18.209318
1268 1 18.777362 30.298455 16.305412
1269 1 16.377462 28.650046 20.213084
1270 1 16.127173 30.431677 22.351785
1271 1 18.341918 28.527361 22.508712
1272 1 18.377744 30.293943 20.208389
1273 1 16.202771 28.296946 24.493404
1274 1 16.446783 30.598410 26.467068
1275 1 18.346846 28.487123 26.324324
1276 1 18.472475 30.662194 24.155662
1277 1 16.277369 28.527901 28.613390
1278 1 16.413588 30.648303 30.359694
1279 1 18.462387 28.556903 30.372113
1280 1 18.322757 30.528614 28.574192
1281 1 20.339654 32.357787 0.031884
1282 1 20.253789 2.016558 1.886524
1283 1 22.300185 32.391829 2.043005
1284 1 21.951471 2.072552 32.329399
1285 1 20.240794 32.438727 3.682901
1286 1 20.358967 2.190975 6.262979
1287 1 21.830714 32.244637 5.863344
1288 1 22.158304 1.846977 4.027556
1289 1 20.492312 0.269960 8.260547
1290 1 20.214852 2.067599 10.096164
1291 1 22.605380 32.422667 10.272182
1292 1 22.563828 2.117168 8.584497
1293 1 20.437755 0.159553 11.859259
1294 1 20.149827 1.843011 14.051046
1295 1 22.332553 0.423811 14.213578
1296 1 22.204041 2.188331 12.044015
1297 1 20.373902 32.293048 16.336164
1298 1 20.346217 2.109991 18.118003
1299 1 22.284402 0.213221 18.542664
1300 1 22.287073 2.331885 16.642779
1301 1 20.195197 32.413730 20.356884
1302 1 20.233692 1.920184 22.545617
1303 1 22.153869 0.093158 22.366289
1304 1 22.147372 2.027543 20.481734
1305 1 20.310076 32.445046 24.267212
1306 1 20.405752 2.012646 26.289557
1307 1 22.574087 32.486302 26.087618
1308 1 22.657173 2.231788 24.205090
1309 1 20.487479 0.112194 28.367339
1310 1 20.059382 2.304709 30.468449
1311 1 22.391681 0.277556 30.553314
1312 1 22.301362 2.081996 28.278029
1313 1 19.917571 4.052571 0.040386
1314 1 19.790090 6.103889 1.864482
1315 1 22.227353 4.102001 1.740241
1316 1 22.007713 6.035478 0.009974
1317 1 20.664386 4.232182 3.956906
1318 1 20.315913 5.895005 6.164347
1319 1 22.468146 3.801918 6.251848
1320 1 22.146612 6.206178 3.753877
1321 1 20.400675 4.071978 8.283924
1322 1 19.931032 6.169571 9.949957
1323 1 22.211248 4.161440 10.274298
1324 1 22.159614 5.981416 8.169500
1325 1 20.420847 4.114197 12.278475
1326 1 20.327729 5.910018 14.419102
1327 1 22.261765 4.084434 14.505292
1328 1 22.193098 6.114389 12.099121
1329 1 20.208256 4.059413 16.278756
1330 1 20.479421 6.515163 18.643777
1331 1 22.329524 4.002927 18.635111
1332 1 22.463175 6.244636 16.283453
1333 1 20.051095 4.212354 20.350453
1334 1 20.053988 6.422747 22.448221
1335 1 22.160021 4.367420 22.351114
1336 1 22.259646 6.468206 20.752151
1337 1 20.149771 4.030451 24.302174
1338 1 20.107135 6.371784 26.261539
1339 1 22.302137 4.253794 26.480799
1340 1 22.198395 6.232698 24.526512
1341 1 20.181405 4.133564 28.321811
1342 1 20.218100 6.022976 30.384195
1343 1 22.213821 3.773375 30.325330
1344 1 22.475847 5.995630 28.541533
1345 1 20.291026 8.178203 32.399924
1346 1 20.135895 10.257371 1.987537
1347 1 22.056288 8.150016 1.862138
1348 1 22.217301 10.432104 32.290714
1349 1 20.090397 8.032855 3.943494
1350 1 20.374009 10.201920 5.995612
1351 1 22.321769 7.754003 6.085850
1352 1 22.064205 9.938412 3.999925
1353 1 20.255683 7.988557 7.946519
1354 1 20.188364 10.326529 10.185701
1355 1 22.167276 8.027829 9.986184
1356 1 22.425831 10.224859 8.134132
1357 1 20.077743 8.011641 12.306044
1358 1 20.169153 10.380655 14.385488
1359 1 21.871905 7.975804 14.096390
1360 1 22.153938 10.047923 12.106068
1361 1 20.176640 8.470019 16.213789
1362 1 20.102201 10.322240 18.238780
1363 1 22.233351 8.280647 18.292933
1364 1 22.359519 10.024974 16.195830
1365 1 20.024426 8.248213 20.546600
1366 1 20.196466 10.021799 22.669341
1367 1 22.372481 8.516981 22.795281
1368 1 22.215965 10.064376 20.412047
1369 1 20.197122 8.053596 24.461793
1370 1 20.028305 10.347442 26.611351
1371 1 22.101724 8.058048 26.664855
1372 1 22.528911 10.260470 24.641229
1373 1 20.066838 8.187474 28.352895
1374 1 19.988916 10.378622 30.221970
1375 1 22.218565 8.017650 30.473914
1376 1 22.022997 10.174395 28.246104
1377 1 20.423010 12.341867 32.332385
1378 1 20.153497 14.501847 1.768347
1379 1 22.336990 12.243041 1.836497
1380 1 22.235255 14.586872 32.081255
1381 1 20.478774 12.321045 4.173193
1382 1 20.064545 14.494676 5.932717
1383 1 22.473064 12.485324 6.003495
1384 1 22.506047 14.042356 3.780458
1385 1 20.566068 12.341687 7.909610
1386 1 20.374509 14.216126 10.149491
1387 1 22.395104 12.102612 10.108009
1388 1 22.267318 14.438654 7.823959
1389 1 20.164670 12.146905 12.134431
1390 1 20.464483 14.340183 14.310900
1391 1 22.565096 11.934083 14.257505
1392 1 22.210973 14.150407 12.015518
1393 1 20.537541 12.110158 16.377395
1394 1 20.235527 14.441576 18.458825
1395 1 22.139309 12.247184 18.389239
1396 1 22.538443 14.064942 16.105330
1397 1 20.192327 12.098685 20.505607
1398 1 20.175715 14.265316 22.410265
1399 1 22.110001 12.183200 22.484968
1400 1 21.979149 13.877011 20.421834
1401 1 20.331496 11.999788 24.506809
1402 1 19.947692 14.596338 26.348521
1403 1 22.058256 12.352780 26.626696
1404 1 21.926031 14.153878 24.304473
1405 1 20.129507 12.561582 28.273086
1406 1 20.096530 14.089323 30.397478
1407 1 22.152757 12.336611 30.154008
1408 1 22.349761 14.409682 28.249110
1409 1 20.131298 16.456366 32.219730
1410 1 20.266137 18.203909 2.009295
1411 1 22.459845 16.288160 1.768128
1412 1 22.227711 18.330772 0.172055
1413 1 20.365580 16.329697 4.121979
1414 1 20.205159 18.385488 6.068700
1415 1 22.376530 16.291885 5.906273
1416 1 22.419222 18.226096 3.955568
1417 1 20.394118 16.338764 8.112080
1418 1 20.278764 18.322026 10.171181
1419 1 22.342976 16.386662 10.111207
1420 1 22.022371 18.119230 8.153956
1421 1 20.387958 16.177392 12.302151
1422 1 20.448530 18.272681 14.354183
1423 1 22.796894 16.272554 14.407112
1424 1 22.555553 18.263689 12.013081
1425 1 20.522606 16.480398 16.311855
1426 1 20.713757 18.809339 18.197002
1427 1 22.266415 16.166885 18.672887
1428 1 22.563184 18.234412 16.483775
1429 1 20.348609 16.240832 20.440648
1430 1 20.225848 18.471417 22.359487
1431 1 22.371030 16.230778 22.258755
1432 1 22.144264 18.356671 20.475482
1433 1 20.167039 16.189937 24.142677
1434 1 20.009444 18.354720 26.620144
1435 1 22.335046 16.315975 26.312962
1436 1 21.991236 18.390070 24.654791
1437 1 20.372337 16.515464 28.425226
1438 1 20.267381 18.618675 30.722292
1439 1 22.241194 16.421298 30.376465
1440 1 22.011807 18.670247 28.556018
1441 1 20.380324 20.443285 0.124023
1442 1 20.181392 22.389220 1.967574
1443 1 22.413869 20.475146 2.024646
1444 1 22.473816 22.625922 0.177617
1445 1 20.137677 20.274836 4.250126
1446 1 20.062785 22.287249 6.140438
1447 1 22.400735 19.950116 6.068812
1448 1 22.171347 22.291997 4.103693
1449 1 20.530550 20.174079 7.881937
1450 1 20.597268 22.480657 10.009493
1451 1 22.268682 20.258436 10.274439
1452 1 22.376836 22.310970 7.996476
1453 1 20.424599 20.177517 12.082952
1454 1 20.431087 22.412161 13.965070
1455 1 22.432108 20.165759 13.980930
1456 1 22.295553 22.523197 12.300244
1457 1 20.409150 20.331785 16.321624
1458 1 20.708564 22.453359 18.068613
1459 1 22.741192 20.704861 18.317230
1460 1 22.909138 22.518918 15.846318
1461 1 20.418779 20.488827 20.390295
1462 1 20.119644 22.746108 22.580434
1463 1 22.174130 20.383607 22.263192
1464 1 22.531988 22.247957 20.334307
1465 1 20.280658 20.403500 24.239871
1466 1 20.280556 22.320803 26.438124
1467 1 22.243754 20.501006 26.530124
1468 1 22.493728 22.352237 24.372701
1469 1 19.898350 20.329918 28.509006
1470 1 20.524561 22.265048 30.703516
1471 1 22.433325 20.402697 30.728774
1472 1 22.091995 22.544613 28.528456
1473 1 20.128493 24.495175 0.314340
1474 1 20.155272 26.351983 2.272247
1475 1 22.148716 24.252950 2.141974
1476 1 22.401846 26.349037 0.208043
1477 1 20.187857 24.110557 4.298056
1478 1 20.277054 26.425417 5.909075
1479 1 22.092473 24.401692 5.974718
1480 1 22.295041 26.130807 4.064009
1481 1 20.449469 24.695532 8.087751
1482 1 20.322558 26.470192 10.216992
1483 1 22.115839 24.658309 10.288576
1484 1 22.112571 26.517011 7.756327
1485 1 20.129633 24.640404 12.112129
1486 1 20.320044 26.477372 14.272002
1487 1 22.573968 24.664656 14.194799
1488 1 22.236837 26.640232 12.220813
1489 1 20.569468 24.325470 16.071353
1490 1 20.472062 26.358288 18.542624
1491 1 22.646851 24.358699 18.137364
1492 1 22.624393 26.708047 16.485314
1493 1 20.131103 24.149563 20.199431
1494 1 20.337273 26.276265 22.231358
1495 1 22.255895 24.334339 22.297995
1496 1 22.409660 26.449219 20.451397
1497 1 20.534648 24.398552 24.636260
1498 1 20.105312 26.167938 26.276218
1499 1 22.665123 24.190243 26.455302
1500 1 22.397192 26.293949 24.565708
1501 1 20.303443 24.421638 28.748784
1502 1 20.330689 26.795718 30.333151
1503 1 22.408646 24.431372 30.501586
1504 1 22.126031 25.983881 28.173498
1505 1 20.536316 28.308029 0.203100
1506 1 20.189399 30.373433 1.905274
1507 1 22.651926 28.459364 1.898539
1508 1 22.540096 30.473042 0.090385
1509 1 20.168022 28.442083 4.003867
1510 1 20.320376 30.139917 5.827222
1511 1 22.495638 28.240822 5.918802
1512 1 22.261360 30.112458 3.927717
1513 1 20.238820 28.445186 8.157814
1514 1 20.427456 30.532874 10.104326
1515 1 22.164322 28.398473 9.936758
1516 1 22.308278 30.476265 7.822040
1517 1 19.818964 28.294546 12.370833
1518 1 20.515449 30.145925 14.157760
1519 1 22.564473 28.690041 14.504260
1520 1 22.424346 30.447961 12.219380
1521 1 20.362877 27.886744 16.348643
1522 1 20.335127 29.980281 18.340273
1523 1 22.587015 28.383118 18.496593
1524 1 22.255687 30.660632 16.621483
1525 1 20.486985 28.540548 20.368079
1526 1 20.471814 30.407400 22.364969
1527 1 22.243805 28.194844 22.290496
1528 1 22.366115 30.580957 20.230793
1529 1 20.588350 28.342472 24.446750
1530 1 20.544190 30.476818 26.383412
1531 1 22.346179 28.347799 26.266760
1532 1 22.330633 30.476324 24.371530
1533 1 20.494272 28.523920 28.148951
1534 1 20.434912 30.374706 30.501882
1535 1 22.334141 28.597611 30.629990
1536 1 22.455626 30.672587 28.346259
1537 1 24.640885 0.147865 0.158946
1538 1 24.184010 1.942496 2.137184
1539 1 26.461375 32.324526 2.044169
1540 1 26.572368 2.206037 32.332306
1541 1 24.195701 0.065299 4.100930
1542 1 24.311149 1.974057 6.160490
1543 1 26.526616 32.456235 6.354657
1544 1 26.715039 1.845451 3.821977
1545 1 24.248318 32.430301 8.330725
1546 1 24.293321 2.119741 10.312888
1547 1 26.227979 0.232407 10.606419
1548 1 26.157484 2.140412 8.286783
1549 1 24.265929 0.031355 12.240833
1550 1 24.211002 2.248688 14.715445
1551 1 26.575765 0.183817 14.480779
1552 1 26.438472 2.063606 12.323694
1553 1 24.234842 0.063521 16.481121
1554 1 24.548941 2.090482 18.489423
1555 1 26.344368 32.467965 18.342256
1556 1 26.299534 2.348385 16.382008
1557 1 24.143928 0.335304 20.741042
1558 1 24.451066 2.310351 22.268378
1559 1 26.303987 0.167555 22.336837
1560 1 26.427330 1.799769 20.242238
1561 1 24.526992 0.082694 24.302657
1562 1 24.427665 2.384172 26.450491
1563 1 26.262480 0.189893 26.621622
1564 1 26.147814 2.294380 24.475621
1565 1 24.292104 0.101428 28.500619
1566 1 24.256776 2.081749 30.225420
1567 1 26.545849 0.272512 30.480106
1568 1 26.550726 2.401894 28.206054
1569 1 24.211511 3.951501 32.175457
1570 1 24.376297 5.953808 2.008468
1571 1 26.528678 4.220057 2.180307
1572 1 26.232341 5.794112 32.463440
1573 1 24.457063 3.950277 4.008330
1574 1 24.234146 5.870315 6.115937
1575 1 26.460591 4.205054 5.724563
1576 1 26.307984 6.157925 4.188597
1577 1 24.350519 4.082774 8.160345
1578 1 24.095099 6.212909 10.212302
1579 1 26.551503 4.214490 9.915044
1580 1 26.361209 6.083323 7.984443
1581 1 24.085365 4.050703 12.525212
1582 1 24.442755 5.977481 14.467078
1583 1 26.425879 4.184807 14.280604
1584 1 26.049193 5.762719 12.443272
1585 1 24.341512 4.035899 16.505349
1586 1 24.308632 6.232996 18.439468
1587 1 26.549274 4.148157 18.246865
1588 1 26.553575 6.190415 16.165776
1589 1 24.258437 4.385871 20.465220
1590 1 24.340397 6.474545 22.483845
1591 1 26.459481 4.408689 22.560324
1592 1 26.318010 6.040896 20.553368
1593 1 24.412762 4.385090 24.273322
1594 1 24.174175 6.199724 26.239132
1595 1 26.540111 4.333106 26.190716
1596 1 26.394947 6.326880 24.524363
1597 1 24.349363 4.287619 28.461865
1598 1 24.288035 6.298311 30.785809
1599 1 26.392116 4.159369 30.184324
1600 1 26.153078 6.252721 28.331193
1601 1 24.495757 8.482011 32.349561
1602 1 24.071386 10.156647 1.860670
1603 1 26.523667 8.014414 2.062939
1604 1 26.389556 10.240297 32.246663
1605 1 24.275512 7.953674 3.931790
1606 1 23.846701 10.278643 5.716040
1607 1 26.054479 8.074290 6.143719
1608 1 26.067821 9.963399 3.695332
1609 1 24.137199 8.064034 8.048946
1610 1 24.653038 9.983089 10.423403
1611 1 26.382769 8.000273 10.145281
1612 1 26.173397 10.059052 8.239459
1613 1 24.204524 8.182607 12.347472
1614 1 24.686340 10.289884 14.156477
1615 1 26.513147 8.157830 13.991954
1616 1 26.604322 10.371481 11.974646
1617 1 24.561261 7.887085 16.114240
1618 1 24.248368 10.104609 18.409723
1619 1 26.627035 8.137618 18.109091
1620 1 26.293671 9.757928 16.023962
1621 1 24.535740 8.012073 20.050435
1622 1 24.292003 10.266135 22.448858
1623 1 26.516064 8.247889 22.390879
1624 1 26.497473 10.193265 20.228983
1625 1 24.485521 8.408443 24.333592
1626 1 24.348126 10.039983 26.649486
1627 1 26.408829 8.262255 26.538899
1628 1 26.389655 10.319983 24.650046
1629 1 24.333109 7.918353 28.506438
1630 1 23.964266 10.282209 30.207203
1631 1 26.402835 7.914897 30.518939
1632 1 26.309571 10.176062 28.566735
1633 1 24.389636 12.309658 32.489279
1634 1 24.343813 14.286822 1.721792
1635 1 26.498399 11.844536 1.786180
1636 1 26.267938 14.263293 0.050760
1637 1 24.294134 12.084861 3.535320
1638 1 24.552934 14.274985 5.796902
1639 1 26.342025 12.026055 5.656092
1640 1 26.334339 14.254149 3.892509
1641 1 24.336950 12.126721 7.907368
1642 1 24.261585 14.182032 10.024965
1643 1 26.363920 12.060601 9.912390
1644 1 26.515686 14.029621 7.953901
1645 1 24.210761 12.162946 12.217980
1646 1 24.449437 14.136419 14.361489
1647 1 26.498302 12.238004 14.183443
1648 1 26.363296 13.985263 12.156011
1649 1 24.274637 11.934868 16.295559
1650 1 24.612971 13.828395 17.943219
1651 1 26.562749 12.032812 17.781693
1652 1 26.641989 14.273394 16.010215
1653 1 24.224446 12.120530 20.397801
1654 1 24.514538 14.333121 22.162847
1655 1 26.277009 12.285508 22.210429
1656 1 26.690278 14.382373 19.811360
1657 1 24.419435 12.478369 24.316058
1658 1 24.140561 14.271671 26.314362
1659 1 26.451175 12.304753 26.219850
1660 1 26.339593 14.060328 24.178711
1661 1 24.330362 12.277010 28.189176
1662 1 24.177991 14.234613 30.319868
1663 1 26.361676 12.409302 30.510405
1664 1 26.348630 14.214932 28.131160
1665 1 24.194973 16.354173 32.384631
1666 1 24.553520 18.406233 2.035126
1667 1 26.501144 16.154267 2.117328
1668 1 26.412343 18.052047 32.375873
1669 1 24.322114 16.469486 3.688155
1670 1 24.570671 18.418807 6.058374
1671 1 26.161471 16.255220 5.812509
1672 1 26.394357 18.329454 4.029421
1673 1 24.369844 15.985478 7.923077
1674 1 24.413622 17.884586 9.974862
1675 1 26.326958 16.111178 9.922411
1676 1 26.293778 18.412307 8.004990
1677 1 24.278981 15.871915 11.945479
1678 1 24.725181 18.269002 14.243709
1679 1 26.286257 16.106267 14.136194
1680 1 26.591197 18.255306 11.996688
1681 1 24.540880 16.418860 16.428840
1682 1 24.219768 18.507815 18.596363
1683 1 26.643334 16.321569 18.060455
1684 1 26.550983 18.503968 15.999807
1685 1 24.560869 16.155273 20.127110
1686 1 24.277769 18.561598 22.452385
1687 1 26.601137 16.275743 22.223199
1688 1 26.324077 18.511267 20.539382
1689 1 24.454128 16.419433 24.266527
1690 1 24.321780 18.217654 26.156599
1691 1 26.398097 16.105338 26.283633
1692 1 26.326732 18.396881 24.159283
1693 1 24.128741 16.238300 28.228659
1694 1 24.086069 18.429580 30.594422
1695 1 26.349158 16.112585 30.480617
1696 1 26.237369 18.197739 28.311026
1697 1 24.470940 20.238130 32.421541
1698 1 24.557413 22.112558 1.989855
1699 1 26.486360 20.361529 1.753141
1700 1 26.429867 22.490259 32.105649
1701 1 24.445689 20.214000 4.223209
1702 1 24.329768 22.268015 6.165348
1703 1 26.499116 20.519949 6.278119
1704 1 26.503778 22.554101 4.054212
1705 1 24.183003 20.164769 8.213557
1706 1 24.843157 22.361929 10.344503
1707 1 26.392925 19.976358 10.088097
1708 1 26.532086 21.958042 8.451435
1709 1 24.411345 20.224757 12.115645
1710 1 24.606583 22.270177 14.048962
1711 1 26.456463 20.426677 14.007946
1712 1 26.681027 22.511781 12.187460
1713 1 24.288518 20.139893 16.206508
1714 1 24.910369 22.412248 18.190219
1715 1 26.428668 20.157002 18.317184
1716 1 26.447972 22.177196 15.999103
1717 1 24.419125 20.555308 20.472093
1718 1 24.544993 22.324201 22.347548
1719 1 26.490268 20.454345 22.297872
1720 1 26.549715 22.315520 20.311239
1721 1 24.490598 20.526007 24.335178
1722 1 24.497909 22.136860 26.296816
1723 1 26.333376 20.079048 26.338332
1724 1 26.412578 22.313727 24.366823
1725 1 24.310400 20.386510 28.253705
1726 1 24.018323 22.264357 30.543226
1727 1 26.306393 20.455544 30.359853
1728 1 26.268380 22.498252 28.273632
1729 1 24.448250 24.413882 0.016448
1730 1 24.379190 26.490324 1.773813
1731 1 26.216381 24.203871 1.983811
1732 1 26.417794 26.423581 0.182700
1733 1 24.423591 24.150524 4.374712
1734 1 24.419369 26.310896 6.291796
1735 1 26.284167 24.068492 6.360474
1736 1 26.674880 25.856063 4.049558
1737 1 24.398827 24.353090 8.370542
1738 1 24.601001 26.840709 10.353558
1739 1 26.369065 24.526350 10.355848
1740 1 26.189553 26.201071 8.246313
1741 1 24.264212 24.709777 12.457006
1742 1 24.409639 26.688445 14.495489
1743 1 26.608024 24.224321 14.137798
1744 1 26.412146 26.386051 12.519122
1745 1 24.662864 24.780845 16.126890
1746 1 24.680615 26.321359 18.522461
1747 1 26.779454 24.468754 17.936250
1748 1 26.620855 26.648912 16.421363
1749 1 24.633749 24.461505 20.478719
1750 1 24.086299 26.407380 22.417950
1751 1 26.686063 24.406531 22.318400
1752 1 26.370887 26.459409 20.499305
1753 1 24.770890 24.257571 24.446030
1754 1 24.631576 26.265318 26.411660
1755 1 26.664796 24.364472 26.460034
1756 1 26.544363 26.450585 24.369569
1757 1 24.336131 24.361082 28.445926
1758 1 24.200713 26.567020 30.693255
1759 1 26.196789 24.634088 30.530982
1760 1 26.444733 26.300209 28.225493
1761 1 24.309006 28.553223 32.194792
1762 1 24.333901 30.510176 1.865708
1763 1 26.486715 28.263591 2.038674
1764 1 26.443471 30.463663 32.225767
1765 1 24.579822 28.060664 3.780241
1766 1 24.454538 30.427481 5.854512
1767 1 26.351352 28.374131 5.937982
1768 1 26.547804 30.059506 4.071232
1769 1 24.304283 28.363973 8.067548
1770 1 24.144759 30.318696 10.217304
1771 1 26.304965 28.589205 10.439397
1772 1 26.556722 30.416934 8.115982
1773 1 24.336503 28.478741 12.411119
1774 1 24.498059 30.699413 14.429749
1775 1 26.622575 28.748845 14.410106
1776 1 26.470546 30.557696 12.360900
1777 1 24.576534 28.809078 16.470893
1778 1 24.361726 30.563613 18.519951
1779 1 26.490173 28.364505 18.459758
1780 1 26.613507 30.717635 16.558210
1781 1 24.350192 28.624165 20.416240
1782 1 24.379180 30.643719 22.653672
1783 1 26.158826 28.490712 22.487980
1784 1 26.219641 30.514425 20.527586
1785 1 24.050530 28.388533 24.477821
1786 1 24.393235 30.501353 26.575988
1787 1 26.818719 28.426109 26.469013
1788 1 26.630459 30.659203 24.619272
1789 1 24.297804 28.057630 28.328648
1790 1 24.241729 30.784732 30.628396
1791 1 26.698097 28.296776 30.425507
1792 1 26.035364 30.415886 28.533057
1793 1 28.543488 0.157115 0.115781
1794 1 28.520725 2.284099 2.181181
1795 1 30.405247 0.171259 2.163282
1796 1 30.385456 2.175680 32.427099
1797 1 28.279691 32.397058 4.027940
1798 1 28.422219 2.333065 5.906269
1799 1 29.749820 32.214513 6.391141
1800 1 30.427819 2.072688 4.073118
1801 1 28.260690 0.322715 8.433237
1802 1 28.473863 2.153182 10.501174
1803 1 30.246552 0.004445 10.145955
1804 1 30.548141 1.791320 7.788249
1805 1 28.398173 0.041348 12.184648
1806 1 28.446515 2.075727 14.432548
1807 1 30.485282 0.307525 14.368103
1808 1 30.596916 2.076136 12.099548
1809 1 28.510119 0.032278 16.652956
1810 1 28.369481 2.257912 18.580752
1811 1 30.741705 0.030838 18.297039
1812 1 30.819778 2.253901 16.011007
1813 1 28.506342 0.043759 20.419942
1814 1 28.330021 2.104613 22.056885
1815 1 30.346310 32.335811 22.435201
1816 1 30.645651 1.757744 20.181315
1817 1 28.341350 0.107838 24.333806
1818 1 28.572712 2.298208 25.958432
1819 1 30.619585 0.175303 26.133007
1820 1 30.496145 2.117106 24.098971
1821 1 28.354739 0.186055 28.663667
1822 1 28.625251 2.299521 30.243478
1823 1 30.584160 0.232162 30.203925
1824 1 30.529320 2.053939 27.828976
1825 1 28.575312 4.308093 32.172479
1826 1 28.482549 6.330892 2.218750
1827 1 30.600872 4.172749 1.920131
1828 1 30.874837 5.950494 32.488696
1829 1 28.671468 4.238590 3.822253
1830 1 28.289413 6.106479 6.057643
1831 1 30.804252 4.051671 6.064404
1832 1 30.657464 5.993854 4.001984
1833 1 28.559622 4.060327 8.103773
1834 1 29.120044 5.933055 9.652170
1835 1 30.808477 3.764358 9.680699
1836 1 30.892685 6.363266 7.883420
1837 1 28.327109 4.038696 12.104634
1838 1 28.411036 6.052076 13.998190
1839 1 30.523848 4.010821 14.019000
1840 1 30.279357 5.659689 12.103356
1841 1 28.413517 4.190326 16.404069
1842 1 28.666998 6.359243 18.271465
1843 1 30.597735 3.927660 18.176167
1844 1 30.497918 5.761899 16.411078
1845 1 28.527796 4.288313 20.173755
1846 1 28.308960 6.294208 22.176735
1847 1 30.571583 3.910716 22.177127
1848 1 30.715104 6.107327 20.527654
1849 1 28.622782 4.301072 24.054319
1850 1 28.430443 6.369801 26.438915
1851 1 30.343426 4.575947 26.285602
1852 1 30.523081 6.067723 24.152099
1853 1 28.604514 4.146589 28.140777
1854 1 28.194760 6.122290 30.113630
1855 1 30.882029 4.376343 30.222061
1856 1 30.468487 6.539647 28.621192
1857 1 28.910442 7.447971 0.007954
1858 1 28.300294 10.029120 2.353533
1859 1 30.611613 8.214100 2.125865
1860 1 30.499036 10.075145 32.425445
1861 1 28.389765 8.246170 4.155660
1862 1 28.300195 10.301801 6.055123
1863 1 30.400887 7.846040 5.793706
1864 1 30.395514 10.340156 4.115391
1865 1 28.594817 7.995035 8.328132
1866 1 28.550177 10.016208 10.220681
1867 1 30.734940 8.378245 9.856676
1868 1 30.243934 10.189846 8.080027
1869 1 28.293798 7.882245 11.948653
1870 1 28.364767 10.023108 13.863330
1871 1 30.591140 7.617329 14.035553
1872 1 30.434479 10.087820 12.012524
1873 1 28.725100 7.952759 15.943386
1874 1 28.567235 10.131200 17.916491
1875 1 30.463926 8.158959 18.156555
1876 1 30.452742 10.009915 15.882228
1877 1 28.330043 8.211846 20.259849
1878 1 28.282259 10.613854 22.239950
1879 1 30.438274 8.194519 22.156464
1880 1 29.993316 10.358676 20.261130
1881 1 28.506663 8.186375 24.278147
1882 1 28.529165 10.129706 26.201196
1883 1 30.392971 8.205086 26.264405
1884 1 30.270069 10.275219 24.270962
1885 1 28.324143 8.370554 28.597997
1886 1 28.258487 9.598403 30.742184
1887 1 30.537016 8.039988 30.612309
1888 1 30.357412 10.237280 28.761767
1889 1 28.391107 12.188588 0.029417
1890 1 28.474150 14.260892 1.828763
1891 1 30.284418 12.298635 1.973630
1892 1 30.474994 14.484273 32.353655
1893 1 28.386508 12.327410 3.649395
1894 1 28.258004 14.376268 5.618354
1895 1 30.481773 12.177874 5.996232
1896 1 30.372163 14.114643 3.810710
1897 1 28.423242 12.162330 7.883442
1898 1 28.295513 14.175697 9.894816
1899 1 30.559287 12.189011 10.057293
1900 1 30.221676 13.984997 7.829249
1901 1 28.663947 12.120497 12.197181
1902 1 28.591842 14.181772 14.090274
1903 1 30.554818 12.278495 13.846330
1904 1 30.432364 14.284209 11.741437
1905 1 28.531853 12.112502 16.080557
1906 1 28.611950 14.335758 17.871099
1907 1 30.502359 12.145957 18.150687
1908 1 30.423869 14.072852 15.950225
1909 1 28.445253 12.503631 20.297425
1910 1 28.507941 14.497008 22.297676
1911 1 30.312801 12.389355 22.109005
1912 1 30.602773 14.342933 20.345789
1913 1 28.360361 12.191500 24.347044
1914 1 28.544470 14.170807 26.027403
1915 1 30.186996 12.200835 26.665557
1916 1 30.472824 14.238692 24.108550
1917 1 28.227802 12.205238 28.747092
1918 1 28.392457 14.417203 30.396110
1919 1 30.276805 12.415865 30.430832
1920 1 30.264878 14.361326 28.391893
1921 1 28.418275 16.351050 0.264853
1922 1 28.246744 18.239398 1.903571
1923 1 30.557953 16.177375 2.009658
1924 1 30.309581 18.243092 0.031430
1925 1 28.427739 16.255914 3.826535
1926 1 28.044817 18.240301 6.216178
1927 1 30.360070 16.577543 5.885186
1928 1 30.423352 18.346775 3.991284
1929 1 28.196020 16.026419 7.908699
1930 1 28.221506 17.966423 9.993321
1931 1 30.432425 16.147523 9.721127
1932 1 30.172557 18.384399 8.015882
1933 1 28.327764 15.871823 12.125254
1934 1 28.409883 18.497819 14.187452
1935 1 30.425414 16.904163 13.841585
1936 1 30.141874 18.080931 11.724610
1937 1 28.548626 16.470834 15.939266
1938 1 28.697608 18.421666 18.363170
1939 1 30.531555 16.225394 18.226884
1940 1 30.483576 18.272019 16.361653
1941 1 28.517152 16.272820 20.222520
1942 1 28.607156 18.440654 22.091634
1943 1 30.417423 16.617044 22.166658
1944 1 30.655408 18.276477 20.155908
1945 1 28.221301 16.275259 24.378918
1946 1 28.330416 18.015324 26.041898
1947 1 30.352595 16.280742 26.226967
1948 1 30.328531 18.262893 24.295987
1949 1 28.310424 16.438326 28.560456
1950 1 28.538311 17.992616 30.516786
1951 1 30.543981 16.354855 30.141310
1952 1 30.262280 18.198078 28.231628
1953 1 28.323066 20.265083 32.284178
1954 1 28.170628 22.261628 1.679767
1955 1 30.180369 20.467214 1.768135
1956 1 29.987231 22.513989 32.058182
1957 1 28.384669 20.157323 4.043403
1958 1 28.519525 22.499429 6.175817
1959 1 30.129935 20.330229 5.963261
1960 1 30.336603 22.173583 3.956619
1961 1 28.404163 20.397385 8.176516
1962 1 28.541271 22.240867 10.084599
1963 1 30.597008 20.445463 9.988984
1964 1 30.359485 22.434880 7.962398
1965 1 28.579195 20.324113 12.082617
1966 1 28.701617 22.171345 14.075233
1967 1 30.728010 20.106386 14.442004
1968 1 30.688110 22.487825 12.442000
1969 1 28.584678 20.398904 16.443003
1970 1 28.379247 22.462325 18.422705
1971 1 30.630958 20.522303 18.370278
1972 1 30.401048 22.492853 16.583381
1973 1 28.797917 20.181959 20.283901
1974 1 28.555747 22.211036 22.282467
1975 1 30.716184 20.333363 22.184782
1976 1 30.261408 22.620439 20.194503
1977 1 28.286286 20.291133 24.012512
1978 1 28.235961 22.074678 26.386613
1979 1 30.147001 20.174493 26.156130
1980 1 30.442089 21.981084 24.399255
1981 1 28.200315 20.110474 28.155737
1982 1 28.323797 22.159828 29.953246
1983 1 30.420740 19.970358 30.292275
1984 1 30.426197 22.009468 28.162576
1985 1 28.225633 24.545246 32.336872
1986 1 28.776727 26.171287 1.716351
1987 1 30.119447 23.975091 1.767228
1988 1 30.742337 25.872127 32.368829
1989 1 28.353351 24.016932 3.926235
1990 1 28.408334 25.804737 6.102554
1991 1 30.495574 24.215949 6.063717
1992 1 30.202183 26.266837 3.809433
1993 1 28.526373 24.222786 8.124136
1994 1 28.473166 26.267254 9.992667
1995 1 30.360533 24.697032 10.108884
1996 1 30.545587 26.233042 8.010046
1997 1 28.346951 24.541169 12.110544
1998 1 28.491709 26.523173 14.511406
1999 1 30.428512 24.712017 14.294228
2000 1 30.348204 26.580742 12.398007
2001 1 28.394963 24.214463 16.109238
2002 1 28.793199 26.642635 18.319402
2003 1 30.358065 24.621046 18.301015
2004 1 30.704359 26.569028 16.367856
2005 1 28.384164 24.598175 20.240637
2006 1 28.442309 26.687252 22.389525
2007 1 30.435379 24.258062 22.435942
2008 1 30.526806 26.676304 20.428694
2009 1 28.310609 24.386355 24.294030
2010 1 28.619460 26.167310 26.269324
2011 1 30.088634 24.132627 26.487586
2012 1 30.615957 26.257128 24.395896
2013 1 28.442086 24.389804 28.589072
2014 1 28.709018 26.454406 30.705681
2015 1 30.518896 24.211388 30.243282
2016 1 30.598027 26.214599 28.098385
2017 1 28.288970 28.515197 0.302818
2018 1 28.625188 30.639465 1.909893
2019 1 30.511439 28.247287 1.693192
2020 1 30.696833 30.579000 32.179953
2021 1 28.480564 28.290799 3.815727
2022 1 28.517874 30.045248 5.916163
2023 1 30.487002 28.028215 5.902959
2024 1 30.408475 30.575159 4.195301
2025 1 28.505185 27.926087 7.877104
2026 1 28.182855 30.506527 10.325759
2027 1 30.399668 28.633909 10.046105
2028 1 30.522982 30.546576 8.193641
2029 1 28.376444 28.284504 12.279936
2030 1 28.647262 30.824058 14.372604
2031 1 30.432725 28.444261 14.133862
2032 1 30.337913 30.442601 12.250076
2033 1 28.746251 28.557671 16.480589
2034 1 28.383578 30.408734 18.575737
2035 1 31.096129 28.673958 18.201758
2036 1 30.324000 30.677053 16.472197
2037 1 28.739495 28.480365 20.333062
2038 1 28.453224 30.430340 22.503828
2039 1 30.368899 28.762900 22.301812
2040 1 30.476737 30.501678 20.317439
2041 1 28.593214 28.554962 24.537382
2042 1 28.362558 30.730435 26.615220
2043 1 30.363423 28.337560 26.321905
2044 1 30.607290 30.378781 24.399103
2045 1 28.756772 27.920944 28.563374
2046 1 28.484660 30.515073 30.416497
2047 1 30.572603 28.488385 30.476032
2048 1 30.421828 30.206166 28.580164
