2048
Time=120000.00000010 pbc="T T T" Lattice="32.5362203 0 0 0 32.5362203 0 0 0 32.5362203" energy=-7999.02064 virial="-176.382806 15.1468825 -0.000647667846 15.1468825 -112.70693 -15.294182 -0.000647667846 -15.294182 -169.674833" stress="-0.000901478817 0.000471119027 -4.56528431e-06 0.000471119027 0.000972826586 -0.000421825562 -4.56528431e-06 -0.000421825562 -0.000701877173" Properties=species:S:1:pos:R:3
Al 32.4953018 32.3541853 0.0123198075
Al 32.1669769 1.93501122 1.8912524
Al 1.94938652 0.0904064435 1.97916302
Al 1.79861749 1.99771844 32.1642111
Al 32.3595296 0.120160274 4.10099625
Al 32.3350587 2.00697589 6.12497472
Al 2.07410537 0.193899853 6.03071287
Al 1.78766393 2.04718053 3.96943734
Al 32.4533463 0.1321119 8.08880358
Al 0.237128617 2.23928641 9.96748301
Al 2.14861631 32.4783786 9.80086593
Al 2.34279282 1.94397973 7.87968017
Al 0.408550616 0.227480816 11.8349734
Al 0.240448424 2.40801187 14.0991692
Al 1.88210019 32.4294391 14.1605983
Al 2.37538295 1.63833333 11.9663432
Al 32.4995915 0.292213607 16.0808621
Al 32.3127527 2.33306675 18.3292771
Al 1.91211496 0.167221073 18.2628098
Al 2.32907722 2.22555707 16.3351385
Al 32.4315707 0.397771957 20.418264
Al 32.4046518 2.32859852 22.454968
Al 2.23271762 0.215186682 22.1025328
Al 1.83248099 2.28746449 20.57123
Al 0.355492374 0.193741708 24.0584702
Al 0.175704929 2.16061015 26.4397135
Al 2.09500655 32.3198482 26.5056469
Al 2.22569915 2.37206621 24.4341394
Al 0.184345751 0.0729924392 28.7389898
Al 32.0847298 2.03972853 30.4716238
Al 1.72972598 32.3306541 30.704053
Al 1.8101786 1.86789631 28.8581248
Al 32.5032347 3.91753434 32.3976589
Al 32.3491915 5.9873635 2.1718004
Al 1.83817296 3.71827701 1.7262846
Al 1.72218486 5.79753841 0.123928334
Al 32.4190357 3.87906981 3.8084116
Al 32.3390945 5.9963016 5.60349078
Al 1.98819284 3.91886513 5.67830938
Al 2.01476979 6.33731861 4.01383247
Al 32.4288938 4.14439754 7.78226767
Al 0.257600322 6.2208975 9.74596524
Al 2.28330495 3.82525258 10.1258446
Al 2.04226362 6.28352552 7.77678046
Al 32.328623 4.20860105 12.0790935
Al 32.4391029 6.27533573 14.5077479
Al 2.33017072 3.982564 14.0808383
Al 2.03121156 5.98556517 12.3321286
Al 0.343077986 3.8786241 16.1416101
Al 0.144457634 6.09061758 18.3365665
Al 2.01907237 3.83913096 18.3686241
Al 1.97472783 6.43266376 16.2749075
Al 32.4018455 4.08767392 20.5087958
Al 0.196200648 6.11921124 21.9382438
Al 1.47729032 4.16196254 22.5639773
Al 2.17912479 6.30002446 20.238478
Al 32.3125507 4.05503798 24.5610384
Al 0.275128461 5.97146761 26.4415907
Al 2.14397146 4.3759599 26.0288677
Al 2.27512465 6.15112898 24.1258539
Al 32.3221242 4.1915004 28.4332463
Al 32.4521324 6.07825023 30.3902979
Al 1.63864807 4.17711382 30.4599106
Al 1.840907 6.34646348 28.320501
Al 32.369983 7.71139715 32.5053947
Al 32.4932519 9.97503954 1.92248424
Al 1.82808856 8.24890675 1.70642853
Al 2.03765853 10.2411106 32.4609712
Al 0.293902981 8.36271337 4.02723973
Al 0.056956348 10.3921451 6.19282215
Al 2.29623484 8.40915644 6.23824755
Al 2.31579675 10.0707744 3.99777635
Al 32.3144276 8.06739337 7.88016956
Al 32.2758815 9.84756768 10.1249876
Al 2.10672801 8.30429048 10.4021741
Al 2.4589527 10.1518106 8.42306132
Al 0.0858844295 8.07733139 12.1665117
Al 0.232120161 10.4264367 14.2431169
Al 1.81871839 8.4602675 14.3406285
Al 2.14350599 10.0219061 12.2297167
Al 32.2441571 8.08957548 16.3874595
Al 32.332145 10.1373825 18.3936761
Al 2.1164648 8.43299802 18.3622534
Al 2.07774904 10.4127974 16.3332279
Al 32.3267345 8.32130923 20.2455122
Al 0.0286931417 10.0997051 22.3447748
Al 2.2669138 8.19691713 22.2705237
Al 2.0851165 10.4229285 20.1997715
Al 0.080400988 8.01065572 24.2745428
Al 0.194312708 10.2951204 26.466783
Al 2.10993039 8.17094168 26.4104117
Al 2.21075178 9.91205425 24.228981
Al 32.4717144 8.32041849 28.3743806
Al 0.262716543 10.4416761 30.5243462
Al 1.83392685 8.07539723 30.4631781
Al 2.30677997 10.3887181 28.4612712
Al 0.163924315 12.263584 32.5084586
Al 0.396591975 14.0191835 2.07341441
Al 2.27860376 12.2557561 1.91685377
Al 2.28040731 14.2852046 0.0493165141
Al 0.143994405 12.1573153 4.09579013
Al 0.291298988 14.555232 6.06232914
Al 2.00577514 12.1212767 6.03054382
Al 2.17642397 13.9116035 4.29207429
Al 0.304393048 12.1049732 8.13496087
Al 0.227640925 14.2474622 10.0710856
Al 2.09307405 12.2353504 10.2718004
Al 2.29369221 14.2686652 8.01317486
Al 32.4658357 12.2388792 12.2038573
Al 0.18719328 14.1088913 14.2386806
Al 2.17388142 12.2426471 13.9674647
Al 1.98610382 14.4516211 12.0309689
Al 32.5097445 12.1452859 16.3203448
Al 32.182146 14.1580714 18.1822196
Al 1.80899385 12.4296771 18.5792184
Al 2.06037977 14.3382768 16.5241975
Al 32.3694266 12.3126413 20.512232
Al 0.163446134 14.1253916 22.4400869
Al 2.35046321 12.2913458 22.362419
Al 1.95888334 14.1878064 20.4013858
Al 0.263855016 12.1610078 24.1419931
Al 0.237688882 14.2111071 26.5847795
Al 2.09773452 12.1565808 26.6054149
Al 2.19489925 14.3202907 24.6395693
Al 0.296823643 12.3168191 28.6662363
Al 32.3808784 14.0780321 30.5185601
Al 2.25195677 12.3670572 30.682737
Al 2.14421558 14.2268357 28.6544337
Al 32.0903625 16.0172628 32.3203261
Al 0.231954559 18.3706678 2.14906433
Al 2.20210356 16.1734399 1.97331104
Al 2.01020845 18.2609723 0.00840393054
Al 0.1772707 16.4215275 3.85888458
Al 0.274359102 18.0775115 6.34023994
Al 2.1207161 16.1350969 6.02851691
Al 1.92262545 18.331283 4.07193302
Al 0.190472471 16.1977865 8.42182056
Al 32.4045381 17.9785947 10.223025
Al 2.19791991 16.6091256 10.4659075
Al 2.24480476 18.4091239 8.19108391
Al 0.199733603 16.2395973 12.3516623
Al 0.150255782 18.5930062 14.0607402
Al 1.9144592 16.5574682 14.3490096
Al 2.08135701 18.612605 12.3042041
Al 32.3680015 16.5125674 16.4223376
Al 0.152064789 18.4586666 18.1373486
Al 1.75330592 16.3630699 18.2867297
Al 2.13937236 18.5747058 16.385893
Al 0.117958957 16.1219116 20.459471
Al 0.0577054353 18.3123599 22.2914854
Al 1.91564842 16.2063931 22.4261065
Al 1.99726523 18.5217622 20.3580772
Al 32.4840163 16.3750876 24.6131398
Al 0.197625308 18.5191494 26.3531144
Al 2.07943476 16.3063375 26.5202073
Al 2.07858025 18.3932768 24.4821015
Al 0.0340086228 16.2875461 28.2565318
Al 0.280022722 18.4671911 30.3253869
Al 1.72512685 16.1119273 30.6389358
Al 2.17642832 18.0609164 28.4773425
Al 0.246641282 20.2805525 32.4961759
Al 32.4614713 22.1399087 2.23830971
Al 2.10923442 20.3993755 1.87774686
Al 2.07682878 22.39607 32.4650087
Al 32.357112 20.2761587 4.38316826
Al 0.165723734 22.2957212 6.16235865
Al 2.06211018 20.1779907 5.93429916
Al 2.33584011 22.3421752 4.47616501
Al 32.4898219 20.2114061 7.95594359
Al 0.0522218515 22.4669328 10.0954824
Al 1.73648311 20.3401124 10.402533
Al 2.23986216 22.2352791 7.86739087
Al 32.2714334 20.4546253 12.1504862
Al 32.3235251 22.6578083 14.2503213
Al 1.8381409 20.6007054 14.1767054
Al 1.74662876 22.5259485 12.1075491
Al 32.3618512 20.493386 16.2130909
Al 0.0325887049 22.3896607 18.191688
Al 2.17670694 20.2208338 18.2018798
Al 2.10772612 22.5476173 16.2993795
Al 0.00469232824 20.3243262 20.0628343
Al 32.5253638 22.5037202 21.9863478
Al 2.10020357 20.5592694 22.4999409
Al 2.22354426 22.4022053 20.258289
Al 32.4952869 20.6951853 24.4189959
Al 32.474652 22.7379675 25.9872502
Al 1.91044596 20.5338849 26.3754871
Al 2.28807939 22.5054851 24.5693011
Al 0.0498991326 20.2682924 28.5254505
Al 32.5129945 22.0151339 30.7001667
Al 2.48963734 20.1729707 30.4595328
Al 2.08068207 22.2051379 28.6680686
Al 0.145339514 24.2867724 32.4317776
Al 32.4164653 26.0611077 2.13081463
Al 2.04604058 24.2887869 2.33354355
Al 1.98000447 26.3791525 0.130318174
Al 0.0754285543 24.4223946 4.08212388
Al 32.3772967 26.4055132 5.96589113
Al 2.04814621 24.3926723 6.12252605
Al 1.96494222 26.4520678 4.16061681
Al 32.5008802 24.3084958 8.07119341
Al 0.133935879 26.1012523 10.0226089
Al 2.00695675 24.4525847 10.0665201
Al 1.60985783 26.5491617 7.84482992
Al 32.0540082 24.1780154 12.2722084
Al 32.418009 26.7275667 14.1672981
Al 1.77983564 24.5421915 14.3386025
Al 1.41582263 26.2133815 12.1577165
Al 32.4772071 24.7040642 16.5108601
Al 0.0422900909 26.648034 18.513362
Al 1.81055563 24.2932707 18.4111667
Al 2.01868434 26.5481464 16.2864067
Al 32.2862669 24.5801445 19.9950476
Al 32.3723023 26.414879 22.1921963
Al 1.8273175 24.2733131 22.2009812
Al 2.06670379 26.5895049 20.4648087
Al 0.0795443539 24.835795 24.3670299
Al 0.161696123 26.4599086 26.4876257
Al 2.04323898 24.5125838 26.1643455
Al 2.03113495 26.460008 24.1399512
Al 0.060147502 24.4744337 28.331439
Al 0.442443243 26.3230642 30.7604021
Al 2.05945973 24.3011154 30.5773919
Al 2.14260856 26.5188304 28.6271321
Al 32.3859841 28.7986461 32.4875365
Al 32.396142 30.6602505 2.34905636
Al 1.83878192 28.2548261 2.03638712
Al 2.00465742 30.3112958 0.0142445281
Al 32.3263377 28.4258009 3.85081223
Al 0.0151301294 30.6043418 6.06528916
Al 1.71109732 28.6283975 5.88080137
Al 1.95810576 30.187518 4.04593141
Al 32.4037099 28.5468311 8.13871137
Al 32.4254801 30.4763914 9.91845655
Al 2.05023175 28.4249742 10.3265985
Al 1.85803634 30.4094007 8.16317486
Al 0.0133028211 28.4658345 12.180071
Al 32.2954951 30.4924125 14.4097039
Al 2.06316254 28.3726174 14.2398007
Al 1.60900452 30.4589381 12.3890524
Al 0.0475728554 28.6393572 16.3318721
Al 32.3525249 30.7904394 18.2931806
Al 1.95208461 28.5010878 18.5813025
Al 1.86775899 30.5874217 16.1657787
Al 0.096440685 28.7593049 20.3000621
Al 0.0412431336 30.7301887 22.2383294
Al 1.75294536 28.8372457 22.311941
Al 2.1692038 30.8198809 20.1739726
Al 32.5207971 28.4222474 24.2640553
Al 0.240789044 30.1283593 26.2491115
Al 2.27337515 28.2923362 26.3817868
Al 2.01442554 30.4931945 24.5416621
Al 0.0981452801 28.4280057 28.3077536
Al 32.3117477 30.3501635 30.462009
Al 1.85603968 28.4755782 30.3065419
Al 2.05430007 30.4673086 28.4814432
Al 3.8726038 32.4563803 32.5186995
Al 3.90786158 2.05058641 1.8362743
Al 5.79283473 0.04649834 1.95969339
Al 6.10431844 1.85530183 32.5027373
Al 4.03337187 32.3990792 3.91710864
Al 4.14092366 1.78188252 5.99097395
Al 6.25275356 32.3928682 6.15158934
Al 5.83332235 1.88082827 3.70327523
Al 4.30302501 0.0785914016 8.0360194
Al 4.30617277 1.98125238 10.111472
Al 6.083097 0.070008827 10.1248397
Al 6.39811527 2.13852384 8.24612422
Al 4.13077738 32.2944294 12.0022119
Al 4.01588348 2.02008066 14.2394755
Al 5.87447554 32.3560151 14.0206323
Al 5.96007067 1.86799365 12.50167
Al 3.66499854 32.464736 16.2618223
Al 4.13938611 2.05362583 18.3336072
Al 5.78714727 0.0344699587 18.4725989
Al 6.01611738 1.8021422 16.226464
Al 3.92353168 0.247693812 20.1420323
Al 4.06127023 2.32458372 22.1984059
Al 5.90191951 32.5325754 22.219376
Al 5.99510674 2.13502614 20.5762196
Al 4.04430206 0.255042569 24.4020762
Al 3.57568758 2.1542028 26.4962753
Al 6.24640118 32.3856405 26.6060765
Al 6.27770967 2.114645 24.0991616
Al 3.80974439 0.088229106 28.4787916
Al 4.1751135 1.85271645 30.4210321
Al 5.79857418 32.2891926 30.5788946
Al 5.98912451 2.02047102 28.5225513
Al 4.04769552 4.16664273 0.0362873457
Al 4.11156122 6.1432199 2.06192339
Al 6.13305308 4.13522078 1.97518975
Al 6.14693409 6.12821154 0.237962189
Al 4.22029255 3.74929202 3.96034097
Al 4.41578586 5.98641957 5.77925323
Al 6.25376861 3.573219 5.91297844
Al 6.20489368 5.99200655 3.98999071
Al 4.04738121 4.03713181 7.69905425
Al 3.88785246 6.39276984 10.4784447
Al 5.84223287 4.0124424 10.3093034
Al 6.17056362 5.88758855 7.88211258
Al 4.08820571 4.08445047 12.1371859
Al 3.9578713 6.38439016 14.518837
Al 5.9475374 3.98288765 14.3755803
Al 6.08544566 6.27650224 12.3441176
Al 3.96617232 4.1881577 16.3080472
Al 4.04599374 5.89817644 18.3245365
Al 6.05330158 4.24820415 18.7976773
Al 5.89658831 5.94361922 16.2952732
Al 4.14363187 3.85667247 20.2549267
Al 4.10440207 5.98147243 22.2614639
Al 6.32647018 4.12690832 22.2794151
Al 6.30901293 6.39414091 20.3483999
Al 4.43351826 3.98670772 24.2752743
Al 4.03853974 5.96639657 26.3489043
Al 5.74543128 3.86364453 26.7302274
Al 6.27266917 6.09748474 24.2379304
Al 3.42123 4.158144 28.5702989
Al 3.88570919 6.01786586 30.7071823
Al 5.83250474 4.12152999 30.5468483
Al 5.87105798 5.98197948 28.6227586
Al 3.98221139 7.9650582 0.0980131148
Al 4.09929541 9.88952745 1.92660387
Al 6.16152888 8.10952854 2.09579952
Al 6.18925294 10.1490362 0.101676616
Al 4.16570827 8.11508613 4.13113363
Al 4.00544089 10.3463146 5.95043504
Al 6.11874343 7.92484085 6.20491415
Al 5.88684209 9.91090047 3.95171225
Al 4.06492596 7.85647228 8.08111876
Al 4.26101679 9.99916462 10.2025176
Al 6.13968302 7.9468437 9.79826204
Al 6.10602409 9.88493848 8.07680587
Al 4.25148142 8.24501627 12.4232882
Al 3.97882308 10.0905589 14.5490574
Al 6.12334544 8.14410949 14.5567498
Al 6.21805658 10.0409197 12.3101787
Al 4.02942576 8.19055909 16.3673334
Al 4.22694684 10.6044004 18.1968188
Al 6.25199654 8.16969591 18.2224904
Al 6.03193102 10.1395042 16.1795468
Al 4.14444575 8.31735316 20.0052988
Al 4.32596555 10.0120727 22.224305
Al 6.25469377 8.20979355 22.557395
Al 6.29171345 10.2177682 20.1985658
Al 4.31686667 8.00233306 24.286277
Al 4.03172824 10.5375994 26.4735699
Al 6.02504439 7.90578785 26.3151232
Al 6.33889749 10.1022389 24.2956394
Al 3.99000083 8.18940539 28.5409278
Al 4.05761689 10.0795492 30.6833607
Al 5.8729082 8.19231575 30.669355
Al 6.05750942 10.2539545 28.230821
Al 4.17762767 12.0490608 32.4465521
Al 4.14036938 14.2288779 1.92582958
Al 6.17596663 12.0361534 2.17753849
Al 6.23748037 14.3149033 0.169982201
Al 4.19575306 12.0061841 3.90622353
Al 4.39298169 14.4070745 5.79200104
Al 5.97835171 12.2380842 5.92095068
Al 6.07229451 14.4038626 3.9757767
Al 4.21035779 12.3525601 8.05571631
Al 4.26708477 14.3049939 10.3924691
Al 6.16451137 12.0380308 10.5491741
Al 5.8363295 14.3561244 8.35238352
Al 4.04198484 12.0768086 12.2356129
Al 3.95521672 14.2223515 14.2903924
Al 6.23319431 12.1203532 14.3189483
Al 6.17610212 14.1972442 12.2543128
Al 3.92996848 12.6032149 16.1280991
Al 3.87195833 14.6651035 18.3370331
Al 6.02010412 12.3328318 17.9458006
Al 5.9198073 14.5388889 16.0728159
Al 4.32376989 12.5353712 20.1564757
Al 4.08367281 14.3627781 22.3971896
Al 6.05373038 12.3146938 22.2339806
Al 5.84371423 14.5972319 20.2994451
Al 3.97819635 12.0889528 24.3354394
Al 4.29313823 13.8320008 26.4630705
Al 6.43909926 12.0717387 26.1238356
Al 5.89029712 14.2896399 24.5605725
Al 4.20000489 12.3846411 28.7880071
Al 4.33180036 14.305601 30.7558733
Al 6.43021974 12.1537767 30.959919
Al 6.18757355 14.3407117 28.5278875
Al 4.08327988 16.5542405 0.281403707
Al 4.12734008 18.3947469 2.10853569
Al 5.97782905 16.365678 1.92438858
Al 6.33373532 18.4072268 0.184884549
Al 4.22420662 16.3896931 3.86870226
Al 4.10749812 18.380295 5.84689544
Al 5.87673229 16.5391104 6.26975133
Al 6.33675929 18.2361907 4.08648317
Al 3.91164452 16.3873746 8.09810048
Al 4.06030042 18.359524 10.5464361
Al 6.07970335 16.6309967 10.331845
Al 5.73030042 18.2896321 8.45526574
Al 3.97948743 16.2497564 12.5477898
Al 4.12465379 18.5374748 14.4012749
Al 6.12550773 16.3838749 14.2323486
Al 6.36340995 18.4143826 12.4773435
Al 3.82804958 16.3470527 16.225762
Al 3.98028562 17.8489969 18.4216452
Al 6.25321225 16.2815992 18.2793419
Al 6.22116476 18.4502737 16.5370517
Al 3.71628962 16.2913369 20.6844442
Al 4.45435107 18.4298984 22.4505546
Al 5.91482425 16.0919425 22.8311588
Al 6.06590601 18.3974884 20.3342202
Al 3.87471563 16.4657291 24.5051593
Al 4.00987384 18.2407042 26.5489939
Al 6.18837645 16.3990373 26.669661
Al 6.16390001 18.0474428 24.5608816
Al 4.0193218 16.0074859 28.3245663
Al 3.91942976 18.0858088 30.4637946
Al 6.06487773 16.4653968 30.6114184
Al 6.09690775 18.2101756 28.4343068
Al 4.08097828 20.0747269 32.5199821
Al 4.07830985 22.4020416 2.06427505
Al 5.83443409 20.6706526 1.99259118
Al 6.30176441 22.2827697 32.486947
Al 4.3252062 20.3007121 3.88057914
Al 4.48434235 22.4617852 6.0490829
Al 6.13845068 20.2368708 6.17350285
Al 6.25137983 22.4804574 4.23363619
Al 4.07422727 20.3346331 7.96920202
Al 3.91279679 22.0805398 10.1523986
Al 6.08889826 20.4218218 10.6569283
Al 6.17541629 22.2715244 8.49413547
Al 3.94197627 20.4069986 12.582573
Al 3.80650565 22.6015626 14.3041468
Al 6.05203062 20.2583781 14.5529794
Al 6.16761196 22.6555809 12.2043096
Al 4.12836803 20.4525614 16.4713995
Al 4.92498073 22.2884562 18.5019738
Al 6.08844961 20.2091808 18.5079798
Al 6.59389283 22.3950275 15.9679134
Al 4.05910447 20.4214585 20.281009
Al 4.14401016 22.3077828 22.1700428
Al 6.38883987 20.2364094 22.3292419
Al 6.39250894 22.6043003 20.53072
Al 4.36392591 20.2968595 24.3404668
Al 4.1957329 22.3454702 26.1623793
Al 6.21639298 20.3151019 26.1739378
Al 6.45086698 22.2411454 23.8863529
Al 4.30072835 20.5828217 28.0211343
Al 4.2064794 22.418915 30.5718242
Al 6.07660721 20.1404023 30.4699283
Al 6.07212232 22.540205 28.2847318
Al 4.05497485 24.4424984 0.160690639
Al 3.94333116 26.1705845 2.32796514
Al 6.41683043 24.354588 2.30391779
Al 6.11339785 26.5277852 0.111415015
Al 4.10138655 24.3512224 4.31227927
Al 3.7393765 26.5227511 6.21445225
Al 6.09541327 24.4704787 6.14087855
Al 5.96165446 26.4704312 4.02633782
Al 4.03224107 24.3950965 8.18624735
Al 3.82036861 26.5099103 10.3925926
Al 5.78722759 24.2623999 10.2586856
Al 5.88877843 26.450834 8.6658094
Al 3.6633353 24.4444349 12.4416369
Al 4.05899749 26.5097513 14.3599261
Al 6.58356735 24.6448916 14.6094589
Al 6.26642246 26.1916283 12.2989374
Al 4.37242328 24.3924669 16.3965754
Al 3.85368786 26.3466158 18.1215502
Al 6.51470505 24.4500002 18.0114865
Al 6.31498126 26.7249457 15.9916561
Al 4.09754087 24.5077077 20.1520331
Al 3.88354138 26.5678447 22.3975371
Al 5.81094792 24.6451496 22.2698827
Al 5.84419034 26.3443442 20.2790789
Al 3.93617004 24.7087743 24.228292
Al 4.09570651 26.2147004 26.5267902
Al 6.45486176 24.6607681 26.3532142
Al 6.14876323 26.2752133 24.4985555
Al 3.89175522 24.2293891 28.2431109
Al 4.33508658 26.2330684 30.5655822
Al 6.16036216 24.5011742 30.6978611
Al 5.9268565 26.2371019 28.3659541
Al 3.95638711 28.0756632 0.116283089
Al 3.95427173 30.5181927 2.0865702
Al 6.10143006 28.5740594 2.07316794
Al 5.63645867 30.2112547 32.4798827
Al 4.07123924 28.5719125 3.95305518
Al 4.15304428 30.6088921 6.11481081
Al 5.95155948 28.3964544 6.10042428
Al 6.33474476 30.6139114 3.97702966
Al 3.76155271 28.4652638 7.81438609
Al 4.28897613 30.4178579 9.89198097
Al 6.28923485 28.3792405 10.3325304
Al 6.11868259 30.5268785 7.91817998
Al 4.16913298 28.7685098 12.1013058
Al 3.79585216 30.6818668 14.4640668
Al 6.37044428 28.5886838 13.9358491
Al 6.1721946 30.5137535 12.1224115
Al 4.06349104 28.6501046 16.3292401
Al 4.18698623 30.6042727 18.2958291
Al 6.35667291 28.6201828 18.028645
Al 5.84497421 30.7554329 16.2016035
Al 3.98070051 28.6670969 20.3763729
Al 3.83973003 30.656041 22.4133171
Al 5.97563737 28.3813812 22.476694
Al 6.08207216 30.3136481 20.3437168
Al 3.84548478 28.6698235 24.3480361
Al 3.96882714 30.4762604 26.5208304
Al 5.96242955 28.4636284 26.6149502
Al 6.03030104 30.5001195 24.4820032
Al 4.10749397 28.4244794 28.578689
Al 3.77884758 30.4399256 30.5781849
Al 5.87418757 28.44573 30.3613607
Al 6.01648453 30.4769207 28.5503044
Al 7.97915336 32.534234 32.2519973
Al 7.97264369 1.94270051 1.93560977
Al 10.0464794 0.00406299658 1.99730268
Al 10.1070924 2.00958622 0.0604119656
Al 7.93066774 0.101593339 3.92418404
Al 8.39257856 1.89741455 6.10573895
Al 10.0331525 32.3175692 6.17217106
Al 10.0960917 1.75084234 4.07599743
Al 8.21873494 32.3163271 8.28692598
Al 8.18757393 1.85342291 10.2754691
Al 10.0400726 0.387594205 10.1211537
Al 9.87891696 2.07214625 8.15290626
Al 8.06182572 0.113869022 12.2540158
Al 8.19647625 2.14022843 14.0245851
Al 10.0831248 0.114344453 14.245089
Al 10.3648136 2.09536152 12.0202988
Al 8.05905876 32.4562873 16.2337679
Al 7.76798556 1.77814271 18.3277304
Al 10.2464297 32.4849242 18.0198854
Al 10.2034206 1.85369033 16.1315327
Al 8.21055674 32.4123596 20.3151835
Al 8.24779043 2.11787904 22.3182068
Al 10.1666236 0.0673626573 22.2095825
Al 10.0275829 1.96420798 20.0993205
Al 7.72272531 32.4970634 23.9351555
Al 7.82192041 1.86969664 26.5312455
Al 10.1051079 0.048039369 26.4534831
Al 10.4465985 1.98250024 24.3055072
Al 8.11858889 32.3506556 28.5727601
Al 7.94044712 2.05002424 30.3804758
Al 10.2913736 0.23062942 30.5626867
Al 10.0839226 1.8865333 28.1645404
Al 8.10834572 3.93352555 0.145025928
Al 8.05324738 6.29458597 1.88843608
Al 10.2265355 3.82321378 2.17687815
Al 10.1345631 5.96023091 32.3990202
Al 8.27757798 3.64367285 4.06551979
Al 8.02171104 5.85778388 5.93899192
Al 10.0118731 4.06568506 6.03648035
Al 10.0999786 5.94324497 3.6735069
Al 8.18689963 3.94074328 8.31975011
Al 7.84579152 6.05133756 10.4107972
Al 9.99611367 4.09012739 10.2478576
Al 10.1612648 6.07695442 7.76947925
Al 8.10422874 4.15268783 12.2305704
Al 8.02588348 5.6880532 14.6635299
Al 10.1669987 4.02693942 14.570105
Al 10.3168505 5.94530799 12.1281074
Al 7.95223197 3.65780173 16.3131265
Al 8.10631421 6.0299021 17.9894466
Al 9.92482077 3.61430369 18.0509565
Al 10.130691 5.97520778 16.4303508
Al 8.27963661 4.42228334 20.1303872
Al 8.25014986 6.37097904 22.4364097
Al 10.080003 4.30020977 22.3546501
Al 10.4526331 6.37205357 20.2836126
Al 8.41463654 4.10627113 24.524795
Al 8.18061689 6.20024834 26.6233919
Al 10.1664022 4.27770812 26.6601936
Al 10.3123907 5.85533332 24.4053388
Al 7.89375278 4.20597585 28.3784883
Al 7.7871429 6.20531674 30.6405841
Al 9.97992959 4.00087364 30.7040877
Al 9.84522762 6.21208857 28.8250975
Al 8.33725073 8.12761102 0.0608353114
Al 8.19884987 9.93655758 1.99548769
Al 10.1717401 8.12020948 1.96323698
Al 10.1546885 10.1797736 32.4823328
Al 8.3869192 7.78125227 3.81962259
Al 7.77575608 10.0627723 6.02255165
Al 9.86503585 8.19435257 6.12993971
Al 9.89520006 9.8566939 4.09182006
Al 8.26543158 7.90700015 8.28647087
Al 8.29075618 10.1997974 10.6582469
Al 10.1657642 8.09226997 10.4417247
Al 9.9069071 10.0855457 8.15012012
Al 8.39739985 7.68236021 12.4930662
Al 8.14748648 9.88237045 14.1354583
Al 10.321058 7.94899956 14.6041957
Al 10.1209451 9.87996369 12.4756657
Al 8.06368364 8.28610051 16.2840741
Al 8.28033492 10.2527804 18.0755941
Al 10.1084185 8.44173955 18.1233356
Al 10.1763676 10.2768814 16.2948967
Al 8.57900701 8.14056365 20.3402453
Al 8.15563297 10.4389718 22.0989136
Al 10.4553448 8.42524688 22.2310623
Al 10.250074 10.5539761 20.3718454
Al 8.28652665 8.17699978 24.2171916
Al 8.15518246 10.1024322 26.4049019
Al 10.4010143 8.2564779 25.8070984
Al 9.8363467 10.2173935 24.329694
Al 7.86170549 8.1432799 28.7474351
Al 8.15581213 10.2529885 30.3836993
Al 10.2059811 8.13302751 30.6013327
Al 10.1433141 10.1000126 28.6080119
Al 8.33108002 12.42862 0.235677745
Al 8.17045221 14.193105 2.21135527
Al 10.2112495 12.1093893 2.03188616
Al 10.0885073 14.4748924 0.218245332
Al 8.11108244 12.2374201 4.10259908
Al 7.67770416 14.1280111 6.38206199
Al 9.92972298 11.862984 6.15161969
Al 10.3705048 14.3536911 4.01257076
Al 7.67499564 12.1940722 8.56435888
Al 7.86275929 14.4335091 10.3585161
Al 9.94626195 12.4195215 10.2260017
Al 9.71283643 14.0745972 8.30329515
Al 8.10870563 12.187044 12.2890544
Al 8.03788514 14.3653894 14.0043356
Al 10.4997749 12.5421993 14.0515529
Al 9.96682809 14.2550873 12.1292833
Al 8.27615423 12.199169 15.8663692
Al 8.19538078 14.1952372 18.1767544
Al 10.1413167 12.190536 18.261982
Al 10.1973438 14.0334576 16.2595204
Al 8.13149645 12.468594 20.1134185
Al 7.97501735 14.4451311 22.0435306
Al 10.3807714 12.1103216 22.5059239
Al 10.0558867 14.5527227 19.9876823
Al 8.18164004 12.4143103 23.9045573
Al 8.28411461 14.1471203 26.661892
Al 10.3781047 12.2089235 26.2713772
Al 10.2934284 14.3224673 24.3021516
Al 8.36804024 12.1834078 28.2703363
Al 8.20785384 14.2634881 30.4476894
Al 10.1522056 12.3833812 30.7093006
Al 10.2506436 14.4491487 28.6392106
Al 8.06453248 16.3584953 0.131616152
Al 8.27023254 18.2634171 2.11269549
Al 10.3410962 16.4152042 2.39412038
Al 9.97745947 18.1710466 0.223430112
Al 8.03539101 16.1561717 4.39758653
Al 8.07112794 18.272963 6.25203856
Al 9.92287066 16.0360013 6.48402143
Al 10.3732686 18.2767393 4.3802613
Al 7.75607228 16.2459347 8.29842292
Al 8.11287514 18.3601947 10.4907038
Al 10.1893085 16.0245695 10.2397017
Al 9.99507088 17.9935319 8.21359438
Al 8.1322245 16.2657985 12.3221435
Al 8.08397192 18.2079335 14.5536771
Al 10.3909004 15.9383556 14.257058
Al 10.031515 18.0955505 12.5935489
Al 8.51539305 16.2320485 16.2438907
Al 8.35886494 18.4123048 18.1619921
Al 10.3719075 16.461248 18.3316249
Al 10.1297938 18.7752991 16.040441
Al 8.30570097 16.4640019 20.0610312
Al 7.94596319 18.2687642 22.3688155
Al 10.0827589 16.1316278 22.4256825
Al 10.6688268 18.4337504 20.1991967
Al 8.20880734 16.0953664 24.4408317
Al 8.12975113 18.3150425 26.4906729
Al 10.2149575 16.0868191 26.4575602
Al 10.0777706 18.1682014 24.3028213
Al 8.11885914 16.2154257 28.7476634
Al 8.26844943 18.4899772 30.5890654
Al 9.95917145 16.2814106 30.7752278
Al 10.0631743 18.3575953 28.6811539
Al 8.36776584 20.3714484 32.5234426
Al 8.11485213 22.0648732 2.0860187
Al 10.1640458 20.0958492 2.36109207
Al 10.2427252 22.1390408 0.277021803
Al 8.20446915 20.4627378 4.04613055
Al 7.96174845 22.0762741 6.21308766
Al 10.1622647 20.2794934 6.12148909
Al 10.3352001 21.9612456 4.09404173
Al 8.05712237 20.2571148 8.2293898
Al 8.14435964 22.2362285 10.667755
Al 10.0540554 20.3556359 10.3260126
Al 10.1566859 22.224897 8.37409993
Al 8.17455019 20.1295324 12.4309011
Al 8.49973661 22.4047831 14.0398978
Al 10.3047321 20.6752162 14.36822
Al 10.311343 22.4667891 12.3327125
Al 8.33343256 20.6042083 16.5299487
Al 7.92999572 22.5242103 18.2864517
Al 10.583241 20.4349712 18.3149963
Al 10.2846491 22.5707593 16.456501
Al 8.21523432 20.2931351 20.2281804
Al 8.69223473 22.3442595 22.2287172
Al 9.96866881 20.033242 22.1966242
Al 10.4751888 22.4005559 20.0876175
Al 8.40896858 20.2024222 24.1987927
Al 8.09703182 22.1915682 26.7128064
Al 10.2545096 20.1687637 26.4409328
Al 10.3560517 22.4048045 24.4004785
Al 8.00134661 20.2164208 28.690731
Al 7.95657093 22.3078933 30.5371362
Al 10.1370049 20.3697865 30.2996745
Al 9.98836424 22.4940501 28.4817094
Al 8.22999949 24.5967513 32.4380925
Al 8.2495701 26.4492426 2.00315941
Al 9.97826746 24.0419003 1.96088326
Al 10.2491468 26.4394107 32.5083622
Al 8.22318508 24.3511537 4.33389678
Al 7.78934081 26.5345093 6.31009872
Al 9.96958543 23.9296588 6.28557405
Al 9.79991774 26.4783069 4.22589837
Al 8.0250691 24.1774822 8.19278554
Al 8.37766863 26.1312912 9.98140274
Al 10.2843424 24.170968 10.1771159
Al 10.2109742 26.4682411 7.97086903
Al 8.35992283 24.4464404 12.243425
Al 8.39284053 26.4396664 14.191872
Al 10.4540927 24.4030049 14.2499762
Al 10.367162 26.3584314 11.9018851
Al 8.47925693 24.3915565 16.4329424
Al 8.00730337 26.6228313 18.3102094
Al 10.2502448 24.6635655 18.2799766
Al 9.89472391 26.7055438 16.3144177
Al 8.08577613 24.4770019 20.2783923
Al 7.99467401 26.4846074 22.1702899
Al 10.4292224 24.4129279 22.297413
Al 10.3773625 26.5202123 20.4541976
Al 8.07785816 24.2906334 23.7402236
Al 8.15815595 26.6897044 26.5528004
Al 9.7581402 24.4175592 26.1027058
Al 10.1204577 26.4354628 24.4325034
Al 8.0578 24.3697245 28.7216391
Al 7.99588058 26.35634 30.452639
Al 10.3457604 24.1177865 30.7695848
Al 10.2364902 26.24336 28.8398035
Al 7.87453944 28.5392421 32.2479569
Al 8.10007303 30.5201678 2.03117633
Al 9.81464688 28.7586205 1.99796198
Al 9.91803604 30.6258887 32.3659468
Al 8.15454363 28.7411127 4.24958016
Al 8.05439928 30.5637621 6.04030361
Al 10.0547268 28.6708672 6.33400114
Al 10.3768376 30.539193 3.98548854
Al 8.07578543 28.2275598 8.24199265
Al 8.11846589 30.5505091 10.1226737
Al 10.0609983 28.406933 10.0282327
Al 10.1171599 30.316851 8.3482958
Al 8.34564073 28.1347903 12.0736115
Al 8.0707951 30.664534 14.2181746
Al 10.2008684 28.4814556 14.0591735
Al 9.8609481 30.3645248 12.3174002
Al 8.21082461 28.7790831 16.0074999
Al 7.84673627 30.860108 18.1937918
Al 9.94700229 28.3999434 18.3976682
Al 10.4406355 30.1474319 16.1058848
Al 8.0301243 28.3605501 20.2233902
Al 7.96771715 30.1239363 22.3167059
Al 9.87049212 28.2576321 22.5021687
Al 10.0620809 30.4177226 20.1408737
Al 7.89583023 28.2973447 24.5239036
Al 8.12081409 30.167073 26.6586984
Al 10.1977797 28.4528959 26.3337424
Al 9.82047 30.7600974 24.6427179
Al 8.36621126 28.3542113 28.6773222
Al 7.91871651 30.5510642 30.601654
Al 10.5132667 28.4252379 30.9608406
Al 10.1834262 30.4374402 28.3213826
Al 12.0983544 0.117719344 0.201249485
Al 12.3250869 2.00409292 2.21836153
Al 14.3219036 32.39258 2.0046019
Al 14.0352968 1.87947288 0.105699511
Al 12.302543 0.140297732 3.99985157
Al 12.1278787 1.90082879 6.3339577
Al 14.1084394 32.3197436 6.18063793
Al 14.1139452 2.04738924 4.23368822
Al 11.9515232 32.4355799 8.06463308
Al 12.4116478 2.06270496 10.2454599
Al 14.5994835 32.4977823 10.1685362
Al 14.2851555 1.95524016 8.26859915
Al 11.9970708 32.4114665 12.1787012
Al 12.1779546 1.95433982 14.0905146
Al 14.5121946 32.3136126 13.8975938
Al 14.3801029 2.06915152 12.0701861
Al 12.2599569 32.4947409 15.9872387
Al 12.6540587 2.13397227 18.1042415
Al 14.1955009 32.3187962 18.3362431
Al 14.3477957 2.0271387 15.9448558
Al 12.1788028 0.166017635 19.9831954
Al 12.0765902 2.33982902 22.1014368
Al 14.1303047 0.107336835 22.0212191
Al 14.2015669 2.33338005 20.3871746
Al 12.1597104 32.5073727 24.4534432
Al 12.5212936 1.82131888 26.2841556
Al 14.2788742 32.3147363 26.4003766
Al 14.0080605 2.04994607 23.990151
Al 12.5419552 0.00882820333 28.5185113
Al 12.0329856 2.2227364 30.3438133
Al 14.5319263 32.4434207 30.3846793
Al 14.5560817 2.06068914 28.4625913
Al 12.4842666 4.02014587 0.0641773795
Al 12.110769 5.94376693 1.89612115
Al 14.2983716 3.95635446 1.92176662
Al 14.1819771 5.92959113 0.00525871502
Al 12.1793186 4.01024884 4.29191865
Al 11.9304541 5.98679948 5.927749
Al 14.1579828 3.77000578 6.24137393
Al 14.041222 5.78953325 3.79501323
Al 12.1925407 3.74920151 8.13869245
Al 11.8335411 6.06027853 9.70569078
Al 14.2098813 4.18613803 10.2048376
Al 13.8426458 6.26323535 8.20998288
Al 12.3122447 4.15093674 12.2538233
Al 12.1463668 5.82493684 14.2432029
Al 14.805192 4.05564712 14.3411124
Al 14.2548741 5.82989827 12.1135434
Al 12.2099389 3.93771409 16.3408731
Al 12.1988958 6.61204923 18.336449
Al 14.5014494 3.93738825 17.9965189
Al 14.3003483 6.00182759 16.2125595
Al 11.7173983 4.06346958 20.0570629
Al 12.4522083 6.18848941 22.3915198
Al 14.2161445 4.17774703 22.3426903
Al 14.1187112 5.95769959 19.9744851
Al 12.3588554 4.00786732 24.2563972
Al 12.3423313 5.90369654 26.2108658
Al 14.4591172 4.37107839 26.7658515
Al 14.4624482 5.88768006 24.3259115
Al 12.1688958 3.72026104 28.1695314
Al 12.2126104 5.8578872 30.3504269
Al 14.4352915 3.90245055 30.6284522
Al 14.7896074 6.12292835 28.8625262
Al 12.1690311 7.93408993 32.4140358
Al 12.1668731 9.90705826 1.67291737
Al 13.9183525 8.03914951 2.00387722
Al 14.3303271 10.0142015 0.238626294
Al 11.8021037 7.80773494 4.05788727
Al 11.9317367 9.93363475 6.07422193
Al 13.6394158 7.96114573 5.96147571
Al 14.0257776 9.75730704 3.82133265
Al 11.7320986 8.20215816 8.13359981
Al 11.9581843 10.0814623 10.6352521
Al 13.9316219 7.9447487 10.3958121
Al 14.2656271 9.50346421 8.2546841
Al 11.9634181 7.9436991 12.5389334
Al 12.1879088 10.035329 14.0614148
Al 14.085234 8.02518199 14.069339
Al 14.3936409 10.1178059 12.2298624
Al 12.4130089 8.19494017 16.0684297
Al 12.4569877 10.1262507 18.7179371
Al 14.7622265 8.0394396 18.4455926
Al 14.3269575 9.89344702 16.2738899
Al 12.4744959 8.10654907 20.5701589
Al 12.5885678 10.1207297 22.6697575
Al 14.4987867 8.19515741 22.2320208
Al 14.3549929 10.196955 20.3469679
Al 12.7214891 8.02271891 24.6214983
Al 12.2118971 10.4341112 26.4057119
Al 14.0372866 8.14977327 26.9342554
Al 14.6123675 10.1215279 24.3637417
Al 11.7449893 8.22481135 28.5403562
Al 12.2972464 10.2159847 30.5646526
Al 14.3436963 8.01209962 30.706447
Al 13.9709593 10.1156361 28.5962078
Al 12.3581605 12.4258061 0.288035802
Al 12.4283875 14.1323755 2.14401448
Al 14.4979895 11.8231389 2.13015092
Al 14.5153285 14.3074298 0.28648725
Al 12.2535061 11.9479055 3.92998676
Al 12.1759287 13.7913594 5.95763767
Al 13.9798782 11.7310036 6.46681048
Al 14.1377681 13.9552366 4.46390591
Al 12.1368493 11.751683 8.39982906
Al 12.2741289 14.1195574 10.1053277
Al 14.2050546 12.0836724 10.187568
Al 14.1955865 14.2095075 7.9408348
Al 12.1230389 12.206558 12.016181
Al 12.4535325 14.1738765 14.1610489
Al 14.2888263 12.1126978 14.4257022
Al 14.2601674 14.1456528 12.3398286
Al 12.182122 11.9883695 16.2706044
Al 12.029164 14.1420568 18.2731485
Al 14.1642959 12.2353517 18.4577273
Al 14.6030994 14.3470264 16.4404557
Al 12.4896226 12.0365932 20.4918267
Al 12.0941938 14.321219 22.2414603
Al 14.5646697 12.2727778 22.591992
Al 14.3234384 14.1746095 20.3540897
Al 12.3947545 12.6108469 24.3196067
Al 12.2855953 14.3040163 26.8146677
Al 14.3039888 12.4044764 26.6354388
Al 13.9933589 14.6443113 24.5214824
Al 12.1906244 12.0671514 28.6511036
Al 12.2762929 14.3514179 30.590037
Al 14.1240648 12.1394912 30.7738459
Al 14.2329293 14.3805667 28.2229111
Al 12.0570491 16.3285147 0.141954468
Al 12.269218 18.0983555 2.5315821
Al 14.4571845 16.3552107 1.87268825
Al 14.2057922 18.1330342 32.3120873
Al 12.5743333 16.1083979 4.2297298
Al 12.2914019 18.2150528 5.9853509
Al 14.3671384 16.2312975 6.15487726
Al 14.5325146 18.0508011 3.99868159
Al 12.2468816 16.2847862 7.81781566
Al 11.9902621 17.8660193 10.2773669
Al 14.3175981 15.9082113 10.0818301
Al 14.3307654 18.067468 8.21422782
Al 12.3610706 16.0701348 11.9782972
Al 12.1549783 18.2357097 14.2579208
Al 14.0104918 16.3634126 14.2201273
Al 14.2904786 18.0286452 11.8796853
Al 12.3560884 16.2618572 16.3218462
Al 12.494822 18.5563389 18.3981937
Al 14.3043129 16.5670652 18.422715
Al 14.4372717 18.4094699 16.0869207
Al 12.3030891 16.2816057 20.2564562
Al 12.1039688 18.06765 22.5573347
Al 14.3401261 16.1366453 22.4354026
Al 14.0620679 18.495656 20.9017721
Al 11.9440148 16.2721235 24.6911174
Al 11.9102585 18.1883808 26.6578879
Al 14.3118379 16.3355157 26.6379429
Al 14.3686358 17.7352553 24.530328
Al 12.1025384 16.2941386 28.8754479
Al 12.3067291 18.2769445 30.7634068
Al 14.3306469 16.1093688 30.4440305
Al 14.2940195 18.2308202 28.5899739
Al 12.1158195 20.1378269 0.356983256
Al 12.3832313 22.2175623 2.21679525
Al 14.2806873 20.2464371 2.19807614
Al 14.3034848 22.1854718 0.229964175
Al 12.3415737 20.1496764 4.49846412
Al 12.031926 22.2424753 6.00120314
Al 14.2331067 19.9031481 6.36641507
Al 14.3821554 22.1796415 4.26745629
Al 12.2086955 20.3094668 8.13050362
Al 12.1539607 22.2466298 10.3465611
Al 14.0370549 20.2736449 10.3294248
Al 14.1216442 22.2681804 8.01301495
Al 12.2511435 20.4280316 12.5026053
Al 12.4660491 22.8881789 14.3676123
Al 14.4728922 20.3535211 14.0301744
Al 14.2239129 22.393448 12.2123771
Al 12.3973863 20.3544052 15.9585941
Al 12.2550514 22.4548957 18.1575033
Al 14.3667992 20.4962076 18.2839746
Al 14.2374196 22.2551677 16.2966395
Al 12.2931732 20.5515092 20.6755603
Al 12.3555483 22.4593709 22.5549328
Al 14.2571872 20.6819592 22.7588917
Al 13.8913738 22.3051703 20.2864161
Al 12.1662376 20.0054232 24.5253937
Al 12.1870289 22.4840264 26.5171333
Al 14.1587519 19.9990608 26.393563
Al 14.5473443 22.4560025 24.9158808
Al 12.1823452 20.1722432 28.4520441
Al 12.2329077 22.2701509 30.6580167
Al 14.068446 20.3309944 30.580919
Al 14.1539953 22.3109605 28.3476689
Al 12.4195244 24.2556736 0.197296082
Al 12.1354056 26.3605449 2.23326787
Al 14.3262856 24.372881 2.2597685
Al 14.1855188 26.5158622 0.147882977
Al 11.6193804 24.2247614 4.14667455
Al 11.8816238 26.2692594 5.91319908
Al 13.8681257 24.3078404 5.90727932
Al 14.1067441 26.3979511 4.22528122
Al 12.1366164 24.1344421 7.95088022
Al 12.2654557 26.3885199 10.0432145
Al 14.0186844 24.3932156 9.94622039
Al 14.1460421 26.3375277 7.85405159
Al 12.2948582 24.3567979 11.9672922
Al 12.0209019 26.502726 14.1165682
Al 14.126433 24.6019449 14.1244006
Al 14.0153814 26.744208 11.8961065
Al 12.3294883 24.3556648 16.3701208
Al 12.1309418 26.5957285 18.2407736
Al 14.3724512 24.2541347 18.266267
Al 14.4518089 26.3045238 16.5916971
Al 12.3474706 24.4790877 20.2169819
Al 12.177777 26.2949995 22.7433098
Al 14.3699162 24.44195 22.5033202
Al 14.0935106 26.3631599 20.386888
Al 12.4986551 24.5326868 24.6871098
Al 12.1034481 26.5928742 26.498767
Al 14.2523065 24.5198932 26.4712815
Al 14.2937649 26.4894812 24.2796997
Al 12.2702345 24.242601 28.7153768
Al 12.4923526 26.1267473 30.791384
Al 14.4273976 24.0273166 30.5962409
Al 14.0379743 26.4018337 28.4970068
Al 12.3100331 28.4876098 0.445941389
Al 12.2662555 30.7492655 1.75598008
Al 14.5649456 28.5935492 2.28114892
Al 14.5440301 30.6313879 32.4517801
Al 12.2488126 28.4757475 4.31441138
Al 12.1575393 30.4521783 6.06915545
Al 14.1477458 28.2854039 6.38858023
Al 14.3314611 30.6420863 4.05694309
Al 11.9288 28.432086 8.17783231
Al 11.6955775 30.6887273 10.3763374
Al 14.3965723 28.5089027 10.143343
Al 14.0522228 30.5141138 8.30898831
Al 12.0080049 28.377218 12.2337861
Al 12.4701457 30.5127115 14.192119
Al 14.3017165 28.3529034 14.3351923
Al 14.1529783 30.2464099 11.9745319
Al 12.4174803 28.4445496 16.3879989
Al 12.0759855 30.52676 18.2089214
Al 14.1557855 28.4324737 18.3508998
Al 14.3360196 30.3877578 16.1251891
Al 12.2182584 28.536148 20.2004841
Al 11.6537703 30.5356178 22.3447732
Al 14.1081427 28.156135 22.3663227
Al 14.1842982 30.5347813 20.4281083
Al 12.2966641 28.6245812 24.280613
Al 12.3489123 30.3930674 26.3647704
Al 14.2977528 28.3310932 26.5620269
Al 14.2340436 30.4449206 24.6134683
Al 12.0198175 28.4939811 28.6643065
Al 12.0320501 30.7267942 30.5346068
Al 14.2687769 28.5845545 30.8318218
Al 14.2674375 30.338116 28.6005395
Al 16.4286019 0.271546274 32.4524854
Al 16.1426951 2.06251849 2.2315458
Al 18.4764375 0.144067819 2.31788059
Al 18.5725584 2.03252691 0.25483144
Al 16.5405509 32.4863903 4.30368748
Al 16.3156184 2.20412409 6.09513193
Al 18.3715632 0.214329354 6.22901594
Al 18.408135 2.01476708 4.06015398
Al 16.2868341 0.0363641443 8.05422836
Al 16.6562721 2.09041554 10.2542192
Al 18.4076041 0.127264721 9.84934189
Al 18.4398655 2.31785409 7.7617131
Al 16.4114992 32.4632403 12.449089
Al 16.4446849 1.87532454 14.3358416
Al 18.4255368 32.4824398 14.428599
Al 18.5679354 1.98046248 12.0886924
Al 16.1167368 32.4793154 16.692633
Al 16.1634999 2.02352333 18.1382633
Al 18.8540837 32.4679455 18.2812754
Al 18.323919 2.0509229 16.3446822
Al 16.3771919 32.3240763 20.3418741
Al 16.098968 2.01947334 22.311397
Al 18.0425094 0.0438146812 22.3547393
Al 18.2757685 1.89561795 20.3282155
Al 16.1519122 32.3238292 24.0740078
Al 16.1372357 1.8776073 26.1487194
Al 18.3442297 0.0237526511 25.9694537
Al 18.1876029 2.08479424 24.145751
Al 16.2354901 0.215186301 28.2899958
Al 16.3500704 2.0787618 30.5612911
Al 18.1596923 0.229924754 30.5857289
Al 17.9610631 1.95646141 28.059284
Al 16.4786078 3.8589467 0.380628287
Al 16.2405914 6.0641795 1.95189599
Al 18.2545875 3.86727577 2.08297874
Al 18.3230869 6.20553291 0.0143764407
Al 16.2638797 3.94209982 3.8554447
Al 15.7848853 5.94831069 5.83022904
Al 18.0678202 4.07193849 5.99003643
Al 18.1542187 5.85953996 3.77569296
Al 16.3465276 4.2929279 8.37753772
Al 16.2330506 6.18061979 10.0833591
Al 18.4324103 4.04890542 10.2319069
Al 18.4669861 6.18521098 8.15758795
Al 16.4203038 4.23014386 12.1318945
Al 16.1915861 6.34192194 14.379285
Al 18.3462607 4.02488067 14.3004968
Al 18.3743825 6.15149434 12.3625653
Al 16.4658157 4.16488618 16.3292311
Al 16.6135169 6.11313787 18.1175266
Al 18.3307693 3.89242402 18.274873
Al 18.4405574 6.2613613 16.0024522
Al 16.2562645 4.04810732 20.1860414
Al 15.9867863 6.0692146 22.0267382
Al 18.0411721 3.79420614 22.0006758
Al 18.2861342 5.81822748 20.4501868
Al 16.117931 3.99067054 24.3925216
Al 16.5409859 6.12285529 26.4805114
Al 18.0952563 4.24436776 26.3245742
Al 18.0948636 5.90175154 24.5495714
Al 16.6644975 4.26090793 28.7177107
Al 16.4507722 6.16775553 30.8423329
Al 18.458996 4.10865889 30.5526114
Al 18.702606 6.47380898 28.5132075
Al 16.4226586 8.19686759 0.0619117615
Al 16.3771687 9.83929523 2.10736391
Al 18.3265379 7.87842442 2.0497509
Al 18.6226201 10.0624298 0.199102583
Al 16.0199669 8.00081657 4.05914143
Al 16.4304734 9.87335257 6.27493154
Al 18.1717024 7.96137613 5.84369827
Al 18.3187461 10.1502055 3.83542794
Al 16.15753 7.90311786 7.93115504
Al 16.1998219 10.1328404 9.90469585
Al 18.2036892 8.05752349 10.1742229
Al 18.2799235 10.033782 7.98967503
Al 16.1695242 8.05742866 11.9593324
Al 16.0755431 10.21577 14.0509573
Al 17.9396489 8.31636763 14.0900223
Al 18.2313015 10.2511265 12.1424713
Al 16.450813 8.24502929 16.2379664
Al 16.8647844 10.3831122 18.62904
Al 18.3497448 8.04268641 18.0671014
Al 18.1641675 10.2193364 16.1616079
Al 16.6360265 7.90300783 20.3241506
Al 16.5659784 10.2022797 22.3123567
Al 18.21453 8.24203547 22.4450496
Al 18.4664058 10.1636339 20.554876
Al 16.3069753 7.91417265 24.6820128
Al 16.324626 10.2540288 26.3593177
Al 18.5018526 8.31356547 26.4475487
Al 18.3437805 10.2011483 24.3927425
Al 16.215271 8.18359218 28.4865028
Al 16.0968989 9.90233332 30.6144702
Al 18.5430939 8.26132744 30.5445915
Al 18.125457 10.1681819 28.6355551
Al 16.2197029 12.1400995 0.124556335
Al 16.3381416 13.9354502 2.22198018
Al 18.4847266 12.1710946 2.12726235
Al 18.2608226 14.2691545 0.202725245
Al 16.2944033 11.9889557 4.1113598
Al 16.3338443 14.1396087 5.90655952
Al 18.2373356 12.3066079 6.05619759
Al 18.4281512 14.1414377 4.03526722
Al 16.0407588 12.2336389 7.95970461
Al 16.3931551 13.8589838 10.1252743
Al 18.3538632 12.1096219 9.64377787
Al 18.2874432 14.0464802 8.00966746
Al 16.1479913 12.1642194 12.4291651
Al 16.4108501 14.2748537 14.2639684
Al 18.2149751 12.2611831 14.2494873
Al 18.0624824 14.0548838 11.9404257
Al 16.1368282 12.0844555 16.4087319
Al 16.3148789 14.1928125 18.4457369
Al 18.3431751 12.5465797 18.2234112
Al 18.2909946 14.3472031 16.2248689
Al 16.2475209 12.2737555 20.3520285
Al 16.3025739 14.2630864 22.4841798
Al 18.4496879 12.1685193 22.3765647
Al 18.1522048 14.0035535 20.408829
Al 16.6931401 12.3170483 24.2900862
Al 16.4268816 14.3669188 26.3701797
Al 18.5991564 11.9808783 26.5374502
Al 18.8369446 14.0675701 24.5929062
Al 16.2238363 12.2876557 28.1935277
Al 16.1962637 13.9768045 30.5359338
Al 18.3758567 12.0767117 30.816031
Al 18.2608692 14.3581431 28.4316211
Al 16.2789929 16.2773735 32.2843901
Al 16.3429962 18.1701425 1.91936569
Al 18.4307875 16.1420823 1.8952401
Al 18.5999699 18.0512455 32.22782
Al 16.2241906 15.9179429 4.06333295
Al 16.3184772 18.1153107 6.02417
Al 18.0288511 16.3080502 6.11137789
Al 18.3856446 18.057206 4.09666103
Al 16.5819285 16.1437454 8.123364
Al 16.2846667 18.1271441 9.8403126
Al 18.2662626 15.9372286 10.2023108
Al 18.4013841 18.2326708 8.21918509
Al 16.2559954 16.2865285 12.1273138
Al 16.4999606 18.4993934 14.0439526
Al 18.5203749 16.0931865 14.0684465
Al 18.31131 18.2558437 12.1041196
Al 16.0729512 16.5484703 15.8815515
Al 16.1899027 18.5188832 18.5226446
Al 18.0309439 16.4767992 17.8074176
Al 18.2817609 18.4673571 16.4001103
Al 16.2860789 16.3366633 20.3849072
Al 16.5423681 18.3231392 22.7781166
Al 18.4263214 15.9529442 22.568406
Al 18.3650677 18.2246399 20.3074287
Al 16.4785224 16.2160974 24.4634121
Al 16.3032203 18.3665691 26.3175672
Al 18.4448577 16.5176105 26.702651
Al 18.4639356 18.2336302 24.7290541
Al 16.4004699 16.4145578 28.4263128
Al 15.9586981 18.2650335 30.5551112
Al 18.258257 15.9493828 30.4324367
Al 18.4110844 18.4675122 28.7906408
Al 16.1457925 20.0317043 32.3702208
Al 16.2360801 22.0751562 2.02018401
Al 18.4080146 20.0811806 2.14746783
Al 18.2492071 22.1279829 0.400750214
Al 16.5109284 20.2641125 4.04913178
Al 16.5150932 22.7161087 6.20928379
Al 18.0243455 20.2385599 6.08151982
Al 18.1360527 22.5418925 4.20175163
Al 16.1591708 20.4457145 8.06012389
Al 16.0274198 22.1048517 10.1111135
Al 18.2161969 20.1489545 9.92532479
Al 18.4234529 22.2323644 8.09727122
Al 16.1335785 20.0146885 11.9402849
Al 16.164498 22.4710976 14.2148777
Al 18.4349009 20.2890213 14.1628251
Al 18.3704031 22.3326186 12.1694476
Al 16.4794047 20.289472 16.2226151
Al 16.2313607 22.3488224 18.3199588
Al 18.3250293 20.4720026 18.2991496
Al 18.2331755 22.4747358 16.1288475
Al 16.0634645 20.6321142 20.6262345
Al 16.2709678 22.5406259 22.7815861
Al 18.1474763 20.420798 22.3813016
Al 18.4232065 22.5885761 20.3069997
Al 16.5317053 20.4241924 24.8067259
Al 16.686672 22.4049311 26.638836
Al 18.3484933 20.3568773 26.7714555
Al 18.3840976 22.5094733 24.3466545
Al 16.1223467 20.3764636 28.3412779
Al 16.2342513 22.210903 30.0856319
Al 18.2886268 20.3289443 30.4548971
Al 18.5611989 22.3164718 28.5043047
Al 16.266671 23.9118184 0.100366271
Al 16.3546395 26.4893813 2.15091504
Al 18.1475015 24.4342657 1.98041007
Al 18.2102378 26.2440947 0.0180784329
Al 16.1745535 24.3193468 4.05955161
Al 16.3713307 26.3121105 6.08640621
Al 18.3672667 24.3563789 6.34728179
Al 18.2263534 26.3147048 4.3708523
Al 16.1415971 24.3310702 8.25800392
Al 16.2840554 26.3267761 9.93824317
Al 18.2181288 24.0793645 10.2685037
Al 18.2794224 26.3274178 8.41255796
Al 15.7879534 24.4922216 11.7547685
Al 16.1345201 26.1166986 14.1104721
Al 18.4597108 24.1247024 14.2679545
Al 18.1746201 26.0644849 12.1976813
Al 16.0363984 24.3049323 16.19281
Al 16.3970858 26.4249063 18.4789503
Al 18.3624985 24.1654809 18.3325487
Al 18.277541 26.0162925 16.3234992
Al 16.3687324 24.0255899 20.3341827
Al 16.1637534 26.237548 22.2200258
Al 18.101569 24.5011026 22.6495839
Al 18.1971728 25.9796512 20.559336
Al 16.3325209 24.6105579 24.5447556
Al 16.3662546 26.4104369 26.5327898
Al 18.5625597 24.3521804 26.2209285
Al 18.6110679 26.6276035 24.3752025
Al 16.3425918 24.4039572 28.3851993
Al 16.2439227 26.4530606 30.9484205
Al 18.1153785 24.3716499 30.5237198
Al 18.3253561 26.2205723 28.5120475
Al 16.3122895 28.4026727 0.0901498997
Al 16.5201344 30.8497039 2.13430187
Al 18.5358926 28.6244293 2.16917184
Al 18.3170024 30.5264554 0.322086543
Al 16.1615475 28.3919363 4.21182688
Al 16.1447865 30.483432 6.2324966
Al 17.957967 28.6282837 6.09047804
Al 18.1558134 30.3975445 4.11766439
Al 16.3803405 28.4659509 8.35916073
Al 16.4549438 30.31508 10.3927697
Al 18.3181062 28.5407388 9.87980884
Al 18.5743307 30.5913564 7.90074379
Al 16.4590523 28.1696999 12.3136574
Al 16.5803097 30.2747639 14.4372766
Al 18.2622581 28.376464 14.4214323
Al 18.209455 30.6584334 12.143302
Al 16.2139305 28.2669242 16.4335416
Al 16.3988685 30.3878686 18.292839
Al 18.3138294 28.3717831 18.5223537
Al 18.1779355 30.3311138 16.5309974
Al 16.2238808 28.2234196 20.393236
Al 15.967759 30.0969677 22.3835019
Al 18.0486762 28.5521409 22.4905443
Al 18.2489786 30.4316911 20.1902767
Al 16.2080819 28.1533595 24.4373797
Al 16.2189804 30.4910098 26.5054154
Al 18.0711445 28.6055269 26.3082627
Al 18.0971357 30.6132833 24.3001161
Al 16.3313763 28.2007349 28.7176556
Al 16.5311931 30.4267215 30.7168229
Al 18.2272896 28.4826153 30.828584
Al 18.2175949 30.3915049 28.5368038
Al 20.4356819 32.2645069 0.169586845
Al 20.4906983 1.67916008 2.08853324
Al 22.5556194 32.2737707 2.15826923
Al 22.3045808 1.64218463 0.135347852
Al 20.4737574 0.105309095 4.37587321
Al 20.3469373 2.16804476 6.21830486
Al 22.4029368 32.4098942 6.31836305
Al 22.5887555 1.93930207 3.97141035
Al 20.3193572 0.0811522044 8.08876782
Al 20.4819205 2.21035532 9.72424545
Al 22.2455606 0.00333187002 10.0986856
Al 22.5112689 2.28316589 8.1888526
Al 20.0200881 32.3558839 12.1691361
Al 20.3852312 2.08552987 14.7300694
Al 22.2512229 0.185456512 14.2720329
Al 22.0949967 2.23328554 12.0263145
Al 20.4967621 32.3984461 16.327834
Al 20.2194395 2.15974814 18.3828421
Al 22.3482574 32.5237088 18.2521067
Al 22.6032053 1.9939225 16.4889615
Al 20.3399707 32.3050353 20.4763204
Al 20.1566654 1.98860634 22.156829
Al 22.4763355 32.4375757 22.3490224
Al 22.0280697 2.2788298 20.3936438
Al 20.2586323 0.125487146 23.9744209
Al 20.0652876 2.37225857 26.6741917
Al 22.056772 0.178032448 26.2782433
Al 22.0883488 2.05719215 24.4565263
Al 20.2142021 32.4162594 28.5717633
Al 20.3803927 1.68901243 30.5450327
Al 22.3212749 32.5203126 30.6814515
Al 22.1753117 1.91193331 28.481438
Al 19.9848662 4.05953405 0.0737972025
Al 20.1587555 6.16738266 2.06670909
Al 22.1198214 3.71942288 1.96118351
Al 22.3706975 5.81571904 0.350596023
Al 20.1889166 4.09606702 3.85425744
Al 20.8121659 6.02930714 5.68399892
Al 22.3928695 3.95653304 6.29007792
Al 22.4733448 6.21239084 3.47291538
Al 20.3801427 4.32134528 8.18628917
Al 20.2050345 6.06463762 10.2622102
Al 22.3418753 4.22145547 10.1934764
Al 22.4756319 5.95866854 7.94896753
Al 20.3962092 4.09448917 12.4157891
Al 20.3678309 6.21550202 14.2867316
Al 22.6806093 4.20657953 14.2715903
Al 22.3229547 5.99808936 12.2727664
Al 20.3324058 4.18267233 16.3369273
Al 20.0158907 6.09212118 18.3301972
Al 22.2688413 4.07941697 18.1849884
Al 21.9648833 5.97891896 16.3752131
Al 20.1776362 3.98181748 20.2979233
Al 20.2705307 6.37518779 22.526809
Al 22.3415448 4.20234906 22.1770016
Al 21.8143206 5.95236957 20.387315
Al 20.0666202 3.92564165 24.1318032
Al 20.4227118 6.28528075 26.3629034
Al 22.1905002 4.23910094 26.4336973
Al 22.2669081 6.29528989 24.3642659
Al 20.2319549 4.32279248 28.5791551
Al 20.5043382 6.1149217 30.5157664
Al 22.2829398 3.96532051 30.5539024
Al 22.5368603 6.37241796 28.2313759
Al 20.3994734 7.87408381 0.0572079935
Al 20.6521574 10.0287943 1.89060934
Al 22.6419871 8.18297601 1.7014909
Al 22.3796293 10.2130731 0.0146569251
Al 20.4853786 7.99860271 3.82945423
Al 20.2933396 9.838133 5.87937374
Al 22.5750792 8.18774047 5.91462876
Al 22.5079903 9.83961105 3.99107733
Al 20.6199656 7.99256973 7.90949075
Al 20.3000117 10.223126 9.97668437
Al 22.1416708 8.09419341 10.262664
Al 22.2960641 9.99932261 7.99891723
Al 20.3100697 8.21825272 12.1662494
Al 20.2574504 10.2036336 14.0176988
Al 22.3182042 8.25627029 13.9524481
Al 22.5355442 10.4695621 12.1893843
Al 20.0116856 8.42349257 15.8752318
Al 20.013894 10.3415142 18.0163395
Al 22.1275716 8.18991609 18.0999716
Al 22.2677222 10.0951251 16.1428599
Al 20.1567629 8.15164459 20.5256436
Al 20.6174521 10.4679431 22.4071267
Al 22.5722069 8.25310348 22.2433128
Al 22.1665664 10.388481 20.2547779
Al 20.3775577 8.1453513 24.4109824
Al 20.5866371 10.1495083 26.6343509
Al 22.4337581 8.21552452 26.4120059
Al 22.6241893 10.0494179 24.6187773
Al 20.4506277 8.48908694 28.4181017
Al 20.2429643 10.3152727 30.5405058
Al 22.4751976 8.31827349 30.3814321
Al 22.367602 10.1864786 28.6023719
Al 20.5043552 12.1885061 0.18119464
Al 20.2277631 14.4244267 2.00196253
Al 22.4006426 12.3011625 2.02566815
Al 22.5218662 14.1871485 32.5176057
Al 20.5681105 12.1881016 4.04760727
Al 20.3653052 14.2777517 5.97838103
Al 22.2375296 12.2086117 5.97851591
Al 22.2684005 14.1894595 3.72435687
Al 20.5083325 12.2998527 7.99962697
Al 20.5615153 14.2470623 10.1366621
Al 22.1472285 12.0029584 10.0419363
Al 22.395077 14.0019774 8.37321114
Al 20.0791195 12.3136943 12.0722273
Al 20.3011229 14.3176542 13.8744856
Al 22.6902009 12.1567608 13.8772377
Al 22.3080984 14.440359 11.8970096
Al 20.4647885 12.3578816 16.0113549
Al 20.0192995 14.4060397 18.4629312
Al 22.2166634 12.8230642 18.1522182
Al 21.8786151 14.3481602 15.8570057
Al 20.387762 12.5706366 20.0749787
Al 20.5559781 14.3105901 22.5804627
Al 22.375788 12.3605401 22.3458687
Al 22.3172464 14.5034117 20.4954876
Al 20.6004817 12.2109069 24.6598694
Al 20.6579769 14.2213335 26.735301
Al 22.5591032 11.8979786 26.4280038
Al 22.6500806 14.1091579 24.7614508
Al 20.3741584 12.1744706 28.602067
Al 20.3613467 14.1155422 30.6276421
Al 22.726741 12.120802 30.21884
Al 22.4921361 14.2105405 28.6323211
Al 20.1876331 16.1333711 32.2527674
Al 20.2323859 18.0086026 1.84000506
Al 22.2185094 16.1757729 1.80243709
Al 22.1388053 18.0670293 32.4985389
Al 20.2919066 16.2670481 3.99390437
Al 20.2412412 18.2969758 6.17632866
Al 22.1925693 16.3636726 6.14335278
Al 22.262743 18.1108347 3.6894133
Al 20.4361214 16.2212165 8.14284404
Al 20.2459813 18.2414647 9.9268399
Al 22.5954833 16.2997918 10.0444773
Al 22.4321857 18.5384405 8.39346883
Al 20.2536712 16.1636628 11.8626443
Al 20.5487444 18.5527242 14.1614915
Al 22.1951989 16.2712945 14.111129
Al 22.1373834 18.177147 12.038379
Al 20.3776432 16.6969978 16.071276
Al 20.2051201 18.5598929 18.2509861
Al 21.8658722 16.1333545 18.1701041
Al 22.528505 18.3163272 16.404525
Al 20.1227139 16.228894 20.4725625
Al 20.1890064 18.6268142 22.4150127
Al 22.4691816 16.2752039 22.7342434
Al 22.1268369 18.1355704 20.2079286
Al 20.4137677 16.3910302 24.5887789
Al 20.4207055 18.5209063 26.6288169
Al 22.4152516 16.3788826 26.5574493
Al 22.105991 18.66684 24.7618585
Al 20.4940325 16.3528724 28.8426315
Al 20.4037193 18.3473606 30.4665141
Al 22.5043203 16.267264 30.6916776
Al 22.6374186 18.2222393 28.7629068
Al 20.3906733 20.226175 32.30879
Al 20.51901 22.198386 2.37150966
Al 22.1463177 20.158879 2.00275494
Al 22.2597963 22.1547134 0.0598414941
Al 20.198504 20.2582378 4.29809343
Al 20.3059308 22.2309462 6.21695012
Al 22.5453399 20.2469086 5.79064252
Al 22.6506474 22.3951178 3.96035703
Al 20.3258604 20.2688484 8.10869361
Al 20.3715673 22.3272411 10.2444279
Al 22.2093988 20.4540858 10.1328861
Al 22.2858227 21.995307 8.01997909
Al 20.3350259 20.1938449 11.968015
Al 20.3994262 21.9561101 14.429457
Al 22.5924007 20.1077842 14.4338663
Al 22.2184919 22.5518122 12.1907426
Al 20.4350679 20.4360404 16.5346002
Al 20.4023641 22.1146074 18.4612729
Al 22.5506065 20.1303872 18.5759906
Al 22.4451255 22.1216702 16.3485621
Al 20.3555154 20.4002436 20.428054
Al 20.2885507 22.34594 22.3579471
Al 22.1690606 20.4396643 22.6834802
Al 22.3353459 22.2649265 20.5282406
Al 19.9667585 20.4617243 24.6085307
Al 20.4279836 22.2583853 26.6414755
Al 22.7099142 20.4256711 26.8912101
Al 22.2742674 22.0155891 24.7216861
Al 20.6514074 20.2909486 28.5318816
Al 20.3850455 22.5756288 30.6266626
Al 22.3180793 20.5371966 30.4834991
Al 22.5140954 22.666883 28.8973657
Al 20.1761186 24.5272756 32.5025259
Al 20.2624049 26.2416553 1.94383945
Al 22.3904749 24.1523551 1.96373354
Al 22.2345889 26.236356 32.4962889
Al 20.0132633 24.1388441 4.00771213
Al 20.4344378 26.4581383 5.91664665
Al 22.3462604 24.1086264 5.95127807
Al 22.3582458 26.1781992 3.92463396
Al 20.2426578 24.1609964 8.17123111
Al 20.4419426 26.6578608 10.0784746
Al 22.2902231 24.6260697 10.142237
Al 22.2851818 26.3795774 7.91514939
Al 20.1298553 24.3244227 12.0571557
Al 20.41529 26.4385329 14.0811281
Al 21.8076605 24.355302 14.1038311
Al 22.2302189 26.8336404 11.8304735
Al 20.2592828 24.2737924 16.3894935
Al 20.3045537 26.2241655 18.3405597
Al 22.2813416 24.0330294 18.4705908
Al 22.2132314 25.9525289 16.3723499
Al 20.3545977 24.4714007 20.3297469
Al 20.2437656 26.7120232 22.1842531
Al 22.211339 24.4370969 22.3680408
Al 22.4454738 26.4390038 20.4335641
Al 20.5596821 24.5262737 24.3315436
Al 20.3384802 26.7056442 26.3343936
Al 22.2386322 24.3611205 26.6947915
Al 22.0758846 26.3914492 24.2413936
Al 20.438426 24.3370809 28.8276022
Al 20.1091839 26.7310097 30.6588032
Al 22.1788206 24.4900158 30.7578747
Al 22.3765627 26.3775151 28.7172476
Al 20.2484909 28.4846964 0.167002742
Al 20.4135319 30.5023374 2.24184844
Al 22.2785258 28.205811 2.06367355
Al 22.5218541 30.3281292 0.138044261
Al 20.2191495 28.2737147 4.08234064
Al 20.3435257 30.5986816 6.03759584
Al 22.2708774 28.3510734 6.1244303
Al 22.3622792 30.2812361 4.09752177
Al 20.3904864 28.5972786 8.03310856
Al 20.2113205 30.6405391 10.0388989
Al 22.2289343 28.5639156 10.1300712
Al 22.1444534 30.5650319 8.06436121
Al 20.1878807 28.4802093 12.2208351
Al 20.1679213 30.7429916 14.3078475
Al 22.249216 28.628172 14.3386904
Al 22.2850483 30.6907298 12.3297751
Al 20.394033 28.5654055 16.4813876
Al 20.5724089 30.5670117 18.0567897
Al 22.3242753 28.2449363 18.3197874
Al 22.5035002 30.65157 15.7915119
Al 20.1804895 28.4416885 20.5457569
Al 20.0280428 30.780495 22.5284928
Al 22.2951839 28.5937738 22.4500777
Al 22.3540539 30.6250436 20.4220182
Al 20.2664208 28.6335064 24.439949
Al 20.2516746 30.581143 26.3945485
Al 22.3263535 28.3074875 26.2908981
Al 22.3134685 30.7323548 24.6435533
Al 20.3996385 28.450237 28.4688447
Al 20.4790533 30.3612159 30.6642466
Al 22.3439273 28.3998911 30.7128434
Al 22.2125448 30.5829678 28.5928546
Al 24.4662398 32.1014251 0.189669045
Al 24.5782865 1.80275322 2.15371296
Al 26.7452311 32.1229166 2.05698783
Al 26.2806494 1.9790572 32.3203616
Al 24.5401831 0.0299831577 4.07408323
Al 24.3035602 2.08096509 6.18147085
Al 26.3121444 0.0411248289 5.92422235
Al 26.600731 1.82025563 3.91486126
Al 24.1708053 0.164088812 8.25104565
Al 24.1199832 1.85220379 10.3473197
Al 26.5642205 32.4895022 9.95487149
Al 26.3255486 1.85558017 8.10343264
Al 24.2574711 0.189923006 12.6023399
Al 24.6092752 1.96151342 14.5620456
Al 26.8364031 0.27136705 14.1331399
Al 26.3345532 2.27540478 12.319081
Al 24.4451748 32.527193 16.2496242
Al 24.4839871 2.09970468 18.3576124
Al 26.3695326 32.5314512 18.3092152
Al 26.7354193 1.94103783 16.2679807
Al 24.3779683 32.5200558 20.2673703
Al 24.4338576 2.08424941 21.7809007
Al 26.4692063 32.5357833 22.3236596
Al 26.6272386 2.1121366 20.0069213
Al 24.4455251 32.5299837 24.4199095
Al 24.3896086 1.86268395 26.2789012
Al 26.6523386 32.5145026 26.4496032
Al 26.4837094 2.07030709 24.3172424
Al 24.2762247 32.4802453 28.2983372
Al 24.3180412 1.51599567 30.5504415
Al 26.6018631 32.3645608 30.6034406
Al 26.2339749 1.60931035 28.6789795
Al 24.042402 3.5927348 32.3861382
Al 24.8148662 6.42069436 1.60715171
Al 25.9505909 4.05835362 1.80911582
Al 26.4053942 6.11006794 32.1487375
Al 24.1989291 4.11534749 3.93249691
Al 24.2466926 6.32292214 5.87050178
Al 26.4363469 3.86022335 5.87593403
Al 26.1677146 5.83576197 3.80855602
Al 24.6859552 4.10804972 8.30553817
Al 24.5961493 6.20898671 9.97644922
Al 26.2381164 4.11454668 10.3147967
Al 26.2294795 6.24299014 7.8900982
Al 24.3929058 4.1579695 12.2181213
Al 24.7147377 6.19117851 14.2926595
Al 26.5867842 4.05450513 14.2651931
Al 26.3388202 6.53649177 12.1569883
Al 24.4328593 4.28115464 16.3671294
Al 23.9792387 6.25841417 18.3831468
Al 26.5921178 4.12456155 18.4010427
Al 26.5435417 6.06828617 16.4849279
Al 24.1589638 4.25486601 20.1139745
Al 24.1128261 6.22206333 22.2957243
Al 26.1479881 3.91595711 22.2653623
Al 26.2767348 6.31381836 20.4558069
Al 24.2373743 3.9297944 24.4395811
Al 24.4611941 6.32905134 25.9677146
Al 26.4422647 4.46700189 25.9562134
Al 26.3009766 6.17289464 23.7110568
Al 24.3618385 4.35414302 28.3500849
Al 23.8497484 6.12378115 30.5416666
Al 26.2234893 4.05923442 30.5074671
Al 26.4856134 6.29766701 28.6491526
Al 24.4189983 8.3309518 32.220489
Al 24.506487 10.1085975 2.10568872
Al 26.5285507 8.33141769 1.76579426
Al 26.2688847 10.1905879 0.148373791
Al 24.6607713 8.01469582 3.85286776
Al 24.7724766 10.2476735 6.14947248
Al 26.4632045 8.39999423 6.05099895
Al 26.5206311 10.3486654 4.19521806
Al 24.4030178 8.13857028 8.17912924
Al 24.7172666 10.1908322 10.0708351
Al 26.6011101 8.33445984 10.1869673
Al 26.7430089 10.2821657 8.35856074
Al 24.2990847 8.46622277 12.3795374
Al 24.4773539 10.2394462 14.3010918
Al 26.4245166 8.25028873 14.3226862
Al 26.4753803 10.0824751 12.0395765
Al 24.399801 7.88353106 16.3861549
Al 24.0448269 10.4587631 18.2602183
Al 26.5625602 8.14528182 18.1600235
Al 26.4328464 10.3028949 16.5085864
Al 24.3502538 8.3476664 20.063662
Al 24.7349827 10.2835177 22.0549678
Al 26.5454304 8.41585432 22.064462
Al 26.3546052 10.4804834 19.8819022
Al 24.8963231 8.43737422 24.1251829
Al 24.8026223 10.2018656 26.2678567
Al 26.7762877 8.09959895 26.2177362
Al 26.6999304 10.4922026 24.1793482
Al 24.436752 8.22670581 28.3270401
Al 24.519412 10.0846663 30.1926691
Al 26.6063812 8.24131836 30.5042365
Al 26.5456609 10.2076122 28.3167538
Al 24.1946981 12.1440045 32.4490157
Al 24.4754593 14.2548548 1.88942944
Al 26.3627268 12.3355762 2.18435956
Al 26.1143237 14.2565003 32.3878125
Al 24.5708708 12.5596412 4.00890744
Al 24.1135357 14.2374611 6.19449021
Al 26.4499267 12.2912915 6.23184928
Al 26.5975101 14.6162497 3.83163814
Al 24.3547685 11.8853227 8.24115318
Al 24.5099567 14.1382885 9.97649418
Al 26.414048 12.5431392 10.0139166
Al 26.1926828 14.4503252 7.81631383
Al 24.6741636 12.2164904 12.0686624
Al 24.0893726 14.2860328 13.9897491
Al 26.1639206 12.2687019 14.3165535
Al 26.3864949 14.2850571 12.2019072
Al 24.1533228 12.0671519 16.1766405
Al 24.3581971 14.6159089 18.2912088
Al 26.2077583 12.4618364 18.3513408
Al 26.2927006 14.1883 16.0452652
Al 24.1650514 12.2628354 20.0748027
Al 24.4861731 14.209251 22.5434738
Al 26.5698217 12.3519761 22.2563656
Al 26.4238353 14.1752414 20.3336336
Al 24.443313 12.09495 24.0413973
Al 24.656781 14.3032019 26.5727965
Al 26.1416339 12.1620696 26.411317
Al 26.6519326 14.109459 24.4279649
Al 24.7291559 12.2674332 28.404258
Al 24.3440921 14.250257 30.4454766
Al 26.3897319 12.1942733 30.4211973
Al 26.4092829 14.3747263 28.6549874
Al 24.3642962 16.283766 32.460818
Al 24.3291717 18.4695409 1.83707986
Al 26.3629782 16.3739383 1.85848797
Al 26.4865794 18.2953853 0.143810781
Al 24.4301876 16.0331185 4.24474924
Al 24.6686924 18.3587233 5.80224351
Al 26.4481155 16.2494782 5.8944197
Al 26.3959975 18.1322419 3.83008484
Al 24.3952271 16.5155177 8.04338657
Al 24.4946469 18.2486502 10.3008675
Al 26.4029087 16.0541535 9.9119586
Al 26.5899877 18.3889072 8.12689053
Al 24.4238136 16.4038143 12.3599431
Al 24.1615195 18.2570307 14.2907597
Al 26.2319845 16.3313164 14.3386962
Al 26.4337596 18.5739056 12.2385425
Al 23.9990786 16.0125556 16.0738359
Al 24.4971905 18.2801422 18.5099495
Al 26.4544087 16.2617257 18.4616827
Al 26.3794016 18.147981 16.2006845
Al 24.3280698 16.1018338 20.6799469
Al 24.0110658 18.1952036 22.4623475
Al 26.1386637 16.5120976 22.6629116
Al 26.407165 18.42881 20.7546943
Al 24.3329868 16.305371 24.7375515
Al 24.5321656 18.4143726 26.4716579
Al 26.6678396 16.3538309 26.4959368
Al 26.3276182 18.4099325 24.4850035
Al 24.4836483 16.2779915 28.6787487
Al 24.5312104 18.5897334 30.9241492
Al 26.3392364 16.4518147 30.602269
Al 26.5341044 18.4451079 28.5218412
Al 24.0599865 20.3886687 0.221724583
Al 24.4637258 22.2587262 1.88285898
Al 26.4978005 20.4154218 2.14486729
Al 26.6067838 22.6792886 32.491349
Al 24.2831167 20.1539339 3.97032923
Al 24.7215927 22.4130852 5.7413778
Al 26.4936309 20.1849829 6.00115542
Al 26.5397746 22.4475881 3.86158348
Al 24.3569265 20.3245223 8.33287991
Al 24.1284896 22.3679244 10.3474973
Al 26.5356909 20.0812974 10.2676452
Al 26.089826 22.2590759 8.22047502
Al 24.1314965 20.0750234 12.1523985
Al 24.0935983 22.2780723 14.2070941
Al 26.3714062 20.2400661 14.2952916
Al 26.0249684 22.3560216 12.3720336
Al 24.6984649 20.1634251 16.4452824
Al 24.4549776 22.2462321 18.590844
Al 26.5453391 20.4146961 18.8589478
Al 26.1898124 22.1821975 16.4905313
Al 24.207802 20.2273358 21.0026545
Al 24.564714 22.8841292 22.1991563
Al 26.6405726 20.5894862 22.6231916
Al 26.664303 22.5553064 20.4422544
Al 24.2946887 20.5404688 24.3626638
Al 24.7094272 22.2447773 26.5705733
Al 26.6464205 20.427999 26.4302377
Al 26.2198217 22.6277358 24.4788151
Al 24.6204603 20.3682828 28.7091775
Al 24.7589569 22.3816348 30.7338326
Al 26.7423417 20.2648522 30.559534
Al 26.686413 22.4114899 28.4296262
Al 24.1716049 24.4282134 32.4833144
Al 24.1369001 26.2532921 1.77598233
Al 26.3873458 24.4831905 2.06827729
Al 26.6312312 26.448338 0.101187878
Al 24.1764954 24.3576503 4.10146402
Al 24.3345302 26.3358043 6.09888777
Al 26.4494464 24.5252335 6.14938223
Al 26.4017629 26.3949098 4.03096253
Al 24.112422 24.6801747 8.25421062
Al 24.2653996 26.7473319 9.95618984
Al 26.2939087 24.6328114 9.69141642
Al 26.3126816 26.4938507 7.83772901
Al 24.224254 24.5671118 11.9286471
Al 23.8598169 26.410762 14.3632444
Al 26.0244159 24.2712704 13.8769653
Al 26.1285444 26.7371743 11.9506002
Al 24.3096117 24.2306196 16.163873
Al 24.2871488 26.3345105 18.2110846
Al 26.4044832 24.4721288 18.2469044
Al 26.0683617 26.3192792 16.3202627
Al 24.3470514 24.575777 20.33035
Al 24.2170953 26.5448497 22.3420387
Al 26.4293297 24.8127806 22.2869516
Al 26.5311168 26.7987579 20.1251754
Al 23.6189724 24.2857314 24.3272774
Al 24.2306534 26.0448465 26.5604467
Al 26.5809545 24.594374 26.2189946
Al 25.7773459 26.4039799 24.2084654
Al 24.4734382 24.2467799 28.5157974
Al 24.4676269 26.5518349 30.4423133
Al 26.6853942 24.5042465 30.2197103
Al 26.2842974 26.4456922 28.0711786
Al 24.4022098 28.3252753 0.128366489
Al 24.5259749 30.2286222 2.5048382
Al 26.3904802 28.280392 2.17083038
Al 26.1660641 30.0726961 32.3689019
Al 24.2492448 28.1698896 3.88089667
Al 24.4122638 30.7518022 6.31771859
Al 26.2906385 28.391168 6.14540273
Al 26.5912933 30.3023539 4.38171734
Al 24.4022593 28.5274265 8.39015367
Al 24.2007751 30.6733425 10.1869873
Al 26.6411842 28.3733366 10.0655018
Al 26.5097545 30.2152964 7.98295292
Al 24.046844 28.6953276 12.3675646
Al 24.6886917 30.4594682 14.3317477
Al 26.5109145 28.3304723 14.3702322
Al 26.2171683 30.619964 12.137532
Al 24.3559029 28.5370958 16.3661989
Al 24.4383714 30.4625197 18.4618021
Al 26.5745979 28.8717775 18.0774279
Al 26.7329202 30.9590576 15.9353394
Al 24.3412515 28.511512 20.3449971
Al 24.3678495 30.3249638 22.3239663
Al 26.4773712 28.4053416 22.5610727
Al 26.3097389 30.5287377 20.3241303
Al 23.9989724 28.4287662 24.4157196
Al 24.2518498 30.517296 26.3573007
Al 26.1091799 28.6038663 26.3938972
Al 26.5287112 30.5127676 24.5916308
Al 24.399036 28.4172077 28.7351882
Al 24.1038017 30.4952448 30.5403131
Al 26.6317104 28.3461837 30.3496042
Al 26.437133 30.5142379 28.6913858
Al 28.3056192 0.035658872 0.0255528657
Al 28.367559 1.82905525 2.08130434
Al 30.2101176 32.1978184 2.18340833
Al 30.4252338 1.79465374 32.5359973
Al 28.3931873 32.3275855 4.14335624
Al 28.6174432 2.28186945 6.0822709
Al 30.5145245 32.5135177 6.35597059
Al 30.3392208 1.91488529 3.85181016
Al 28.4527146 0.346125149 8.04693418
Al 28.1967257 1.99498204 10.1055494
Al 30.5570838 0.145179227 10.0151344
Al 30.5975639 2.29985227 8.19237343
Al 28.3255713 32.5295422 12.063855
Al 28.5399584 2.31434174 14.1087081
Al 30.7876702 0.204056756 13.9642576
Al 30.5617338 1.9972965 11.7106321
Al 28.6459395 0.145248301 16.0928469
Al 28.6008704 2.18269891 18.3474743
Al 30.467934 0.0962419821 18.4157867
Al 30.5617567 2.05393836 16.0978111
Al 28.3150284 0.198122278 20.4019043
Al 28.2717818 1.90846348 22.6293657
Al 30.4893343 0.120659953 22.2178193
Al 30.4934324 2.30708471 20.7587136
Al 28.5714131 32.4219951 24.2157131
Al 28.3671869 1.99494328 26.2378781
Al 30.4208513 0.143681822 26.4640176
Al 30.4681619 2.02186629 24.2787586
Al 28.8340145 32.2762915 28.6178339
Al 28.5625341 1.81052113 30.0978487
Al 30.605271 32.2732483 30.6108142
Al 30.4644539 1.79090298 28.5148906
Al 28.3459911 3.70827115 32.0746533
Al 28.385654 5.83387948 1.8548674
Al 30.2487385 3.82395451 1.76521726
Al 30.3455373 5.89980237 32.3295478
Al 28.2514701 4.07205423 3.88556033
Al 28.3842683 6.20477116 5.74482593
Al 30.3881247 4.22318198 5.89789869
Al 30.2057456 5.94533135 3.77691954
Al 28.1569394 4.14869141 8.10702149
Al 28.4372877 6.10136692 10.4109708
Al 30.3559668 4.32943688 10.1326936
Al 30.3612978 5.97245651 8.06328094
Al 28.3908503 4.11469411 12.1855513
Al 28.5326519 6.38077308 14.398792
Al 30.7101804 4.16113772 14.5619254
Al 30.4234604 6.17094315 12.3128152
Al 28.598768 4.05098445 16.3021094
Al 28.4413726 6.30884421 18.7132911
Al 30.3018042 4.32735485 18.5872193
Al 30.4630053 6.18885839 16.7022862
Al 28.0952199 4.34976092 20.5570995
Al 28.6541725 6.5426449 22.4991148
Al 30.1417505 4.39366388 22.456612
Al 30.2908442 6.51278028 20.3859183
Al 28.5956436 3.86841414 24.4204906
Al 28.3524013 6.18077119 26.153408
Al 30.4905594 4.0131766 26.5415286
Al 30.8082866 6.16584907 24.2652438
Al 28.0197978 3.87839659 28.1412374
Al 28.4854325 6.19409824 30.3968208
Al 30.0408336 4.01717693 30.0065661
Al 30.2305755 6.04703987 28.1324204
Al 28.4526983 7.95132898 32.5235415
Al 28.4819899 10.4125938 2.11383989
Al 30.2709945 7.9902198 1.89676841
Al 30.4551079 10.0453361 32.4105831
Al 28.2466071 8.11912733 3.71585667
Al 28.386019 10.4644747 6.00156475
Al 30.3339486 8.2091168 5.80738265
Al 30.6805135 10.1894193 3.79416629
Al 28.5374457 8.35973643 8.15698625
Al 28.5772916 10.5571112 10.1915424
Al 30.5527658 7.87611621 9.91969626
Al 30.6187031 10.3770998 8.13788143
Al 28.7081736 8.35891288 12.0415205
Al 28.3667835 10.2776186 14.1034992
Al 30.5914785 8.48994612 14.0118193
Al 30.5882745 10.493707 12.432217
Al 28.6502553 8.08811179 16.167414
Al 28.4742835 10.3627788 18.0694988
Al 30.3365919 8.4633901 18.2564006
Al 30.3493994 10.4406059 15.9916176
Al 28.4141292 8.36113394 20.2984251
Al 28.5694913 10.2166775 22.2337641
Al 30.5408252 8.44652825 22.5539989
Al 30.6510185 10.3087335 20.2072826
Al 28.769314 8.59694818 24.5127702
Al 28.6751646 10.2659076 26.6281287
Al 30.5866541 8.02575301 26.3560103
Al 30.4555693 10.5564174 24.4313685
Al 28.6724929 8.14425292 28.2687592
Al 28.3225293 10.1729844 30.5703881
Al 30.3512494 8.15261172 30.4145947
Al 30.6202605 10.2830008 28.3985456
Al 28.6248894 12.2518173 0.0932799523
Al 28.4024176 14.2260687 1.77189478
Al 30.8766176 12.3494187 2.10268682
Al 30.5778218 14.0025827 0.0355050242
Al 28.5738563 12.5039721 4.33406077
Al 28.6968605 14.3268302 6.13554497
Al 30.8483862 12.2578633 6.06114316
Al 30.772102 14.6736828 4.02043162
Al 28.5704733 12.325789 8.13844313
Al 28.536933 14.1755374 10.1019617
Al 30.8210719 12.2698591 10.0684915
Al 30.5120388 14.4968712 8.1741832
Al 28.3730103 12.5106404 12.1080887
Al 28.2945736 14.182001 13.9665114
Al 30.3185163 12.2919978 14.1902366
Al 30.6316814 14.123359 12.3484501
Al 28.3246913 12.5089483 16.2622782
Al 28.4646903 14.3540696 18.1881574
Al 30.2358433 12.3011428 18.4287987
Al 30.6094399 14.0224062 15.8396436
Al 28.3721353 12.1443273 20.0782329
Al 28.4699998 14.0380586 22.5993925
Al 30.4697966 12.3315377 22.1941822
Al 30.5282092 14.2989204 20.3906547
Al 28.6073917 12.3338411 24.5787035
Al 28.7640067 14.013435 26.7599639
Al 30.9056364 12.3333202 26.4419185
Al 30.7519021 14.356662 24.6413876
Al 28.3824426 12.0723209 28.4686557
Al 28.5983722 14.3129546 30.4231659
Al 30.5293352 12.1051063 30.2774962
Al 30.5062149 14.2466329 28.4909443
Al 28.7180262 16.0085382 32.3600585
Al 28.6931822 18.1914692 2.04110737
Al 30.4925468 16.1345502 1.97849439
Al 30.9032116 18.2306276 0.0715741157
Al 28.5236206 16.0066518 3.96270581
Al 28.4444625 17.9778549 5.889958
Al 30.6780179 16.2574437 6.37019784
Al 30.8076123 18.2253403 4.24063025
Al 28.3909301 16.1819873 7.94082241
Al 28.4043362 18.1454111 10.2600533
Al 30.357719 16.4229463 9.90272215
Al 30.3269236 18.5115773 8.15390494
Al 28.7203222 16.3920133 12.2806418
Al 28.4216206 18.4089288 14.1843197
Al 30.6405149 16.3091552 14.2655247
Al 30.8032032 18.1158387 12.0827122
Al 28.5072186 16.2960287 15.8513712
Al 28.3751741 18.4307652 18.6204192
Al 30.4092446 16.1762852 18.1060992
Al 30.4352157 18.4488567 16.2273234
Al 28.2051287 16.1096238 20.5977275
Al 28.4851127 18.2652483 22.7140099
Al 30.6024143 16.2819263 22.5890727
Al 30.7068227 17.9428692 20.3651587
Al 28.4277902 16.1298863 24.5237121
Al 28.6089955 18.4027307 26.4386529
Al 30.6100001 16.2652671 26.6229375
Al 30.7561892 18.6565835 24.2585397
Al 28.2019977 16.5766671 28.6709232
Al 28.6330038 18.1089411 30.983353
Al 30.3631377 16.1238916 30.384483
Al 30.4623887 18.1868938 28.8399788
Al 28.6131533 20.3790796 32.4403481
Al 28.4937321 22.300388 1.90676204
Al 30.7856036 20.2726804 2.14080276
Al 30.6549647 22.1023668 0.0736408135
Al 28.6723145 20.0675858 3.80843114
Al 28.3207923 22.3763557 6.03614417
Al 30.1333012 20.1659537 5.86584108
Al 30.1216393 22.2383127 4.03479761
Al 28.4926377 20.4359761 8.0971353
Al 28.2872182 22.4510222 10.162877
Al 30.8894352 20.3670602 9.92452707
Al 30.7233065 22.1989642 8.05435157
Al 28.220329 20.6764881 12.3203833
Al 28.1549856 22.3418569 14.2051513
Al 30.3392189 20.6303579 14.240596
Al 30.224371 22.3663244 12.2570599
Al 28.5428862 20.4409915 16.3261223
Al 28.3487267 22.6511522 18.3205582
Al 30.5582965 20.3246234 18.2455727
Al 30.4567818 22.3588846 16.2984702
Al 28.9079507 20.3113612 20.5337705
Al 28.4268277 22.4815842 22.5751871
Al 30.4767942 20.6180108 22.6045373
Al 30.415225 22.4860216 20.2718931
Al 28.5128625 20.4479276 24.5328054
Al 28.8027908 22.6485199 26.3132272
Al 30.4530212 20.4435686 26.3570717
Al 30.9265145 22.912414 23.8994422
Al 28.7381002 20.4008565 28.6346001
Al 28.6893979 22.36648 30.7157369
Al 30.4201291 20.0517098 30.8061958
Al 30.8340975 22.2504161 28.3768241
Al 28.8037088 24.2787078 32.3664746
Al 28.3801695 26.1593384 1.99809142
Al 30.6112195 24.3232558 2.42743488
Al 30.8136811 26.3014736 32.443289
Al 28.365857 24.2731666 4.13965023
Al 28.6233589 26.2676619 6.11702947
Al 30.4011789 24.096952 6.03652177
Al 30.4982237 26.4597657 4.10902747
Al 28.4662616 24.1877492 7.94190299
Al 28.3253598 26.284198 9.83775796
Al 30.5403579 24.0801913 10.0921744
Al 30.4673148 26.1840443 8.13677261
Al 28.2317027 24.4874686 11.7691136
Al 28.5808146 26.4434642 13.9456162
Al 30.1587411 24.2513455 14.2972441
Al 30.6615918 26.4625302 11.9314459
Al 27.8354368 24.6559367 15.8762176
Al 28.2516427 26.749402 18.2505702
Al 30.6099749 24.5910455 18.2365526
Al 30.3778755 26.4804447 16.3691402
Al 28.0741501 24.4521887 20.1798904
Al 28.5594794 26.625105 22.0369918
Al 30.1404929 24.7498477 21.9338123
Al 30.4620345 26.7330709 20.2360047
Al 28.5240393 24.6278988 24.2148552
Al 28.3530919 26.5777993 26.1117831
Al 30.5024225 24.7851204 26.2842546
Al 30.4475548 26.4504246 24.368367
Al 28.5264886 24.6089327 28.4381776
Al 28.7169787 26.3282002 30.4113541
Al 30.7465783 24.1960442 30.0267293
Al 30.5854939 26.6907062 28.5610402
Al 28.7221825 28.2517606 32.4929807
Al 28.3710555 30.3278001 1.64352123
Al 30.3064173 27.9786618 1.90854125
Al 30.2837367 30.5162872 32.5288098
Al 28.3746615 28.2399964 3.77745395
Al 28.4613407 30.6484963 6.42719464
Al 30.5559646 28.3418542 6.03621315
Al 30.189322 30.2323243 4.01554483
Al 28.5596291 28.0487204 7.80028503
Al 28.6083928 30.5740423 9.95547429
Al 30.4612805 28.4394433 10.1853781
Al 30.3851803 30.7746163 8.04755079
Al 28.4106265 28.7985852 12.0437729
Al 28.5238864 30.6864031 14.0879813
Al 30.4868435 28.5644056 14.3684426
Al 30.8264218 30.9082542 12.0839629
Al 28.4111131 28.5008852 16.1282518
Al 28.3871539 30.8047959 18.3900889
Al 30.6090293 28.6978762 18.2953563
Al 30.2986302 30.7275797 16.4571907
Al 28.5132394 28.7947278 20.2341167
Al 28.4221377 30.7252452 22.252436
Al 30.5285109 28.7844973 22.4254274
Al 30.5983364 30.6559947 20.3654315
Al 28.4304125 28.6975243 24.282024
Al 28.7149726 30.4802624 26.3932865
Al 30.5932845 28.2420337 26.2801223
Al 30.8104924 30.6772807 24.472651
Al 28.5223334 28.5432934 28.3808786
Al 28.5820258 30.1815318 30.6236628
Al 30.8609793 28.1347328 30.4737167
Al 30.6321253 30.2415954 28.4144369
