frame 0 of H_solid_817.75/prod.xyz

2048 atoms
1 atom types

0 32.53622030 xlo xhi
0 32.53622030 ylo yhi
0 32.53622030 zlo zhi

Masses

1 26.982

Atoms # atomic

1 1 32.495302 32.354185 0.012320
2 1 32.166977 1.935011 1.891252
3 1 1.949387 0.090406 1.979163
4 1 1.798617 1.997718 32.164211
5 1 32.359530 0.120160 4.100996
6 1 32.335059 2.006976 6.124975
7 1 2.074105 0.193900 6.030713
8 1 1.787664 2.047181 3.969437
9 1 32.453346 0.132112 8.088804
10 1 0.237129 2.239286 9.967483
11 1 2.148616 32.478379 9.800866
12 1 2.342793 1.943980 7.879680
13 1 0.408551 0.227481 11.834973
14 1 0.240448 2.408012 14.099169
15 1 1.882100 32.429439 14.160598
16 1 2.375383 1.638333 11.966343
17 1 32.499592 0.292214 16.080862
18 1 32.312753 2.333067 18.329277
19 1 1.912115 0.167221 18.262810
20 1 2.329077 2.225557 16.335138
21 1 32.431571 0.397772 20.418264
22 1 32.404652 2.328599 22.454968
23 1 2.232718 0.215187 22.102533
24 1 1.832481 2.287464 20.571230
25 1 0.355492 0.193742 24.058470
26 1 0.175705 2.160610 26.439713
27 1 2.095007 32.319848 26.505647
28 1 2.225699 2.372066 24.434139
29 1 0.184346 0.072992 28.738990
30 1 32.084730 2.039729 30.471624
31 1 1.729726 32.330654 30.704053
32 1 1.810179 1.867896 28.858125
33 1 32.503235 3.917534 32.397659
34 1 32.349192 5.987363 2.171800
35 1 1.838173 3.718277 1.726285
36 1 1.722185 5.797538 0.123928
37 1 32.419036 3.879070 3.808412
38 1 32.339095 5.996302 5.603491
39 1 1.988193 3.918865 5.678309
40 1 2.014770 6.337319 4.013832
41 1 32.428894 4.144398 7.782268
42 1 0.257600 6.220898 9.745965
43 1 2.283305 3.825253 10.125845
44 1 2.042264 6.283526 7.776780
45 1 32.328623 4.208601 12.079094
46 1 32.439103 6.275336 14.507748
47 1 2.330171 3.982564 14.080838
48 1 2.031212 5.985565 12.332129
49 1 0.343078 3.878624 16.141610
50 1 0.144458 6.090618 18.336566
51 1 2.019072 3.839131 18.368624
52 1 1.974728 6.432664 16.274908
53 1 32.401846 4.087674 20.508796
54 1 0.196201 6.119211 21.938244
55 1 1.477290 4.161963 22.563977
56 1 2.179125 6.300024 20.238478
57 1 32.312551 4.055038 24.561038
58 1 0.275128 5.971468 26.441591
59 1 2.143971 4.375960 26.028868
60 1 2.275125 6.151129 24.125854
61 1 32.322124 4.191500 28.433246
62 1 32.452132 6.078250 30.390298
63 1 1.638648 4.177114 30.459911
64 1 1.840907 6.346463 28.320501
65 1 32.369983 7.711397 32.505395
66 1 32.493252 9.975040 1.922484
67 1 1.828089 8.248907 1.706429
68 1 2.037659 10.241111 32.460971
69 1 0.293903 8.362713 4.027240
70 1 0.056956 10.392145 6.192822
71 1 2.296235 8.409156 6.238248
72 1 2.315797 10.070774 3.997776
73 1 32.314428 8.067393 7.880170
74 1 32.275881 9.847568 10.124988
75 1 2.106728 8.304290 10.402174
76 1 2.458953 10.151811 8.423061
77 1 0.085884 8.077331 12.166512
78 1 0.232120 10.426437 14.243117
79 1 1.818718 8.460268 14.340628
80 1 2.143506 10.021906 12.229717
81 1 32.244157 8.089575 16.387459
82 1 32.332145 10.137382 18.393676
83 1 2.116465 8.432998 18.362253
84 1 2.077749 10.412797 16.333228
85 1 32.326735 8.321309 20.245512
86 1 0.028693 10.099705 22.344775
87 1 2.266914 8.196917 22.270524
88 1 2.085116 10.422928 20.199772
89 1 0.080401 8.010656 24.274543
90 1 0.194313 10.295120 26.466783
91 1 2.109930 8.170942 26.410412
92 1 2.210752 9.912054 24.228981
93 1 32.471714 8.320418 28.374381
94 1 0.262717 10.441676 30.524346
95 1 1.833927 8.075397 30.463178
96 1 2.306780 10.388718 28.461271
97 1 0.163924 12.263584 32.508459
98 1 0.396592 14.019184 2.073414
99 1 2.278604 12.255756 1.916854
100 1 2.280407 14.285205 0.049317
101 1 0.143994 12.157315 4.095790
102 1 0.291299 14.555232 6.062329
103 1 2.005775 12.121277 6.030544
104 1 2.176424 13.911604 4.292074
105 1 0.304393 12.104973 8.134961
106 1 0.227641 14.247462 10.071086
107 1 2.093074 12.235350 10.271800
108 1 2.293692 14.268665 8.013175
109 1 32.465836 12.238879 12.203857
110 1 0.187193 14.108891 14.238681
111 1 2.173881 12.242647 13.967465
112 1 1.986104 14.451621 12.030969
113 1 32.509744 12.145286 16.320345
114 1 32.182146 14.158071 18.182220
115 1 1.808994 12.429677 18.579218
116 1 2.060380 14.338277 16.524197
117 1 32.369427 12.312641 20.512232
118 1 0.163446 14.125392 22.440087
119 1 2.350463 12.291346 22.362419
120 1 1.958883 14.187806 20.401386
121 1 0.263855 12.161008 24.141993
122 1 0.237689 14.211107 26.584779
123 1 2.097735 12.156581 26.605415
124 1 2.194899 14.320291 24.639569
125 1 0.296824 12.316819 28.666236
126 1 32.380878 14.078032 30.518560
127 1 2.251957 12.367057 30.682737
128 1 2.144216 14.226836 28.654434
129 1 32.090362 16.017263 32.320326
130 1 0.231955 18.370668 2.149064
131 1 2.202104 16.173440 1.973311
132 1 2.010208 18.260972 0.008404
133 1 0.177271 16.421527 3.858885
134 1 0.274359 18.077511 6.340240
135 1 2.120716 16.135097 6.028517
136 1 1.922625 18.331283 4.071933
137 1 0.190472 16.197786 8.421821
138 1 32.404538 17.978595 10.223025
139 1 2.197920 16.609126 10.465908
140 1 2.244805 18.409124 8.191084
141 1 0.199734 16.239597 12.351662
142 1 0.150256 18.593006 14.060740
143 1 1.914459 16.557468 14.349010
144 1 2.081357 18.612605 12.304204
145 1 32.368001 16.512567 16.422338
146 1 0.152065 18.458667 18.137349
147 1 1.753306 16.363070 18.286730
148 1 2.139372 18.574706 16.385893
149 1 0.117959 16.121912 20.459471
150 1 0.057705 18.312360 22.291485
151 1 1.915648 16.206393 22.426106
152 1 1.997265 18.521762 20.358077
153 1 32.484016 16.375088 24.613140
154 1 0.197625 18.519149 26.353114
155 1 2.079435 16.306338 26.520207
156 1 2.078580 18.393277 24.482101
157 1 0.034009 16.287546 28.256532
158 1 0.280023 18.467191 30.325387
159 1 1.725127 16.111927 30.638936
160 1 2.176428 18.060916 28.477342
161 1 0.246641 20.280552 32.496176
162 1 32.461471 22.139909 2.238310
163 1 2.109234 20.399376 1.877747
164 1 2.076829 22.396070 32.465009
165 1 32.357112 20.276159 4.383168
166 1 0.165724 22.295721 6.162359
167 1 2.062110 20.177991 5.934299
168 1 2.335840 22.342175 4.476165
169 1 32.489822 20.211406 7.955944
170 1 0.052222 22.466933 10.095482
171 1 1.736483 20.340112 10.402533
172 1 2.239862 22.235279 7.867391
173 1 32.271433 20.454625 12.150486
174 1 32.323525 22.657808 14.250321
175 1 1.838141 20.600705 14.176705
176 1 1.746629 22.525948 12.107549
177 1 32.361851 20.493386 16.213091
178 1 0.032589 22.389661 18.191688
179 1 2.176707 20.220834 18.201880
180 1 2.107726 22.547617 16.299380
181 1 0.004692 20.324326 20.062834
182 1 32.525364 22.503720 21.986348
183 1 2.100204 20.559269 22.499941
184 1 2.223544 22.402205 20.258289
185 1 32.495287 20.695185 24.418996
186 1 32.474652 22.737967 25.987250
187 1 1.910446 20.533885 26.375487
188 1 2.288079 22.505485 24.569301
189 1 0.049899 20.268292 28.525451
190 1 32.512994 22.015134 30.700167
191 1 2.489637 20.172971 30.459533
192 1 2.080682 22.205138 28.668069
193 1 0.145340 24.286772 32.431778
194 1 32.416465 26.061108 2.130815
195 1 2.046041 24.288787 2.333544
196 1 1.980004 26.379153 0.130318
197 1 0.075429 24.422395 4.082124
198 1 32.377297 26.405513 5.965891
199 1 2.048146 24.392672 6.122526
200 1 1.964942 26.452068 4.160617
201 1 32.500880 24.308496 8.071193
202 1 0.133936 26.101252 10.022609
203 1 2.006957 24.452585 10.066520
204 1 1.609858 26.549162 7.844830
205 1 32.054008 24.178015 12.272208
206 1 32.418009 26.727567 14.167298
207 1 1.779836 24.542192 14.338603
208 1 1.415823 26.213382 12.157716
209 1 32.477207 24.704064 16.510860
210 1 0.042290 26.648034 18.513362
211 1 1.810556 24.293271 18.411167
212 1 2.018684 26.548146 16.286407
213 1 32.286267 24.580144 19.995048
214 1 32.372302 26.414879 22.192196
215 1 1.827317 24.273313 22.200981
216 1 2.066704 26.589505 20.464809
217 1 0.079544 24.835795 24.367030
218 1 0.161696 26.459909 26.487626
219 1 2.043239 24.512584 26.164345
220 1 2.031135 26.460008 24.139951
221 1 0.060148 24.474434 28.331439
222 1 0.442443 26.323064 30.760402
223 1 2.059460 24.301115 30.577392
224 1 2.142609 26.518830 28.627132
225 1 32.385984 28.798646 32.487536
226 1 32.396142 30.660251 2.349056
227 1 1.838782 28.254826 2.036387
228 1 2.004657 30.311296 0.014245
229 1 32.326338 28.425801 3.850812
230 1 0.015130 30.604342 6.065289
231 1 1.711097 28.628397 5.880801
232 1 1.958106 30.187518 4.045931
233 1 32.403710 28.546831 8.138711
234 1 32.425480 30.476391 9.918457
235 1 2.050232 28.424974 10.326598
236 1 1.858036 30.409401 8.163175
237 1 0.013303 28.465834 12.180071
238 1 32.295495 30.492413 14.409704
239 1 2.063163 28.372617 14.239801
240 1 1.609005 30.458938 12.389052
241 1 0.047573 28.639357 16.331872
242 1 32.352525 30.790439 18.293181
243 1 1.952085 28.501088 18.581302
244 1 1.867759 30.587422 16.165779
245 1 0.096441 28.759305 20.300062
246 1 0.041243 30.730189 22.238329
247 1 1.752945 28.837246 22.311941
248 1 2.169204 30.819881 20.173973
249 1 32.520797 28.422247 24.264055
250 1 0.240789 30.128359 26.249112
251 1 2.273375 28.292336 26.381787
252 1 2.014426 30.493195 24.541662
253 1 0.098145 28.428006 28.307754
254 1 32.311748 30.350164 30.462009
255 1 1.856040 28.475578 30.306542
256 1 2.054300 30.467309 28.481443
257 1 3.872604 32.456380 32.518699
258 1 3.907862 2.050586 1.836274
259 1 5.792835 0.046498 1.959693
260 1 6.104318 1.855302 32.502737
261 1 4.033372 32.399079 3.917109
262 1 4.140924 1.781883 5.990974
263 1 6.252754 32.392868 6.151589
264 1 5.833322 1.880828 3.703275
265 1 4.303025 0.078591 8.036019
266 1 4.306173 1.981252 10.111472
267 1 6.083097 0.070009 10.124840
268 1 6.398115 2.138524 8.246124
269 1 4.130777 32.294429 12.002212
270 1 4.015883 2.020081 14.239475
271 1 5.874476 32.356015 14.020632
272 1 5.960071 1.867994 12.501670
273 1 3.664999 32.464736 16.261822
274 1 4.139386 2.053626 18.333607
275 1 5.787147 0.034470 18.472599
276 1 6.016117 1.802142 16.226464
277 1 3.923532 0.247694 20.142032
278 1 4.061270 2.324584 22.198406
279 1 5.901920 32.532575 22.219376
280 1 5.995107 2.135026 20.576220
281 1 4.044302 0.255043 24.402076
282 1 3.575688 2.154203 26.496275
283 1 6.246401 32.385641 26.606077
284 1 6.277710 2.114645 24.099162
285 1 3.809744 0.088229 28.478792
286 1 4.175114 1.852716 30.421032
287 1 5.798574 32.289193 30.578895
288 1 5.989125 2.020471 28.522551
289 1 4.047696 4.166643 0.036287
290 1 4.111561 6.143220 2.061923
291 1 6.133053 4.135221 1.975190
292 1 6.146934 6.128212 0.237962
293 1 4.220293 3.749292 3.960341
294 1 4.415786 5.986420 5.779253
295 1 6.253769 3.573219 5.912978
296 1 6.204894 5.992007 3.989991
297 1 4.047381 4.037132 7.699054
298 1 3.887852 6.392770 10.478445
299 1 5.842233 4.012442 10.309303
300 1 6.170564 5.887589 7.882113
301 1 4.088206 4.084450 12.137186
302 1 3.957871 6.384390 14.518837
303 1 5.947537 3.982888 14.375580
304 1 6.085446 6.276502 12.344118
305 1 3.966172 4.188158 16.308047
306 1 4.045994 5.898176 18.324537
307 1 6.053302 4.248204 18.797677
308 1 5.896588 5.943619 16.295273
309 1 4.143632 3.856672 20.254927
310 1 4.104402 5.981472 22.261464
311 1 6.326470 4.126908 22.279415
312 1 6.309013 6.394141 20.348400
313 1 4.433518 3.986708 24.275274
314 1 4.038540 5.966397 26.348904
315 1 5.745431 3.863645 26.730227
316 1 6.272669 6.097485 24.237930
317 1 3.421230 4.158144 28.570299
318 1 3.885709 6.017866 30.707182
319 1 5.832505 4.121530 30.546848
320 1 5.871058 5.981979 28.622759
321 1 3.982211 7.965058 0.098013
322 1 4.099295 9.889527 1.926604
323 1 6.161529 8.109529 2.095800
324 1 6.189253 10.149036 0.101677
325 1 4.165708 8.115086 4.131134
326 1 4.005441 10.346315 5.950435
327 1 6.118743 7.924841 6.204914
328 1 5.886842 9.910900 3.951712
329 1 4.064926 7.856472 8.081119
330 1 4.261017 9.999165 10.202518
331 1 6.139683 7.946844 9.798262
332 1 6.106024 9.884938 8.076806
333 1 4.251481 8.245016 12.423288
334 1 3.978823 10.090559 14.549057
335 1 6.123345 8.144109 14.556750
336 1 6.218057 10.040920 12.310179
337 1 4.029426 8.190559 16.367333
338 1 4.226947 10.604400 18.196819
339 1 6.251997 8.169696 18.222490
340 1 6.031931 10.139504 16.179547
341 1 4.144446 8.317353 20.005299
342 1 4.325966 10.012073 22.224305
343 1 6.254694 8.209794 22.557395
344 1 6.291713 10.217768 20.198566
345 1 4.316867 8.002333 24.286277
346 1 4.031728 10.537599 26.473570
347 1 6.025044 7.905788 26.315123
348 1 6.338897 10.102239 24.295639
349 1 3.990001 8.189405 28.540928
350 1 4.057617 10.079549 30.683361
351 1 5.872908 8.192316 30.669355
352 1 6.057509 10.253955 28.230821
353 1 4.177628 12.049061 32.446552
354 1 4.140369 14.228878 1.925830
355 1 6.175967 12.036153 2.177538
356 1 6.237480 14.314903 0.169982
357 1 4.195753 12.006184 3.906224
358 1 4.392982 14.407075 5.792001
359 1 5.978352 12.238084 5.920951
360 1 6.072295 14.403863 3.975777
361 1 4.210358 12.352560 8.055716
362 1 4.267085 14.304994 10.392469
363 1 6.164511 12.038031 10.549174
364 1 5.836329 14.356124 8.352384
365 1 4.041985 12.076809 12.235613
366 1 3.955217 14.222352 14.290392
367 1 6.233194 12.120353 14.318948
368 1 6.176102 14.197244 12.254313
369 1 3.929968 12.603215 16.128099
370 1 3.871958 14.665104 18.337033
371 1 6.020104 12.332832 17.945801
372 1 5.919807 14.538889 16.072816
373 1 4.323770 12.535371 20.156476
374 1 4.083673 14.362778 22.397190
375 1 6.053730 12.314694 22.233981
376 1 5.843714 14.597232 20.299445
377 1 3.978196 12.088953 24.335439
378 1 4.293138 13.832001 26.463071
379 1 6.439099 12.071739 26.123836
380 1 5.890297 14.289640 24.560572
381 1 4.200005 12.384641 28.788007
382 1 4.331800 14.305601 30.755873
383 1 6.430220 12.153777 30.959919
384 1 6.187574 14.340712 28.527887
385 1 4.083280 16.554240 0.281404
386 1 4.127340 18.394747 2.108536
387 1 5.977829 16.365678 1.924389
388 1 6.333735 18.407227 0.184885
389 1 4.224207 16.389693 3.868702
390 1 4.107498 18.380295 5.846895
391 1 5.876732 16.539110 6.269751
392 1 6.336759 18.236191 4.086483
393 1 3.911645 16.387375 8.098100
394 1 4.060300 18.359524 10.546436
395 1 6.079703 16.630997 10.331845
396 1 5.730300 18.289632 8.455266
397 1 3.979487 16.249756 12.547790
398 1 4.124654 18.537475 14.401275
399 1 6.125508 16.383875 14.232349
400 1 6.363410 18.414383 12.477343
401 1 3.828050 16.347053 16.225762
402 1 3.980286 17.848997 18.421645
403 1 6.253212 16.281599 18.279342
404 1 6.221165 18.450274 16.537052
405 1 3.716290 16.291337 20.684444
406 1 4.454351 18.429898 22.450555
407 1 5.914824 16.091942 22.831159
408 1 6.065906 18.397488 20.334220
409 1 3.874716 16.465729 24.505159
410 1 4.009874 18.240704 26.548994
411 1 6.188376 16.399037 26.669661
412 1 6.163900 18.047443 24.560882
413 1 4.019322 16.007486 28.324566
414 1 3.919430 18.085809 30.463795
415 1 6.064878 16.465397 30.611418
416 1 6.096908 18.210176 28.434307
417 1 4.080978 20.074727 32.519982
418 1 4.078310 22.402042 2.064275
419 1 5.834434 20.670653 1.992591
420 1 6.301764 22.282770 32.486947
421 1 4.325206 20.300712 3.880579
422 1 4.484342 22.461785 6.049083
423 1 6.138451 20.236871 6.173503
424 1 6.251380 22.480457 4.233636
425 1 4.074227 20.334633 7.969202
426 1 3.912797 22.080540 10.152399
427 1 6.088898 20.421822 10.656928
428 1 6.175416 22.271524 8.494135
429 1 3.941976 20.406999 12.582573
430 1 3.806506 22.601563 14.304147
431 1 6.052031 20.258378 14.552979
432 1 6.167612 22.655581 12.204310
433 1 4.128368 20.452561 16.471400
434 1 4.924981 22.288456 18.501974
435 1 6.088450 20.209181 18.507980
436 1 6.593893 22.395028 15.967913
437 1 4.059104 20.421458 20.281009
438 1 4.144010 22.307783 22.170043
439 1 6.388840 20.236409 22.329242
440 1 6.392509 22.604300 20.530720
441 1 4.363926 20.296860 24.340467
442 1 4.195733 22.345470 26.162379
443 1 6.216393 20.315102 26.173938
444 1 6.450867 22.241145 23.886353
445 1 4.300728 20.582822 28.021134
446 1 4.206479 22.418915 30.571824
447 1 6.076607 20.140402 30.469928
448 1 6.072122 22.540205 28.284732
449 1 4.054975 24.442498 0.160691
450 1 3.943331 26.170585 2.327965
451 1 6.416830 24.354588 2.303918
452 1 6.113398 26.527785 0.111415
453 1 4.101387 24.351222 4.312279
454 1 3.739377 26.522751 6.214452
455 1 6.095413 24.470479 6.140879
456 1 5.961654 26.470431 4.026338
457 1 4.032241 24.395097 8.186247
458 1 3.820369 26.509910 10.392593
459 1 5.787228 24.262400 10.258686
460 1 5.888778 26.450834 8.665809
461 1 3.663335 24.444435 12.441637
462 1 4.058997 26.509751 14.359926
463 1 6.583567 24.644892 14.609459
464 1 6.266422 26.191628 12.298937
465 1 4.372423 24.392467 16.396575
466 1 3.853688 26.346616 18.121550
467 1 6.514705 24.450000 18.011487
468 1 6.314981 26.724946 15.991656
469 1 4.097541 24.507708 20.152033
470 1 3.883541 26.567845 22.397537
471 1 5.810948 24.645150 22.269883
472 1 5.844190 26.344344 20.279079
473 1 3.936170 24.708774 24.228292
474 1 4.095707 26.214700 26.526790
475 1 6.454862 24.660768 26.353214
476 1 6.148763 26.275213 24.498555
477 1 3.891755 24.229389 28.243111
478 1 4.335087 26.233068 30.565582
479 1 6.160362 24.501174 30.697861
480 1 5.926857 26.237102 28.365954
481 1 3.956387 28.075663 0.116283
482 1 3.954272 30.518193 2.086570
483 1 6.101430 28.574059 2.073168
484 1 5.636459 30.211255 32.479883
485 1 4.071239 28.571912 3.953055
486 1 4.153044 30.608892 6.114811
487 1 5.951559 28.396454 6.100424
488 1 6.334745 30.613911 3.977030
489 1 3.761553 28.465264 7.814386
490 1 4.288976 30.417858 9.891981
491 1 6.289235 28.379241 10.332530
492 1 6.118683 30.526878 7.918180
493 1 4.169133 28.768510 12.101306
494 1 3.795852 30.681867 14.464067
495 1 6.370444 28.588684 13.935849
496 1 6.172195 30.513753 12.122412
497 1 4.063491 28.650105 16.329240
498 1 4.186986 30.604273 18.295829
499 1 6.356673 28.620183 18.028645
500 1 5.844974 30.755433 16.201604
501 1 3.980701 28.667097 20.376373
502 1 3.839730 30.656041 22.413317
503 1 5.975637 28.381381 22.476694
504 1 6.082072 30.313648 20.343717
505 1 3.845485 28.669823 24.348036
506 1 3.968827 30.476260 26.520830
507 1 5.962430 28.463628 26.614950
508 1 6.030301 30.500120 24.482003
509 1 4.107494 28.424479 28.578689
510 1 3.778848 30.439926 30.578185
511 1 5.874188 28.445730 30.361361
512 1 6.016485 30.476921 28.550304
513 1 7.979153 32.534234 32.251997
514 1 7.972644 1.942701 1.935610
515 1 10.046479 0.004063 1.997303
516 1 10.107092 2.009586 0.060412
517 1 7.930668 0.101593 3.924184
518 1 8.392579 1.897415 6.105739
519 1 10.033152 32.317569 6.172171
520 1 10.096092 1.750842 4.075997
521 1 8.218735 32.316327 8.286926
522 1 8.187574 1.853423 10.275469
523 1 10.040073 0.387594 10.121154
524 1 9.878917 2.072146 8.152906
525 1 8.061826 0.113869 12.254016
526 1 8.196476 2.140228 14.024585
527 1 10.083125 0.114344 14.245089
528 1 10.364814 2.095362 12.020299
529 1 8.059059 32.456287 16.233768
530 1 7.767986 1.778143 18.327730
531 1 10.246430 32.484924 18.019885
532 1 10.203421 1.853690 16.131533
533 1 8.210557 32.412360 20.315183
534 1 8.247790 2.117879 22.318207
535 1 10.166624 0.067363 22.209582
536 1 10.027583 1.964208 20.099321
537 1 7.722725 32.497063 23.935156
538 1 7.821920 1.869697 26.531246
539 1 10.105108 0.048039 26.453483
540 1 10.446599 1.982500 24.305507
541 1 8.118589 32.350656 28.572760
542 1 7.940447 2.050024 30.380476
543 1 10.291374 0.230629 30.562687
544 1 10.083923 1.886533 28.164540
545 1 8.108346 3.933526 0.145026
546 1 8.053247 6.294586 1.888436
547 1 10.226536 3.823214 2.176878
548 1 10.134563 5.960231 32.399020
549 1 8.277578 3.643673 4.065520
550 1 8.021711 5.857784 5.938992
551 1 10.011873 4.065685 6.036480
552 1 10.099979 5.943245 3.673507
553 1 8.186900 3.940743 8.319750
554 1 7.845792 6.051338 10.410797
555 1 9.996114 4.090127 10.247858
556 1 10.161265 6.076954 7.769479
557 1 8.104229 4.152688 12.230570
558 1 8.025883 5.688053 14.663530
559 1 10.166999 4.026939 14.570105
560 1 10.316850 5.945308 12.128107
561 1 7.952232 3.657802 16.313126
562 1 8.106314 6.029902 17.989447
563 1 9.924821 3.614304 18.050957
564 1 10.130691 5.975208 16.430351
565 1 8.279637 4.422283 20.130387
566 1 8.250150 6.370979 22.436410
567 1 10.080003 4.300210 22.354650
568 1 10.452633 6.372054 20.283613
569 1 8.414637 4.106271 24.524795
570 1 8.180617 6.200248 26.623392
571 1 10.166402 4.277708 26.660194
572 1 10.312391 5.855333 24.405339
573 1 7.893753 4.205976 28.378488
574 1 7.787143 6.205317 30.640584
575 1 9.979930 4.000874 30.704088
576 1 9.845228 6.212089 28.825097
577 1 8.337251 8.127611 0.060835
578 1 8.198850 9.936558 1.995488
579 1 10.171740 8.120209 1.963237
580 1 10.154689 10.179774 32.482333
581 1 8.386919 7.781252 3.819623
582 1 7.775756 10.062772 6.022552
583 1 9.865036 8.194353 6.129940
584 1 9.895200 9.856694 4.091820
585 1 8.265432 7.907000 8.286471
586 1 8.290756 10.199797 10.658247
587 1 10.165764 8.092270 10.441725
588 1 9.906907 10.085546 8.150120
589 1 8.397400 7.682360 12.493066
590 1 8.147486 9.882370 14.135458
591 1 10.321058 7.949000 14.604196
592 1 10.120945 9.879964 12.475666
593 1 8.063684 8.286101 16.284074
594 1 8.280335 10.252780 18.075594
595 1 10.108419 8.441740 18.123336
596 1 10.176368 10.276881 16.294897
597 1 8.579007 8.140564 20.340245
598 1 8.155633 10.438972 22.098914
599 1 10.455345 8.425247 22.231062
600 1 10.250074 10.553976 20.371845
601 1 8.286527 8.177000 24.217192
602 1 8.155182 10.102432 26.404902
603 1 10.401014 8.256478 25.807098
604 1 9.836347 10.217394 24.329694
605 1 7.861705 8.143280 28.747435
606 1 8.155812 10.252989 30.383699
607 1 10.205981 8.133028 30.601333
608 1 10.143314 10.100013 28.608012
609 1 8.331080 12.428620 0.235678
610 1 8.170452 14.193105 2.211355
611 1 10.211249 12.109389 2.031886
612 1 10.088507 14.474892 0.218245
613 1 8.111082 12.237420 4.102599
614 1 7.677704 14.128011 6.382062
615 1 9.929723 11.862984 6.151620
616 1 10.370505 14.353691 4.012571
617 1 7.674996 12.194072 8.564359
618 1 7.862759 14.433509 10.358516
619 1 9.946262 12.419522 10.226002
620 1 9.712836 14.074597 8.303295
621 1 8.108706 12.187044 12.289054
622 1 8.037885 14.365389 14.004336
623 1 10.499775 12.542199 14.051553
624 1 9.966828 14.255087 12.129283
625 1 8.276154 12.199169 15.866369
626 1 8.195381 14.195237 18.176754
627 1 10.141317 12.190536 18.261982
628 1 10.197344 14.033458 16.259520
629 1 8.131496 12.468594 20.113419
630 1 7.975017 14.445131 22.043531
631 1 10.380771 12.110322 22.505924
632 1 10.055887 14.552723 19.987682
633 1 8.181640 12.414310 23.904557
634 1 8.284115 14.147120 26.661892
635 1 10.378105 12.208923 26.271377
636 1 10.293428 14.322467 24.302152
637 1 8.368040 12.183408 28.270336
638 1 8.207854 14.263488 30.447689
639 1 10.152206 12.383381 30.709301
640 1 10.250644 14.449149 28.639211
641 1 8.064532 16.358495 0.131616
642 1 8.270233 18.263417 2.112695
643 1 10.341096 16.415204 2.394120
644 1 9.977459 18.171047 0.223430
645 1 8.035391 16.156172 4.397587
646 1 8.071128 18.272963 6.252039
647 1 9.922871 16.036001 6.484021
648 1 10.373269 18.276739 4.380261
649 1 7.756072 16.245935 8.298423
650 1 8.112875 18.360195 10.490704
651 1 10.189308 16.024569 10.239702
652 1 9.995071 17.993532 8.213594
653 1 8.132224 16.265798 12.322143
654 1 8.083972 18.207933 14.553677
655 1 10.390900 15.938356 14.257058
656 1 10.031515 18.095551 12.593549
657 1 8.515393 16.232049 16.243891
658 1 8.358865 18.412305 18.161992
659 1 10.371908 16.461248 18.331625
660 1 10.129794 18.775299 16.040441
661 1 8.305701 16.464002 20.061031
662 1 7.945963 18.268764 22.368816
663 1 10.082759 16.131628 22.425683
664 1 10.668827 18.433750 20.199197
665 1 8.208807 16.095366 24.440832
666 1 8.129751 18.315043 26.490673
667 1 10.214958 16.086819 26.457560
668 1 10.077771 18.168201 24.302821
669 1 8.118859 16.215426 28.747663
670 1 8.268449 18.489977 30.589065
671 1 9.959171 16.281411 30.775228
672 1 10.063174 18.357595 28.681154
673 1 8.367766 20.371448 32.523443
674 1 8.114852 22.064873 2.086019
675 1 10.164046 20.095849 2.361092
676 1 10.242725 22.139041 0.277022
677 1 8.204469 20.462738 4.046131
678 1 7.961748 22.076274 6.213088
679 1 10.162265 20.279493 6.121489
680 1 10.335200 21.961246 4.094042
681 1 8.057122 20.257115 8.229390
682 1 8.144360 22.236228 10.667755
683 1 10.054055 20.355636 10.326013
684 1 10.156686 22.224897 8.374100
685 1 8.174550 20.129532 12.430901
686 1 8.499737 22.404783 14.039898
687 1 10.304732 20.675216 14.368220
688 1 10.311343 22.466789 12.332712
689 1 8.333433 20.604208 16.529949
690 1 7.929996 22.524210 18.286452
691 1 10.583241 20.434971 18.314996
692 1 10.284649 22.570759 16.456501
693 1 8.215234 20.293135 20.228180
694 1 8.692235 22.344259 22.228717
695 1 9.968669 20.033242 22.196624
696 1 10.475189 22.400556 20.087618
697 1 8.408969 20.202422 24.198793
698 1 8.097032 22.191568 26.712806
699 1 10.254510 20.168764 26.440933
700 1 10.356052 22.404805 24.400478
701 1 8.001347 20.216421 28.690731
702 1 7.956571 22.307893 30.537136
703 1 10.137005 20.369787 30.299674
704 1 9.988364 22.494050 28.481709
705 1 8.229999 24.596751 32.438093
706 1 8.249570 26.449243 2.003159
707 1 9.978267 24.041900 1.960883
708 1 10.249147 26.439411 32.508362
709 1 8.223185 24.351154 4.333897
710 1 7.789341 26.534509 6.310099
711 1 9.969585 23.929659 6.285574
712 1 9.799918 26.478307 4.225898
713 1 8.025069 24.177482 8.192786
714 1 8.377669 26.131291 9.981403
715 1 10.284342 24.170968 10.177116
716 1 10.210974 26.468241 7.970869
717 1 8.359923 24.446440 12.243425
718 1 8.392841 26.439666 14.191872
719 1 10.454093 24.403005 14.249976
720 1 10.367162 26.358431 11.901885
721 1 8.479257 24.391557 16.432942
722 1 8.007303 26.622831 18.310209
723 1 10.250245 24.663566 18.279977
724 1 9.894724 26.705544 16.314418
725 1 8.085776 24.477002 20.278392
726 1 7.994674 26.484607 22.170290
727 1 10.429222 24.412928 22.297413
728 1 10.377363 26.520212 20.454198
729 1 8.077858 24.290633 23.740224
730 1 8.158156 26.689704 26.552800
731 1 9.758140 24.417559 26.102706
732 1 10.120458 26.435463 24.432503
733 1 8.057800 24.369725 28.721639
734 1 7.995881 26.356340 30.452639
735 1 10.345760 24.117787 30.769585
736 1 10.236490 26.243360 28.839803
737 1 7.874539 28.539242 32.247957
738 1 8.100073 30.520168 2.031176
739 1 9.814647 28.758620 1.997962
740 1 9.918036 30.625889 32.365947
741 1 8.154544 28.741113 4.249580
742 1 8.054399 30.563762 6.040304
743 1 10.054727 28.670867 6.334001
744 1 10.376838 30.539193 3.985489
745 1 8.075785 28.227560 8.241993
746 1 8.118466 30.550509 10.122674
747 1 10.060998 28.406933 10.028233
748 1 10.117160 30.316851 8.348296
749 1 8.345641 28.134790 12.073612
750 1 8.070795 30.664534 14.218175
751 1 10.200868 28.481456 14.059173
752 1 9.860948 30.364525 12.317400
753 1 8.210825 28.779083 16.007500
754 1 7.846736 30.860108 18.193792
755 1 9.947002 28.399943 18.397668
756 1 10.440636 30.147432 16.105885
757 1 8.030124 28.360550 20.223390
758 1 7.967717 30.123936 22.316706
759 1 9.870492 28.257632 22.502169
760 1 10.062081 30.417723 20.140874
761 1 7.895830 28.297345 24.523904
762 1 8.120814 30.167073 26.658698
763 1 10.197780 28.452896 26.333742
764 1 9.820470 30.760097 24.642718
765 1 8.366211 28.354211 28.677322
766 1 7.918717 30.551064 30.601654
767 1 10.513267 28.425238 30.960841
768 1 10.183426 30.437440 28.321383
769 1 12.098354 0.117719 0.201249
770 1 12.325087 2.004093 2.218362
771 1 14.321904 32.392580 2.004602
772 1 14.035297 1.879473 0.105700
773 1 12.302543 0.140298 3.999852
774 1 12.127879 1.900829 6.333958
775 1 14.108439 32.319744 6.180638
776 1 14.113945 2.047389 4.233688
777 1 11.951523 32.435580 8.064633
778 1 12.411648 2.062705 10.245460
779 1 14.599483 32.497782 10.168536
780 1 14.285156 1.955240 8.268599
781 1 11.997071 32.411467 12.178701
782 1 12.177955 1.954340 14.090515
783 1 14.512195 32.313613 13.897594
784 1 14.380103 2.069152 12.070186
785 1 12.259957 32.494741 15.987239
786 1 12.654059 2.133972 18.104242
787 1 14.195501 32.318796 18.336243
788 1 14.347796 2.027139 15.944856
789 1 12.178803 0.166018 19.983195
790 1 12.076590 2.339829 22.101437
791 1 14.130305 0.107337 22.021219
792 1 14.201567 2.333380 20.387175
793 1 12.159710 32.507373 24.453443
794 1 12.521294 1.821319 26.284156
795 1 14.278874 32.314736 26.400377
796 1 14.008060 2.049946 23.990151
797 1 12.541955 0.008828 28.518511
798 1 12.032986 2.222736 30.343813
799 1 14.531926 32.443421 30.384679
800 1 14.556082 2.060689 28.462591
801 1 12.484267 4.020146 0.064177
802 1 12.110769 5.943767 1.896121
803 1 14.298372 3.956354 1.921767
804 1 14.181977 5.929591 0.005259
805 1 12.179319 4.010249 4.291919
806 1 11.930454 5.986799 5.927749
807 1 14.157983 3.770006 6.241374
808 1 14.041222 5.789533 3.795013
809 1 12.192541 3.749202 8.138692
810 1 11.833541 6.060279 9.705691
811 1 14.209881 4.186138 10.204838
812 1 13.842646 6.263235 8.209983
813 1 12.312245 4.150937 12.253823
814 1 12.146367 5.824937 14.243203
815 1 14.805192 4.055647 14.341112
816 1 14.254874 5.829898 12.113543
817 1 12.209939 3.937714 16.340873
818 1 12.198896 6.612049 18.336449
819 1 14.501449 3.937388 17.996519
820 1 14.300348 6.001828 16.212560
821 1 11.717398 4.063470 20.057063
822 1 12.452208 6.188489 22.391520
823 1 14.216145 4.177747 22.342690
824 1 14.118711 5.957700 19.974485
825 1 12.358855 4.007867 24.256397
826 1 12.342331 5.903697 26.210866
827 1 14.459117 4.371078 26.765852
828 1 14.462448 5.887680 24.325912
829 1 12.168896 3.720261 28.169531
830 1 12.212610 5.857887 30.350427
831 1 14.435291 3.902451 30.628452
832 1 14.789607 6.122928 28.862526
833 1 12.169031 7.934090 32.414036
834 1 12.166873 9.907058 1.672917
835 1 13.918352 8.039150 2.003877
836 1 14.330327 10.014202 0.238626
837 1 11.802104 7.807735 4.057887
838 1 11.931737 9.933635 6.074222
839 1 13.639416 7.961146 5.961476
840 1 14.025778 9.757307 3.821333
841 1 11.732099 8.202158 8.133600
842 1 11.958184 10.081462 10.635252
843 1 13.931622 7.944749 10.395812
844 1 14.265627 9.503464 8.254684
845 1 11.963418 7.943699 12.538933
846 1 12.187909 10.035329 14.061415
847 1 14.085234 8.025182 14.069339
848 1 14.393641 10.117806 12.229862
849 1 12.413009 8.194940 16.068430
850 1 12.456988 10.126251 18.717937
851 1 14.762227 8.039440 18.445593
852 1 14.326958 9.893447 16.273890
853 1 12.474496 8.106549 20.570159
854 1 12.588568 10.120730 22.669757
855 1 14.498787 8.195157 22.232021
856 1 14.354993 10.196955 20.346968
857 1 12.721489 8.022719 24.621498
858 1 12.211897 10.434111 26.405712
859 1 14.037287 8.149773 26.934255
860 1 14.612367 10.121528 24.363742
861 1 11.744989 8.224811 28.540356
862 1 12.297246 10.215985 30.564653
863 1 14.343696 8.012100 30.706447
864 1 13.970959 10.115636 28.596208
865 1 12.358161 12.425806 0.288036
866 1 12.428387 14.132376 2.144014
867 1 14.497989 11.823139 2.130151
868 1 14.515329 14.307430 0.286487
869 1 12.253506 11.947905 3.929987
870 1 12.175929 13.791359 5.957638
871 1 13.979878 11.731004 6.466810
872 1 14.137768 13.955237 4.463906
873 1 12.136849 11.751683 8.399829
874 1 12.274129 14.119557 10.105328
875 1 14.205055 12.083672 10.187568
876 1 14.195586 14.209508 7.940835
877 1 12.123039 12.206558 12.016181
878 1 12.453532 14.173877 14.161049
879 1 14.288826 12.112698 14.425702
880 1 14.260167 14.145653 12.339829
881 1 12.182122 11.988369 16.270604
882 1 12.029164 14.142057 18.273149
883 1 14.164296 12.235352 18.457727
884 1 14.603099 14.347026 16.440456
885 1 12.489623 12.036593 20.491827
886 1 12.094194 14.321219 22.241460
887 1 14.564670 12.272778 22.591992
888 1 14.323438 14.174610 20.354090
889 1 12.394754 12.610847 24.319607
890 1 12.285595 14.304016 26.814668
891 1 14.303989 12.404476 26.635439
892 1 13.993359 14.644311 24.521482
893 1 12.190624 12.067151 28.651104
894 1 12.276293 14.351418 30.590037
895 1 14.124065 12.139491 30.773846
896 1 14.232929 14.380567 28.222911
897 1 12.057049 16.328515 0.141954
898 1 12.269218 18.098356 2.531582
899 1 14.457185 16.355211 1.872688
900 1 14.205792 18.133034 32.312087
901 1 12.574333 16.108398 4.229730
902 1 12.291402 18.215053 5.985351
903 1 14.367138 16.231298 6.154877
904 1 14.532515 18.050801 3.998682
905 1 12.246882 16.284786 7.817816
906 1 11.990262 17.866019 10.277367
907 1 14.317598 15.908211 10.081830
908 1 14.330765 18.067468 8.214228
909 1 12.361071 16.070135 11.978297
910 1 12.154978 18.235710 14.257921
911 1 14.010492 16.363413 14.220127
912 1 14.290479 18.028645 11.879685
913 1 12.356088 16.261857 16.321846
914 1 12.494822 18.556339 18.398194
915 1 14.304313 16.567065 18.422715
916 1 14.437272 18.409470 16.086921
917 1 12.303089 16.281606 20.256456
918 1 12.103969 18.067650 22.557335
919 1 14.340126 16.136645 22.435403
920 1 14.062068 18.495656 20.901772
921 1 11.944015 16.272123 24.691117
922 1 11.910258 18.188381 26.657888
923 1 14.311838 16.335516 26.637943
924 1 14.368636 17.735255 24.530328
925 1 12.102538 16.294139 28.875448
926 1 12.306729 18.276944 30.763407
927 1 14.330647 16.109369 30.444031
928 1 14.294019 18.230820 28.589974
929 1 12.115820 20.137827 0.356983
930 1 12.383231 22.217562 2.216795
931 1 14.280687 20.246437 2.198076
932 1 14.303485 22.185472 0.229964
933 1 12.341574 20.149676 4.498464
934 1 12.031926 22.242475 6.001203
935 1 14.233107 19.903148 6.366415
936 1 14.382155 22.179641 4.267456
937 1 12.208695 20.309467 8.130504
938 1 12.153961 22.246630 10.346561
939 1 14.037055 20.273645 10.329425
940 1 14.121644 22.268180 8.013015
941 1 12.251143 20.428032 12.502605
942 1 12.466049 22.888179 14.367612
943 1 14.472892 20.353521 14.030174
944 1 14.223913 22.393448 12.212377
945 1 12.397386 20.354405 15.958594
946 1 12.255051 22.454896 18.157503
947 1 14.366799 20.496208 18.283975
948 1 14.237420 22.255168 16.296640
949 1 12.293173 20.551509 20.675560
950 1 12.355548 22.459371 22.554933
951 1 14.257187 20.681959 22.758892
952 1 13.891374 22.305170 20.286416
953 1 12.166238 20.005423 24.525394
954 1 12.187029 22.484026 26.517133
955 1 14.158752 19.999061 26.393563
956 1 14.547344 22.456003 24.915881
957 1 12.182345 20.172243 28.452044
958 1 12.232908 22.270151 30.658017
959 1 14.068446 20.330994 30.580919
960 1 14.153995 22.310961 28.347669
961 1 12.419524 24.255674 0.197296
962 1 12.135406 26.360545 2.233268
963 1 14.326286 24.372881 2.259768
964 1 14.185519 26.515862 0.147883
965 1 11.619380 24.224761 4.146675
966 1 11.881624 26.269259 5.913199
967 1 13.868126 24.307840 5.907279
968 1 14.106744 26.397951 4.225281
969 1 12.136616 24.134442 7.950880
970 1 12.265456 26.388520 10.043214
971 1 14.018684 24.393216 9.946220
972 1 14.146042 26.337528 7.854052
973 1 12.294858 24.356798 11.967292
974 1 12.020902 26.502726 14.116568
975 1 14.126433 24.601945 14.124401
976 1 14.015381 26.744208 11.896107
977 1 12.329488 24.355665 16.370121
978 1 12.130942 26.595728 18.240774
979 1 14.372451 24.254135 18.266267
980 1 14.451809 26.304524 16.591697
981 1 12.347471 24.479088 20.216982
982 1 12.177777 26.294999 22.743310
983 1 14.369916 24.441950 22.503320
984 1 14.093511 26.363160 20.386888
985 1 12.498655 24.532687 24.687110
986 1 12.103448 26.592874 26.498767
987 1 14.252306 24.519893 26.471281
988 1 14.293765 26.489481 24.279700
989 1 12.270235 24.242601 28.715377
990 1 12.492353 26.126747 30.791384
991 1 14.427398 24.027317 30.596241
992 1 14.037974 26.401834 28.497007
993 1 12.310033 28.487610 0.445941
994 1 12.266255 30.749265 1.755980
995 1 14.564946 28.593549 2.281149
996 1 14.544030 30.631388 32.451780
997 1 12.248813 28.475748 4.314411
998 1 12.157539 30.452178 6.069155
999 1 14.147746 28.285404 6.388580
1000 1 14.331461 30.642086 4.056943
1001 1 11.928800 28.432086 8.177832
1002 1 11.695578 30.688727 10.376337
1003 1 14.396572 28.508903 10.143343
1004 1 14.052223 30.514114 8.308988
1005 1 12.008005 28.377218 12.233786
1006 1 12.470146 30.512712 14.192119
1007 1 14.301716 28.352903 14.335192
1008 1 14.152978 30.246410 11.974532
1009 1 12.417480 28.444550 16.387999
1010 1 12.075985 30.526760 18.208921
1011 1 14.155786 28.432474 18.350900
1012 1 14.336020 30.387758 16.125189
1013 1 12.218258 28.536148 20.200484
1014 1 11.653770 30.535618 22.344773
1015 1 14.108143 28.156135 22.366323
1016 1 14.184298 30.534781 20.428108
1017 1 12.296664 28.624581 24.280613
1018 1 12.348912 30.393067 26.364770
1019 1 14.297753 28.331093 26.562027
1020 1 14.234044 30.444921 24.613468
1021 1 12.019818 28.493981 28.664306
1022 1 12.032050 30.726794 30.534607
1023 1 14.268777 28.584554 30.831822
1024 1 14.267437 30.338116 28.600540
1025 1 16.428602 0.271546 32.452485
1026 1 16.142695 2.062518 2.231546
1027 1 18.476437 0.144068 2.317881
1028 1 18.572558 2.032527 0.254831
1029 1 16.540551 32.486390 4.303687
1030 1 16.315618 2.204124 6.095132
1031 1 18.371563 0.214329 6.229016
1032 1 18.408135 2.014767 4.060154
1033 1 16.286834 0.036364 8.054228
1034 1 16.656272 2.090416 10.254219
1035 1 18.407604 0.127265 9.849342
1036 1 18.439865 2.317854 7.761713
1037 1 16.411499 32.463240 12.449089
1038 1 16.444685 1.875325 14.335842
1039 1 18.425537 32.482440 14.428599
1040 1 18.567935 1.980462 12.088692
1041 1 16.116737 32.479315 16.692633
1042 1 16.163500 2.023523 18.138263
1043 1 18.854084 32.467945 18.281275
1044 1 18.323919 2.050923 16.344682
1045 1 16.377192 32.324076 20.341874
1046 1 16.098968 2.019473 22.311397
1047 1 18.042509 0.043815 22.354739
1048 1 18.275769 1.895618 20.328215
1049 1 16.151912 32.323829 24.074008
1050 1 16.137236 1.877607 26.148719
1051 1 18.344230 0.023753 25.969454
1052 1 18.187603 2.084794 24.145751
1053 1 16.235490 0.215186 28.289996
1054 1 16.350070 2.078762 30.561291
1055 1 18.159692 0.229925 30.585729
1056 1 17.961063 1.956461 28.059284
1057 1 16.478608 3.858947 0.380628
1058 1 16.240591 6.064179 1.951896
1059 1 18.254587 3.867276 2.082979
1060 1 18.323087 6.205533 0.014376
1061 1 16.263880 3.942100 3.855445
1062 1 15.784885 5.948311 5.830229
1063 1 18.067820 4.071938 5.990036
1064 1 18.154219 5.859540 3.775693
1065 1 16.346528 4.292928 8.377538
1066 1 16.233051 6.180620 10.083359
1067 1 18.432410 4.048905 10.231907
1068 1 18.466986 6.185211 8.157588
1069 1 16.420304 4.230144 12.131894
1070 1 16.191586 6.341922 14.379285
1071 1 18.346261 4.024881 14.300497
1072 1 18.374382 6.151494 12.362565
1073 1 16.465816 4.164886 16.329231
1074 1 16.613517 6.113138 18.117527
1075 1 18.330769 3.892424 18.274873
1076 1 18.440557 6.261361 16.002452
1077 1 16.256265 4.048107 20.186041
1078 1 15.986786 6.069215 22.026738
1079 1 18.041172 3.794206 22.000676
1080 1 18.286134 5.818227 20.450187
1081 1 16.117931 3.990671 24.392522
1082 1 16.540986 6.122855 26.480511
1083 1 18.095256 4.244368 26.324574
1084 1 18.094864 5.901752 24.549571
1085 1 16.664497 4.260908 28.717711
1086 1 16.450772 6.167756 30.842333
1087 1 18.458996 4.108659 30.552611
1088 1 18.702606 6.473809 28.513208
1089 1 16.422659 8.196868 0.061912
1090 1 16.377169 9.839295 2.107364
1091 1 18.326538 7.878424 2.049751
1092 1 18.622620 10.062430 0.199103
1093 1 16.019967 8.000817 4.059141
1094 1 16.430473 9.873353 6.274932
1095 1 18.171702 7.961376 5.843698
1096 1 18.318746 10.150206 3.835428
1097 1 16.157530 7.903118 7.931155
1098 1 16.199822 10.132840 9.904696
1099 1 18.203689 8.057523 10.174223
1100 1 18.279923 10.033782 7.989675
1101 1 16.169524 8.057429 11.959332
1102 1 16.075543 10.215770 14.050957
1103 1 17.939649 8.316368 14.090022
1104 1 18.231302 10.251126 12.142471
1105 1 16.450813 8.245029 16.237966
1106 1 16.864784 10.383112 18.629040
1107 1 18.349745 8.042686 18.067101
1108 1 18.164168 10.219336 16.161608
1109 1 16.636026 7.903008 20.324151
1110 1 16.565978 10.202280 22.312357
1111 1 18.214530 8.242035 22.445050
1112 1 18.466406 10.163634 20.554876
1113 1 16.306975 7.914173 24.682013
1114 1 16.324626 10.254029 26.359318
1115 1 18.501853 8.313565 26.447549
1116 1 18.343781 10.201148 24.392743
1117 1 16.215271 8.183592 28.486503
1118 1 16.096899 9.902333 30.614470
1119 1 18.543094 8.261327 30.544591
1120 1 18.125457 10.168182 28.635555
1121 1 16.219703 12.140099 0.124556
1122 1 16.338142 13.935450 2.221980
1123 1 18.484727 12.171095 2.127262
1124 1 18.260823 14.269155 0.202725
1125 1 16.294403 11.988956 4.111360
1126 1 16.333844 14.139609 5.906560
1127 1 18.237336 12.306608 6.056198
1128 1 18.428151 14.141438 4.035267
1129 1 16.040759 12.233639 7.959705
1130 1 16.393155 13.858984 10.125274
1131 1 18.353863 12.109622 9.643778
1132 1 18.287443 14.046480 8.009667
1133 1 16.147991 12.164219 12.429165
1134 1 16.410850 14.274854 14.263968
1135 1 18.214975 12.261183 14.249487
1136 1 18.062482 14.054884 11.940426
1137 1 16.136828 12.084456 16.408732
1138 1 16.314879 14.192813 18.445737
1139 1 18.343175 12.546580 18.223411
1140 1 18.290995 14.347203 16.224869
1141 1 16.247521 12.273756 20.352028
1142 1 16.302574 14.263086 22.484180
1143 1 18.449688 12.168519 22.376565
1144 1 18.152205 14.003554 20.408829
1145 1 16.693140 12.317048 24.290086
1146 1 16.426882 14.366919 26.370180
1147 1 18.599156 11.980878 26.537450
1148 1 18.836945 14.067570 24.592906
1149 1 16.223836 12.287656 28.193528
1150 1 16.196264 13.976805 30.535934
1151 1 18.375857 12.076712 30.816031
1152 1 18.260869 14.358143 28.431621
1153 1 16.278993 16.277373 32.284390
1154 1 16.342996 18.170143 1.919366
1155 1 18.430788 16.142082 1.895240
1156 1 18.599970 18.051246 32.227820
1157 1 16.224191 15.917943 4.063333
1158 1 16.318477 18.115311 6.024170
1159 1 18.028851 16.308050 6.111378
1160 1 18.385645 18.057206 4.096661
1161 1 16.581929 16.143745 8.123364
1162 1 16.284667 18.127144 9.840313
1163 1 18.266263 15.937229 10.202311
1164 1 18.401384 18.232671 8.219185
1165 1 16.255995 16.286528 12.127314
1166 1 16.499961 18.499393 14.043953
1167 1 18.520375 16.093187 14.068447
1168 1 18.311310 18.255844 12.104120
1169 1 16.072951 16.548470 15.881552
1170 1 16.189903 18.518883 18.522645
1171 1 18.030944 16.476799 17.807418
1172 1 18.281761 18.467357 16.400110
1173 1 16.286079 16.336663 20.384907
1174 1 16.542368 18.323139 22.778117
1175 1 18.426321 15.952944 22.568406
1176 1 18.365068 18.224640 20.307429
1177 1 16.478522 16.216097 24.463412
1178 1 16.303220 18.366569 26.317567
1179 1 18.444858 16.517610 26.702651
1180 1 18.463936 18.233630 24.729054
1181 1 16.400470 16.414558 28.426313
1182 1 15.958698 18.265034 30.555111
1183 1 18.258257 15.949383 30.432437
1184 1 18.411084 18.467512 28.790641
1185 1 16.145792 20.031704 32.370221
1186 1 16.236080 22.075156 2.020184
1187 1 18.408015 20.081181 2.147468
1188 1 18.249207 22.127983 0.400750
1189 1 16.510928 20.264112 4.049132
1190 1 16.515093 22.716109 6.209284
1191 1 18.024345 20.238560 6.081520
1192 1 18.136053 22.541892 4.201752
1193 1 16.159171 20.445715 8.060124
1194 1 16.027420 22.104852 10.111114
1195 1 18.216197 20.148954 9.925325
1196 1 18.423453 22.232364 8.097271
1197 1 16.133578 20.014688 11.940285
1198 1 16.164498 22.471098 14.214878
1199 1 18.434901 20.289021 14.162825
1200 1 18.370403 22.332619 12.169448
1201 1 16.479405 20.289472 16.222615
1202 1 16.231361 22.348822 18.319959
1203 1 18.325029 20.472003 18.299150
1204 1 18.233176 22.474736 16.128847
1205 1 16.063464 20.632114 20.626234
1206 1 16.270968 22.540626 22.781586
1207 1 18.147476 20.420798 22.381302
1208 1 18.423206 22.588576 20.307000
1209 1 16.531705 20.424192 24.806726
1210 1 16.686672 22.404931 26.638836
1211 1 18.348493 20.356877 26.771455
1212 1 18.384098 22.509473 24.346654
1213 1 16.122347 20.376464 28.341278
1214 1 16.234251 22.210903 30.085632
1215 1 18.288627 20.328944 30.454897
1216 1 18.561199 22.316472 28.504305
1217 1 16.266671 23.911818 0.100366
1218 1 16.354640 26.489381 2.150915
1219 1 18.147502 24.434266 1.980410
1220 1 18.210238 26.244095 0.018078
1221 1 16.174553 24.319347 4.059552
1222 1 16.371331 26.312110 6.086406
1223 1 18.367267 24.356379 6.347282
1224 1 18.226353 26.314705 4.370852
1225 1 16.141597 24.331070 8.258004
1226 1 16.284055 26.326776 9.938243
1227 1 18.218129 24.079365 10.268504
1228 1 18.279422 26.327418 8.412558
1229 1 15.787953 24.492222 11.754769
1230 1 16.134520 26.116699 14.110472
1231 1 18.459711 24.124702 14.267955
1232 1 18.174620 26.064485 12.197681
1233 1 16.036398 24.304932 16.192810
1234 1 16.397086 26.424906 18.478950
1235 1 18.362499 24.165481 18.332549
1236 1 18.277541 26.016292 16.323499
1237 1 16.368732 24.025590 20.334183
1238 1 16.163753 26.237548 22.220026
1239 1 18.101569 24.501103 22.649584
1240 1 18.197173 25.979651 20.559336
1241 1 16.332521 24.610558 24.544756
1242 1 16.366255 26.410437 26.532790
1243 1 18.562560 24.352180 26.220928
1244 1 18.611068 26.627603 24.375203
1245 1 16.342592 24.403957 28.385199
1246 1 16.243923 26.453061 30.948421
1247 1 18.115378 24.371650 30.523720
1248 1 18.325356 26.220572 28.512048
1249 1 16.312289 28.402673 0.090150
1250 1 16.520134 30.849704 2.134302
1251 1 18.535893 28.624429 2.169172
1252 1 18.317002 30.526455 0.322087
1253 1 16.161548 28.391936 4.211827
1254 1 16.144786 30.483432 6.232497
1255 1 17.957967 28.628284 6.090478
1256 1 18.155813 30.397544 4.117664
1257 1 16.380340 28.465951 8.359161
1258 1 16.454944 30.315080 10.392770
1259 1 18.318106 28.540739 9.879809
1260 1 18.574331 30.591356 7.900744
1261 1 16.459052 28.169700 12.313657
1262 1 16.580310 30.274764 14.437277
1263 1 18.262258 28.376464 14.421432
1264 1 18.209455 30.658433 12.143302
1265 1 16.213931 28.266924 16.433542
1266 1 16.398868 30.387869 18.292839
1267 1 18.313829 28.371783 18.522354
1268 1 18.177936 30.331114 16.530997
1269 1 16.223881 28.223420 20.393236
1270 1 15.967759 30.096968 22.383502
1271 1 18.048676 28.552141 22.490544
1272 1 18.248979 30.431691 20.190277
1273 1 16.208082 28.153360 24.437380
1274 1 16.218980 30.491010 26.505415
1275 1 18.071144 28.605527 26.308263
1276 1 18.097136 30.613283 24.300116
1277 1 16.331376 28.200735 28.717656
1278 1 16.531193 30.426721 30.716823
1279 1 18.227290 28.482615 30.828584
1280 1 18.217595 30.391505 28.536804
1281 1 20.435682 32.264507 0.169587
1282 1 20.490698 1.679160 2.088533
1283 1 22.555619 32.273771 2.158269
1284 1 22.304581 1.642185 0.135348
1285 1 20.473757 0.105309 4.375873
1286 1 20.346937 2.168045 6.218305
1287 1 22.402937 32.409894 6.318363
1288 1 22.588756 1.939302 3.971410
1289 1 20.319357 0.081152 8.088768
1290 1 20.481921 2.210355 9.724245
1291 1 22.245561 0.003332 10.098686
1292 1 22.511269 2.283166 8.188853
1293 1 20.020088 32.355884 12.169136
1294 1 20.385231 2.085530 14.730069
1295 1 22.251223 0.185457 14.272033
1296 1 22.094997 2.233286 12.026314
1297 1 20.496762 32.398446 16.327834
1298 1 20.219440 2.159748 18.382842
1299 1 22.348257 32.523709 18.252107
1300 1 22.603205 1.993923 16.488961
1301 1 20.339971 32.305035 20.476320
1302 1 20.156665 1.988606 22.156829
1303 1 22.476336 32.437576 22.349022
1304 1 22.028070 2.278830 20.393644
1305 1 20.258632 0.125487 23.974421
1306 1 20.065288 2.372259 26.674192
1307 1 22.056772 0.178032 26.278243
1308 1 22.088349 2.057192 24.456526
1309 1 20.214202 32.416259 28.571763
1310 1 20.380393 1.689012 30.545033
1311 1 22.321275 32.520313 30.681452
1312 1 22.175312 1.911933 28.481438
1313 1 19.984866 4.059534 0.073797
1314 1 20.158756 6.167383 2.066709
1315 1 22.119821 3.719423 1.961184
1316 1 22.370697 5.815719 0.350596
1317 1 20.188917 4.096067 3.854257
1318 1 20.812166 6.029307 5.683999
1319 1 22.392869 3.956533 6.290078
1320 1 22.473345 6.212391 3.472915
1321 1 20.380143 4.321345 8.186289
1322 1 20.205035 6.064638 10.262210
1323 1 22.341875 4.221455 10.193476
1324 1 22.475632 5.958669 7.948968
1325 1 20.396209 4.094489 12.415789
1326 1 20.367831 6.215502 14.286732
1327 1 22.680609 4.206580 14.271590
1328 1 22.322955 5.998089 12.272766
1329 1 20.332406 4.182672 16.336927
1330 1 20.015891 6.092121 18.330197
1331 1 22.268841 4.079417 18.184988
1332 1 21.964883 5.978919 16.375213
1333 1 20.177636 3.981817 20.297923
1334 1 20.270531 6.375188 22.526809
1335 1 22.341545 4.202349 22.177002
1336 1 21.814321 5.952370 20.387315
1337 1 20.066620 3.925642 24.131803
1338 1 20.422712 6.285281 26.362903
1339 1 22.190500 4.239101 26.433697
1340 1 22.266908 6.295290 24.364266
1341 1 20.231955 4.322792 28.579155
1342 1 20.504338 6.114922 30.515766
1343 1 22.282940 3.965321 30.553902
1344 1 22.536860 6.372418 28.231376
1345 1 20.399473 7.874084 0.057208
1346 1 20.652157 10.028794 1.890609
1347 1 22.641987 8.182976 1.701491
1348 1 22.379629 10.213073 0.014657
1349 1 20.485379 7.998603 3.829454
1350 1 20.293340 9.838133 5.879374
1351 1 22.575079 8.187740 5.914629
1352 1 22.507990 9.839611 3.991077
1353 1 20.619966 7.992570 7.909491
1354 1 20.300012 10.223126 9.976684
1355 1 22.141671 8.094193 10.262664
1356 1 22.296064 9.999323 7.998917
1357 1 20.310070 8.218253 12.166249
1358 1 20.257450 10.203634 14.017699
1359 1 22.318204 8.256270 13.952448
1360 1 22.535544 10.469562 12.189384
1361 1 20.011686 8.423493 15.875232
1362 1 20.013894 10.341514 18.016340
1363 1 22.127572 8.189916 18.099972
1364 1 22.267722 10.095125 16.142860
1365 1 20.156763 8.151645 20.525644
1366 1 20.617452 10.467943 22.407127
1367 1 22.572207 8.253103 22.243313
1368 1 22.166566 10.388481 20.254778
1369 1 20.377558 8.145351 24.410982
1370 1 20.586637 10.149508 26.634351
1371 1 22.433758 8.215525 26.412006
1372 1 22.624189 10.049418 24.618777
1373 1 20.450628 8.489087 28.418102
1374 1 20.242964 10.315273 30.540506
1375 1 22.475198 8.318273 30.381432
1376 1 22.367602 10.186479 28.602372
1377 1 20.504355 12.188506 0.181195
1378 1 20.227763 14.424427 2.001963
1379 1 22.400643 12.301163 2.025668
1380 1 22.521866 14.187148 32.517606
1381 1 20.568110 12.188102 4.047607
1382 1 20.365305 14.277752 5.978381
1383 1 22.237530 12.208612 5.978516
1384 1 22.268400 14.189459 3.724357
1385 1 20.508333 12.299853 7.999627
1386 1 20.561515 14.247062 10.136662
1387 1 22.147229 12.002958 10.041936
1388 1 22.395077 14.001977 8.373211
1389 1 20.079120 12.313694 12.072227
1390 1 20.301123 14.317654 13.874486
1391 1 22.690201 12.156761 13.877238
1392 1 22.308098 14.440359 11.897010
1393 1 20.464789 12.357882 16.011355
1394 1 20.019299 14.406040 18.462931
1395 1 22.216663 12.823064 18.152218
1396 1 21.878615 14.348160 15.857006
1397 1 20.387762 12.570637 20.074979
1398 1 20.555978 14.310590 22.580463
1399 1 22.375788 12.360540 22.345869
1400 1 22.317246 14.503412 20.495488
1401 1 20.600482 12.210907 24.659869
1402 1 20.657977 14.221334 26.735301
1403 1 22.559103 11.897979 26.428004
1404 1 22.650081 14.109158 24.761451
1405 1 20.374158 12.174471 28.602067
1406 1 20.361347 14.115542 30.627642
1407 1 22.726741 12.120802 30.218840
1408 1 22.492136 14.210541 28.632321
1409 1 20.187633 16.133371 32.252767
1410 1 20.232386 18.008603 1.840005
1411 1 22.218509 16.175773 1.802437
1412 1 22.138805 18.067029 32.498539
1413 1 20.291907 16.267048 3.993904
1414 1 20.241241 18.296976 6.176329
1415 1 22.192569 16.363673 6.143353
1416 1 22.262743 18.110835 3.689413
1417 1 20.436121 16.221217 8.142844
1418 1 20.245981 18.241465 9.926840
1419 1 22.595483 16.299792 10.044477
1420 1 22.432186 18.538441 8.393469
1421 1 20.253671 16.163663 11.862644
1422 1 20.548744 18.552724 14.161492
1423 1 22.195199 16.271294 14.111129
1424 1 22.137383 18.177147 12.038379
1425 1 20.377643 16.696998 16.071276
1426 1 20.205120 18.559893 18.250986
1427 1 21.865872 16.133354 18.170104
1428 1 22.528505 18.316327 16.404525
1429 1 20.122714 16.228894 20.472562
1430 1 20.189006 18.626814 22.415013
1431 1 22.469182 16.275204 22.734243
1432 1 22.126837 18.135570 20.207929
1433 1 20.413768 16.391030 24.588779
1434 1 20.420706 18.520906 26.628817
1435 1 22.415252 16.378883 26.557449
1436 1 22.105991 18.666840 24.761858
1437 1 20.494032 16.352872 28.842631
1438 1 20.403719 18.347361 30.466514
1439 1 22.504320 16.267264 30.691678
1440 1 22.637419 18.222239 28.762907
1441 1 20.390673 20.226175 32.308790
1442 1 20.519010 22.198386 2.371510
1443 1 22.146318 20.158879 2.002755
1444 1 22.259796 22.154713 0.059841
1445 1 20.198504 20.258238 4.298093
1446 1 20.305931 22.230946 6.216950
1447 1 22.545340 20.246909 5.790643
1448 1 22.650647 22.395118 3.960357
1449 1 20.325860 20.268848 8.108694
1450 1 20.371567 22.327241 10.244428
1451 1 22.209399 20.454086 10.132886
1452 1 22.285823 21.995307 8.019979
1453 1 20.335026 20.193845 11.968015
1454 1 20.399426 21.956110 14.429457
1455 1 22.592401 20.107784 14.433866
1456 1 22.218492 22.551812 12.190743
1457 1 20.435068 20.436040 16.534600
1458 1 20.402364 22.114607 18.461273
1459 1 22.550607 20.130387 18.575991
1460 1 22.445125 22.121670 16.348562
1461 1 20.355515 20.400244 20.428054
1462 1 20.288551 22.345940 22.357947
1463 1 22.169061 20.439664 22.683480
1464 1 22.335346 22.264927 20.528241
1465 1 19.966759 20.461724 24.608531
1466 1 20.427984 22.258385 26.641475
1467 1 22.709914 20.425671 26.891210
1468 1 22.274267 22.015589 24.721686
1469 1 20.651407 20.290949 28.531882
1470 1 20.385046 22.575629 30.626663
1471 1 22.318079 20.537197 30.483499
1472 1 22.514095 22.666883 28.897366
1473 1 20.176119 24.527276 32.502526
1474 1 20.262405 26.241655 1.943839
1475 1 22.390475 24.152355 1.963734
1476 1 22.234589 26.236356 32.496289
1477 1 20.013263 24.138844 4.007712
1478 1 20.434438 26.458138 5.916647
1479 1 22.346260 24.108626 5.951278
1480 1 22.358246 26.178199 3.924634
1481 1 20.242658 24.160996 8.171231
1482 1 20.441943 26.657861 10.078475
1483 1 22.290223 24.626070 10.142237
1484 1 22.285182 26.379577 7.915149
1485 1 20.129855 24.324423 12.057156
1486 1 20.415290 26.438533 14.081128
1487 1 21.807661 24.355302 14.103831
1488 1 22.230219 26.833640 11.830474
1489 1 20.259283 24.273792 16.389494
1490 1 20.304554 26.224166 18.340560
1491 1 22.281342 24.033029 18.470591
1492 1 22.213231 25.952529 16.372350
1493 1 20.354598 24.471401 20.329747
1494 1 20.243766 26.712023 22.184253
1495 1 22.211339 24.437097 22.368041
1496 1 22.445474 26.439004 20.433564
1497 1 20.559682 24.526274 24.331544
1498 1 20.338480 26.705644 26.334394
1499 1 22.238632 24.361120 26.694792
1500 1 22.075885 26.391449 24.241394
1501 1 20.438426 24.337081 28.827602
1502 1 20.109184 26.731010 30.658803
1503 1 22.178821 24.490016 30.757875
1504 1 22.376563 26.377515 28.717248
1505 1 20.248491 28.484696 0.167003
1506 1 20.413532 30.502337 2.241848
1507 1 22.278526 28.205811 2.063674
1508 1 22.521854 30.328129 0.138044
1509 1 20.219150 28.273715 4.082341
1510 1 20.343526 30.598682 6.037596
1511 1 22.270877 28.351073 6.124430
1512 1 22.362279 30.281236 4.097522
1513 1 20.390486 28.597279 8.033109
1514 1 20.211320 30.640539 10.038899
1515 1 22.228934 28.563916 10.130071
1516 1 22.144453 30.565032 8.064361
1517 1 20.187881 28.480209 12.220835
1518 1 20.167921 30.742992 14.307847
1519 1 22.249216 28.628172 14.338690
1520 1 22.285048 30.690730 12.329775
1521 1 20.394033 28.565406 16.481388
1522 1 20.572409 30.567012 18.056790
1523 1 22.324275 28.244936 18.319787
1524 1 22.503500 30.651570 15.791512
1525 1 20.180490 28.441689 20.545757
1526 1 20.028043 30.780495 22.528493
1527 1 22.295184 28.593774 22.450078
1528 1 22.354054 30.625044 20.422018
1529 1 20.266421 28.633506 24.439949
1530 1 20.251675 30.581143 26.394548
1531 1 22.326353 28.307488 26.290898
1532 1 22.313468 30.732355 24.643553
1533 1 20.399638 28.450237 28.468845
1534 1 20.479053 30.361216 30.664247
1535 1 22.343927 28.399891 30.712843
1536 1 22.212545 30.582968 28.592855
1537 1 24.466240 32.101425 0.189669
1538 1 24.578287 1.802753 2.153713
1539 1 26.745231 32.122917 2.056988
1540 1 26.280649 1.979057 32.320362
1541 1 24.540183 0.029983 4.074083
1542 1 24.303560 2.080965 6.181471
1543 1 26.312144 0.041125 5.924222
1544 1 26.600731 1.820256 3.914861
1545 1 24.170805 0.164089 8.251046
1546 1 24.119983 1.852204 10.347320
1547 1 26.564221 32.489502 9.954871
1548 1 26.325549 1.855580 8.103433
1549 1 24.257471 0.189923 12.602340
1550 1 24.609275 1.961513 14.562046
1551 1 26.836403 0.271367 14.133140
1552 1 26.334553 2.275405 12.319081
1553 1 24.445175 32.527193 16.249624
1554 1 24.483987 2.099705 18.357612
1555 1 26.369533 32.531451 18.309215
1556 1 26.735419 1.941038 16.267981
1557 1 24.377968 32.520056 20.267370
1558 1 24.433858 2.084249 21.780901
1559 1 26.469206 32.535783 22.323660
1560 1 26.627239 2.112137 20.006921
1561 1 24.445525 32.529984 24.419909
1562 1 24.389609 1.862684 26.278901
1563 1 26.652339 32.514503 26.449603
1564 1 26.483709 2.070307 24.317242
1565 1 24.276225 32.480245 28.298337
1566 1 24.318041 1.515996 30.550442
1567 1 26.601863 32.364561 30.603441
1568 1 26.233975 1.609310 28.678980
1569 1 24.042402 3.592735 32.386138
1570 1 24.814866 6.420694 1.607152
1571 1 25.950591 4.058354 1.809116
1572 1 26.405394 6.110068 32.148738
1573 1 24.198929 4.115347 3.932497
1574 1 24.246693 6.322922 5.870502
1575 1 26.436347 3.860223 5.875934
1576 1 26.167715 5.835762 3.808556
1577 1 24.685955 4.108050 8.305538
1578 1 24.596149 6.208987 9.976449
1579 1 26.238116 4.114547 10.314797
1580 1 26.229480 6.242990 7.890098
1581 1 24.392906 4.157970 12.218121
1582 1 24.714738 6.191179 14.292659
1583 1 26.586784 4.054505 14.265193
1584 1 26.338820 6.536492 12.156988
1585 1 24.432859 4.281155 16.367129
1586 1 23.979239 6.258414 18.383147
1587 1 26.592118 4.124562 18.401043
1588 1 26.543542 6.068286 16.484928
1589 1 24.158964 4.254866 20.113975
1590 1 24.112826 6.222063 22.295724
1591 1 26.147988 3.915957 22.265362
1592 1 26.276735 6.313818 20.455807
1593 1 24.237374 3.929794 24.439581
1594 1 24.461194 6.329051 25.967715
1595 1 26.442265 4.467002 25.956213
1596 1 26.300977 6.172895 23.711057
1597 1 24.361839 4.354143 28.350085
1598 1 23.849748 6.123781 30.541667
1599 1 26.223489 4.059234 30.507467
1600 1 26.485613 6.297667 28.649153
1601 1 24.418998 8.330952 32.220489
1602 1 24.506487 10.108598 2.105689
1603 1 26.528551 8.331418 1.765794
1604 1 26.268885 10.190588 0.148374
1605 1 24.660771 8.014696 3.852868
1606 1 24.772477 10.247673 6.149472
1607 1 26.463204 8.399994 6.050999
1608 1 26.520631 10.348665 4.195218
1609 1 24.403018 8.138570 8.179129
1610 1 24.717267 10.190832 10.070835
1611 1 26.601110 8.334460 10.186967
1612 1 26.743009 10.282166 8.358561
1613 1 24.299085 8.466223 12.379537
1614 1 24.477354 10.239446 14.301092
1615 1 26.424517 8.250289 14.322686
1616 1 26.475380 10.082475 12.039577
1617 1 24.399801 7.883531 16.386155
1618 1 24.044827 10.458763 18.260218
1619 1 26.562560 8.145282 18.160024
1620 1 26.432846 10.302895 16.508586
1621 1 24.350254 8.347666 20.063662
1622 1 24.734983 10.283518 22.054968
1623 1 26.545430 8.415854 22.064462
1624 1 26.354605 10.480483 19.881902
1625 1 24.896323 8.437374 24.125183
1626 1 24.802622 10.201866 26.267857
1627 1 26.776288 8.099599 26.217736
1628 1 26.699930 10.492203 24.179348
1629 1 24.436752 8.226706 28.327040
1630 1 24.519412 10.084666 30.192669
1631 1 26.606381 8.241318 30.504237
1632 1 26.545661 10.207612 28.316754
1633 1 24.194698 12.144004 32.449016
1634 1 24.475459 14.254855 1.889429
1635 1 26.362727 12.335576 2.184360
1636 1 26.114324 14.256500 32.387813
1637 1 24.570871 12.559641 4.008907
1638 1 24.113536 14.237461 6.194490
1639 1 26.449927 12.291291 6.231849
1640 1 26.597510 14.616250 3.831638
1641 1 24.354768 11.885323 8.241153
1642 1 24.509957 14.138288 9.976494
1643 1 26.414048 12.543139 10.013917
1644 1 26.192683 14.450325 7.816314
1645 1 24.674164 12.216490 12.068662
1646 1 24.089373 14.286033 13.989749
1647 1 26.163921 12.268702 14.316553
1648 1 26.386495 14.285057 12.201907
1649 1 24.153323 12.067152 16.176641
1650 1 24.358197 14.615909 18.291209
1651 1 26.207758 12.461836 18.351341
1652 1 26.292701 14.188300 16.045265
1653 1 24.165051 12.262835 20.074803
1654 1 24.486173 14.209251 22.543474
1655 1 26.569822 12.351976 22.256366
1656 1 26.423835 14.175241 20.333634
1657 1 24.443313 12.094950 24.041397
1658 1 24.656781 14.303202 26.572796
1659 1 26.141634 12.162070 26.411317
1660 1 26.651933 14.109459 24.427965
1661 1 24.729156 12.267433 28.404258
1662 1 24.344092 14.250257 30.445477
1663 1 26.389732 12.194273 30.421197
1664 1 26.409283 14.374726 28.654987
1665 1 24.364296 16.283766 32.460818
1666 1 24.329172 18.469541 1.837080
1667 1 26.362978 16.373938 1.858488
1668 1 26.486579 18.295385 0.143811
1669 1 24.430188 16.033119 4.244749
1670 1 24.668692 18.358723 5.802244
1671 1 26.448116 16.249478 5.894420
1672 1 26.395998 18.132242 3.830085
1673 1 24.395227 16.515518 8.043387
1674 1 24.494647 18.248650 10.300868
1675 1 26.402909 16.054154 9.911959
1676 1 26.589988 18.388907 8.126891
1677 1 24.423814 16.403814 12.359943
1678 1 24.161520 18.257031 14.290760
1679 1 26.231984 16.331316 14.338696
1680 1 26.433760 18.573906 12.238542
1681 1 23.999079 16.012556 16.073836
1682 1 24.497190 18.280142 18.509950
1683 1 26.454409 16.261726 18.461683
1684 1 26.379402 18.147981 16.200685
1685 1 24.328070 16.101834 20.679947
1686 1 24.011066 18.195204 22.462347
1687 1 26.138664 16.512098 22.662912
1688 1 26.407165 18.428810 20.754694
1689 1 24.332987 16.305371 24.737551
1690 1 24.532166 18.414373 26.471658
1691 1 26.667840 16.353831 26.495937
1692 1 26.327618 18.409933 24.485004
1693 1 24.483648 16.277991 28.678749
1694 1 24.531210 18.589733 30.924149
1695 1 26.339236 16.451815 30.602269
1696 1 26.534104 18.445108 28.521841
1697 1 24.059987 20.388669 0.221725
1698 1 24.463726 22.258726 1.882859
1699 1 26.497801 20.415422 2.144867
1700 1 26.606784 22.679289 32.491349
1701 1 24.283117 20.153934 3.970329
1702 1 24.721593 22.413085 5.741378
1703 1 26.493631 20.184983 6.001155
1704 1 26.539775 22.447588 3.861583
1705 1 24.356927 20.324522 8.332880
1706 1 24.128490 22.367924 10.347497
1707 1 26.535691 20.081297 10.267645
1708 1 26.089826 22.259076 8.220475
1709 1 24.131497 20.075023 12.152399
1710 1 24.093598 22.278072 14.207094
1711 1 26.371406 20.240066 14.295292
1712 1 26.024968 22.356022 12.372034
1713 1 24.698465 20.163425 16.445282
1714 1 24.454978 22.246232 18.590844
1715 1 26.545339 20.414696 18.858948
1716 1 26.189812 22.182198 16.490531
1717 1 24.207802 20.227336 21.002654
1718 1 24.564714 22.884129 22.199156
1719 1 26.640573 20.589486 22.623192
1720 1 26.664303 22.555306 20.442254
1721 1 24.294689 20.540469 24.362664
1722 1 24.709427 22.244777 26.570573
1723 1 26.646421 20.427999 26.430238
1724 1 26.219822 22.627736 24.478815
1725 1 24.620460 20.368283 28.709177
1726 1 24.758957 22.381635 30.733833
1727 1 26.742342 20.264852 30.559534
1728 1 26.686413 22.411490 28.429626
1729 1 24.171605 24.428213 32.483314
1730 1 24.136900 26.253292 1.775982
1731 1 26.387346 24.483190 2.068277
1732 1 26.631231 26.448338 0.101188
1733 1 24.176495 24.357650 4.101464
1734 1 24.334530 26.335804 6.098888
1735 1 26.449446 24.525233 6.149382
1736 1 26.401763 26.394910 4.030963
1737 1 24.112422 24.680175 8.254211
1738 1 24.265400 26.747332 9.956190
1739 1 26.293909 24.632811 9.691416
1740 1 26.312682 26.493851 7.837729
1741 1 24.224254 24.567112 11.928647
1742 1 23.859817 26.410762 14.363244
1743 1 26.024416 24.271270 13.876965
1744 1 26.128544 26.737174 11.950600
1745 1 24.309612 24.230620 16.163873
1746 1 24.287149 26.334511 18.211085
1747 1 26.404483 24.472129 18.246904
1748 1 26.068362 26.319279 16.320263
1749 1 24.347051 24.575777 20.330350
1750 1 24.217095 26.544850 22.342039
1751 1 26.429330 24.812781 22.286952
1752 1 26.531117 26.798758 20.125175
1753 1 23.618972 24.285731 24.327277
1754 1 24.230653 26.044846 26.560447
1755 1 26.580955 24.594374 26.218995
1756 1 25.777346 26.403980 24.208465
1757 1 24.473438 24.246780 28.515797
1758 1 24.467627 26.551835 30.442313
1759 1 26.685394 24.504247 30.219710
1760 1 26.284297 26.445692 28.071179
1761 1 24.402210 28.325275 0.128366
1762 1 24.525975 30.228622 2.504838
1763 1 26.390480 28.280392 2.170830
1764 1 26.166064 30.072696 32.368902
1765 1 24.249245 28.169890 3.880897
1766 1 24.412264 30.751802 6.317719
1767 1 26.290639 28.391168 6.145403
1768 1 26.591293 30.302354 4.381717
1769 1 24.402259 28.527427 8.390154
1770 1 24.200775 30.673343 10.186987
1771 1 26.641184 28.373337 10.065502
1772 1 26.509754 30.215296 7.982953
1773 1 24.046844 28.695328 12.367565
1774 1 24.688692 30.459468 14.331748
1775 1 26.510914 28.330472 14.370232
1776 1 26.217168 30.619964 12.137532
1777 1 24.355903 28.537096 16.366199
1778 1 24.438371 30.462520 18.461802
1779 1 26.574598 28.871778 18.077428
1780 1 26.732920 30.959058 15.935339
1781 1 24.341251 28.511512 20.344997
1782 1 24.367849 30.324964 22.323966
1783 1 26.477371 28.405342 22.561073
1784 1 26.309739 30.528738 20.324130
1785 1 23.998972 28.428766 24.415720
1786 1 24.251850 30.517296 26.357301
1787 1 26.109180 28.603866 26.393897
1788 1 26.528711 30.512768 24.591631
1789 1 24.399036 28.417208 28.735188
1790 1 24.103802 30.495245 30.540313
1791 1 26.631710 28.346184 30.349604
1792 1 26.437133 30.514238 28.691386
1793 1 28.305619 0.035659 0.025553
1794 1 28.367559 1.829055 2.081304
1795 1 30.210118 32.197818 2.183408
1796 1 30.425234 1.794654 32.535997
1797 1 28.393187 32.327585 4.143356
1798 1 28.617443 2.281869 6.082271
1799 1 30.514525 32.513518 6.355971
1800 1 30.339221 1.914885 3.851810
1801 1 28.452715 0.346125 8.046934
1802 1 28.196726 1.994982 10.105549
1803 1 30.557084 0.145179 10.015134
1804 1 30.597564 2.299852 8.192373
1805 1 28.325571 32.529542 12.063855
1806 1 28.539958 2.314342 14.108708
1807 1 30.787670 0.204057 13.964258
1808 1 30.561734 1.997297 11.710632
1809 1 28.645940 0.145248 16.092847
1810 1 28.600870 2.182699 18.347474
1811 1 30.467934 0.096242 18.415787
1812 1 30.561757 2.053938 16.097811
1813 1 28.315028 0.198122 20.401904
1814 1 28.271782 1.908463 22.629366
1815 1 30.489334 0.120660 22.217819
1816 1 30.493432 2.307085 20.758714
1817 1 28.571413 32.421995 24.215713
1818 1 28.367187 1.994943 26.237878
1819 1 30.420851 0.143682 26.464018
1820 1 30.468162 2.021866 24.278759
1821 1 28.834014 32.276291 28.617834
1822 1 28.562534 1.810521 30.097849
1823 1 30.605271 32.273248 30.610814
1824 1 30.464454 1.790903 28.514891
1825 1 28.345991 3.708271 32.074653
1826 1 28.385654 5.833879 1.854867
1827 1 30.248739 3.823955 1.765217
1828 1 30.345537 5.899802 32.329548
1829 1 28.251470 4.072054 3.885560
1830 1 28.384268 6.204771 5.744826
1831 1 30.388125 4.223182 5.897899
1832 1 30.205746 5.945331 3.776920
1833 1 28.156939 4.148691 8.107021
1834 1 28.437288 6.101367 10.410971
1835 1 30.355967 4.329437 10.132694
1836 1 30.361298 5.972457 8.063281
1837 1 28.390850 4.114694 12.185551
1838 1 28.532652 6.380773 14.398792
1839 1 30.710180 4.161138 14.561925
1840 1 30.423460 6.170943 12.312815
1841 1 28.598768 4.050984 16.302109
1842 1 28.441373 6.308844 18.713291
1843 1 30.301804 4.327355 18.587219
1844 1 30.463005 6.188858 16.702286
1845 1 28.095220 4.349761 20.557099
1846 1 28.654173 6.542645 22.499115
1847 1 30.141751 4.393664 22.456612
1848 1 30.290844 6.512780 20.385918
1849 1 28.595644 3.868414 24.420491
1850 1 28.352401 6.180771 26.153408
1851 1 30.490559 4.013177 26.541529
1852 1 30.808287 6.165849 24.265244
1853 1 28.019798 3.878397 28.141237
1854 1 28.485433 6.194098 30.396821
1855 1 30.040834 4.017177 30.006566
1856 1 30.230576 6.047040 28.132420
1857 1 28.452698 7.951329 32.523542
1858 1 28.481990 10.412594 2.113840
1859 1 30.270995 7.990220 1.896768
1860 1 30.455108 10.045336 32.410583
1861 1 28.246607 8.119127 3.715857
1862 1 28.386019 10.464475 6.001565
1863 1 30.333949 8.209117 5.807383
1864 1 30.680513 10.189419 3.794166
1865 1 28.537446 8.359736 8.156986
1866 1 28.577292 10.557111 10.191542
1867 1 30.552766 7.876116 9.919696
1868 1 30.618703 10.377100 8.137881
1869 1 28.708174 8.358913 12.041521
1870 1 28.366784 10.277619 14.103499
1871 1 30.591479 8.489946 14.011819
1872 1 30.588275 10.493707 12.432217
1873 1 28.650255 8.088112 16.167414
1874 1 28.474283 10.362779 18.069499
1875 1 30.336592 8.463390 18.256401
1876 1 30.349399 10.440606 15.991618
1877 1 28.414129 8.361134 20.298425
1878 1 28.569491 10.216677 22.233764
1879 1 30.540825 8.446528 22.553999
1880 1 30.651018 10.308734 20.207283
1881 1 28.769314 8.596948 24.512770
1882 1 28.675165 10.265908 26.628129
1883 1 30.586654 8.025753 26.356010
1884 1 30.455569 10.556417 24.431369
1885 1 28.672493 8.144253 28.268759
1886 1 28.322529 10.172984 30.570388
1887 1 30.351249 8.152612 30.414595
1888 1 30.620261 10.283001 28.398546
1889 1 28.624889 12.251817 0.093280
1890 1 28.402418 14.226069 1.771895
1891 1 30.876618 12.349419 2.102687
1892 1 30.577822 14.002583 0.035505
1893 1 28.573856 12.503972 4.334061
1894 1 28.696860 14.326830 6.135545
1895 1 30.848386 12.257863 6.061143
1896 1 30.772102 14.673683 4.020432
1897 1 28.570473 12.325789 8.138443
1898 1 28.536933 14.175537 10.101962
1899 1 30.821072 12.269859 10.068492
1900 1 30.512039 14.496871 8.174183
1901 1 28.373010 12.510640 12.108089
1902 1 28.294574 14.182001 13.966511
1903 1 30.318516 12.291998 14.190237
1904 1 30.631681 14.123359 12.348450
1905 1 28.324691 12.508948 16.262278
1906 1 28.464690 14.354070 18.188157
1907 1 30.235843 12.301143 18.428799
1908 1 30.609440 14.022406 15.839644
1909 1 28.372135 12.144327 20.078233
1910 1 28.470000 14.038059 22.599393
1911 1 30.469797 12.331538 22.194182
1912 1 30.528209 14.298920 20.390655
1913 1 28.607392 12.333841 24.578703
1914 1 28.764007 14.013435 26.759964
1915 1 30.905636 12.333320 26.441918
1916 1 30.751902 14.356662 24.641388
1917 1 28.382443 12.072321 28.468656
1918 1 28.598372 14.312955 30.423166
1919 1 30.529335 12.105106 30.277496
1920 1 30.506215 14.246633 28.490944
1921 1 28.718026 16.008538 32.360059
1922 1 28.693182 18.191469 2.041107
1923 1 30.492547 16.134550 1.978494
1924 1 30.903212 18.230628 0.071574
1925 1 28.523621 16.006652 3.962706
1926 1 28.444463 17.977855 5.889958
1927 1 30.678018 16.257444 6.370198
1928 1 30.807612 18.225340 4.240630
1929 1 28.390930 16.181987 7.940822
1930 1 28.404336 18.145411 10.260053
1931 1 30.357719 16.422946 9.902722
1932 1 30.326924 18.511577 8.153905
1933 1 28.720322 16.392013 12.280642
1934 1 28.421621 18.408929 14.184320
1935 1 30.640515 16.309155 14.265525
1936 1 30.803203 18.115839 12.082712
1937 1 28.507219 16.296029 15.851371
1938 1 28.375174 18.430765 18.620419
1939 1 30.409245 16.176285 18.106099
1940 1 30.435216 18.448857 16.227323
1941 1 28.205129 16.109624 20.597728
1942 1 28.485113 18.265248 22.714010
1943 1 30.602414 16.281926 22.589073
1944 1 30.706823 17.942869 20.365159
1945 1 28.427790 16.129886 24.523712
1946 1 28.608995 18.402731 26.438653
1947 1 30.610000 16.265267 26.622937
1948 1 30.756189 18.656583 24.258540
1949 1 28.201998 16.576667 28.670923
1950 1 28.633004 18.108941 30.983353
1951 1 30.363138 16.123892 30.384483
1952 1 30.462389 18.186894 28.839979
1953 1 28.613153 20.379080 32.440348
1954 1 28.493732 22.300388 1.906762
1955 1 30.785604 20.272680 2.140803
1956 1 30.654965 22.102367 0.073641
1957 1 28.672314 20.067586 3.808431
1958 1 28.320792 22.376356 6.036144
1959 1 30.133301 20.165954 5.865841
1960 1 30.121639 22.238313 4.034798
1961 1 28.492638 20.435976 8.097135
1962 1 28.287218 22.451022 10.162877
1963 1 30.889435 20.367060 9.924527
1964 1 30.723306 22.198964 8.054352
1965 1 28.220329 20.676488 12.320383
1966 1 28.154986 22.341857 14.205151
1967 1 30.339219 20.630358 14.240596
1968 1 30.224371 22.366324 12.257060
1969 1 28.542886 20.440991 16.326122
1970 1 28.348727 22.651152 18.320558
1971 1 30.558297 20.324623 18.245573
1972 1 30.456782 22.358885 16.298470
1973 1 28.907951 20.311361 20.533770
1974 1 28.426828 22.481584 22.575187
1975 1 30.476794 20.618011 22.604537
1976 1 30.415225 22.486022 20.271893
1977 1 28.512863 20.447928 24.532805
1978 1 28.802791 22.648520 26.313227
1979 1 30.453021 20.443569 26.357072
1980 1 30.926514 22.912414 23.899442
1981 1 28.738100 20.400856 28.634600
1982 1 28.689398 22.366480 30.715737
1983 1 30.420129 20.051710 30.806196
1984 1 30.834097 22.250416 28.376824
1985 1 28.803709 24.278708 32.366475
1986 1 28.380170 26.159338 1.998091
1987 1 30.611220 24.323256 2.427435
1988 1 30.813681 26.301474 32.443289
1989 1 28.365857 24.273167 4.139650
1990 1 28.623359 26.267662 6.117029
1991 1 30.401179 24.096952 6.036522
1992 1 30.498224 26.459766 4.109027
1993 1 28.466262 24.187749 7.941903
1994 1 28.325360 26.284198 9.837758
1995 1 30.540358 24.080191 10.092174
1996 1 30.467315 26.184044 8.136773
1997 1 28.231703 24.487469 11.769114
1998 1 28.580815 26.443464 13.945616
1999 1 30.158741 24.251345 14.297244
2000 1 30.661592 26.462530 11.931446
2001 1 27.835437 24.655937 15.876218
2002 1 28.251643 26.749402 18.250570
2003 1 30.609975 24.591045 18.236553
2004 1 30.377875 26.480445 16.369140
2005 1 28.074150 24.452189 20.179890
2006 1 28.559479 26.625105 22.036992
2007 1 30.140493 24.749848 21.933812
2008 1 30.462035 26.733071 20.236005
2009 1 28.524039 24.627899 24.214855
2010 1 28.353092 26.577799 26.111783
2011 1 30.502423 24.785120 26.284255
2012 1 30.447555 26.450425 24.368367
2013 1 28.526489 24.608933 28.438178
2014 1 28.716979 26.328200 30.411354
2015 1 30.746578 24.196044 30.026729
2016 1 30.585494 26.690706 28.561040
2017 1 28.722182 28.251761 32.492981
2018 1 28.371056 30.327800 1.643521
2019 1 30.306417 27.978662 1.908541
2020 1 30.283737 30.516287 32.528810
2021 1 28.374661 28.239996 3.777454
2022 1 28.461341 30.648496 6.427195
2023 1 30.555965 28.341854 6.036213
2024 1 30.189322 30.232324 4.015545
2025 1 28.559629 28.048720 7.800285
2026 1 28.608393 30.574042 9.955474
2027 1 30.461281 28.439443 10.185378
2028 1 30.385180 30.774616 8.047551
2029 1 28.410626 28.798585 12.043773
2030 1 28.523886 30.686403 14.087981
2031 1 30.486843 28.564406 14.368443
2032 1 30.826422 30.908254 12.083963
2033 1 28.411113 28.500885 16.128252
2034 1 28.387154 30.804796 18.390089
2035 1 30.609029 28.697876 18.295356
2036 1 30.298630 30.727580 16.457191
2037 1 28.513239 28.794728 20.234117
2038 1 28.422138 30.725245 22.252436
2039 1 30.528511 28.784497 22.425427
2040 1 30.598336 30.655995 20.365431
2041 1 28.430412 28.697524 24.282024
2042 1 28.714973 30.480262 26.393286
2043 1 30.593284 28.242034 26.280122
2044 1 30.810492 30.677281 24.472651
2045 1 28.522333 28.543293 28.380879
2046 1 28.582026 30.181532 30.623663
2047 1 30.860979 28.134733 30.473717
2048 1 30.632125 30.241595 28.414437
