2048
Time=140000.00000013 pbc="T T T" Lattice="33.3946282 0 0 0 33.3946282 0 0 0 33.3946282" energy=-7736.79513 virial="-178.675898 -1.92147284 16.0687863 -1.92147284 -213.813198 11.4996657 16.0687863 11.4996657 -193.976342" stress="-0.000349438818 -5.85754957e-06 0.000687957888 -5.85754957e-06 -0.00112237987 0.000373064865 0.000687957888 0.000373064865 -0.000647669331" Properties=species:S:1:pos:R:3
Al 22.2847539 32.7623486 5.5430432
Al 8.28778242 21.9695495 30.9393007
Al 0.819103442 10.1043939 12.8833051
Al 6.69954695 9.50263217 1.46223705
Al 24.8690916 21.0143323 13.2116619
Al 7.30910134 8.04245641 23.0911094
Al 18.4508476 7.2232444 6.36208799
Al 1.1702721 32.8443483 16.0418323
Al 7.9361932 3.64217239 21.2860777
Al 32.6437527 24.5144322 19.6368304
Al 25.7715788 21.400142 6.01685242
Al 26.3801624 22.5482214 14.6000682
Al 9.67383541 31.3223354 18.3594032
Al 7.07212284 4.6387585 18.6154312
Al 10.3993819 8.22765906 24.0313472
Al 3.66567472 29.7755758 23.2756645
Al 0.97413556 16.9151834 9.82343703
Al 23.6146903 23.7457548 15.1676409
Al 29.1516582 25.457494 32.9614994
Al 24.8709431 30.8429465 20.2970623
Al 0.206786522 27.6569113 11.6730051
Al 4.80463871 7.25776851 14.9681817
Al 11.7387833 14.2542111 29.4099505
Al 5.43963113 15.5399599 4.55490354
Al 18.2131909 14.7846269 18.017268
Al 31.2217631 4.61814525 15.8974503
Al 11.1777978 29.6828908 33.1742139
Al 3.16729869 32.5464393 31.5053335
Al 4.68452609 32.4949484 15.8755376
Al 26.6980451 0.101475087 22.2568521
Al 19.1299253 16.5641073 26.9078251
Al 24.7203928 3.46453723 8.8102664
Al 13.2977506 25.285704 29.9945955
Al 29.3555592 32.1992584 24.6764326
Al 25.6419009 5.77782987 13.1379408
Al 18.9419724 1.61876652 10.8112859
Al 14.7187155 25.4632862 27.8708525
Al 6.20816264 24.4793561 17.9684897
Al 16.7482656 14.5175453 20.229412
Al 18.1650151 30.8726024 0.643034881
Al 27.7057291 9.59613115 23.5728479
Al 8.40520786 28.112201 24.8759102
Al 27.4987918 2.73238202 33.1058594
Al 27.5454881 12.0162917 25.208609
Al 5.26963264 9.87074387 6.03707885
Al 30.5919616 4.07220172 9.1344618
Al 1.36897019 3.81595571 24.4910836
Al 7.99700166 23.7283835 10.8147262
Al 26.4506722 12.1669778 22.6352586
Al 27.549128 24.892006 1.7145645
Al 19.2926899 18.7668967 20.5962514
Al 23.171897 8.72329145 23.26428
Al 31.7124565 15.7007448 19.5157732
Al 27.5259929 32.9124792 10.6983637
Al 8.7216525 6.89210974 31.2313208
Al 5.3399167 31.3662746 10.4249327
Al 1.11524305 7.30976835 31.4621596
Al 31.4646039 30.0961614 32.2517503
Al 0.131415282 9.34666334 30.2250459
Al 21.4403063 27.6146071 20.3090704
Al 9.78612078 12.2239723 26.1661334
Al 28.1220406 31.9403701 17.2823992
Al 4.29168605 18.2586231 23.8113968
Al 27.7120118 22.8570342 6.60936244
Al 13.0791438 28.8367125 11.4341658
Al 14.3024462 10.953753 25.9639513
Al 16.0167082 8.10207918 2.73299803
Al 1.23029127 26.3118676 20.3313843
Al 25.4360734 7.80079295 4.55815517
Al 22.0178456 5.72606591 31.3218905
Al 4.64881805 16.2328189 2.13464235
Al 20.5025497 21.3749975 33.2937092
Al 20.3324755 4.12095202 11.9979487
Al 23.3366026 11.1541233 1.82138787
Al 30.8361933 31.091843 16.5379704
Al 23.7130004 11.892004 15.0082418
Al 22.2815704 15.8332249 23.3093447
Al 1.07868598 2.26829508 31.1941859
Al 30.411102 10.8887288 19.0595899
Al 19.6964547 18.6960036 4.7783415
Al 4.08139292 1.47486525 9.33009434
Al 26.0487619 9.01986977 7.46398139
Al 13.1253818 2.52457085 22.6951821
Al 7.50882489 23.9605752 29.2727623
Al 0.654696361 17.3152784 4.85975967
Al 1.11672031 4.96135009 30.4951464
Al 6.73084015 13.7387103 16.58865
Al 23.8658507 18.257863 27.5950363
Al 32.7380898 27.5991618 19.0757132
Al 7.60791661 4.23158588 30.4683927
Al 10.8918259 20.1461738 2.64954548
Al 1.43138673 17.1019722 27.358696
Al 9.90794694 24.4303441 31.3387735
Al 28.9922516 10.2509218 4.7196024
Al 24.750691 9.23335088 28.8530794
Al 28.3115717 17.158261 13.8640465
Al 28.8997856 2.38435507 12.0838168
Al 6.10638595 1.62839309 6.3303023
Al 30.3206806 28.6168079 8.80718471
Al 29.9645092 15.8978173 15.3604578
Al 30.582807 19.9247734 19.4529946
Al 21.6797649 22.003311 15.5378422
Al 17.1144303 14.0603768 22.9841685
Al 12.3284911 7.63281408 25.5085363
Al 15.0755904 16.3853794 10.5537166
Al 8.5871725 12.2448373 17.7660721
Al 26.4835952 25.1185075 32.3395889
Al 5.76637831 28.4909341 19.7163978
Al 31.1270633 22.8885552 26.5054452
Al 3.69067743 32.5517275 5.92137763
Al 23.6345674 8.21211008 17.6923195
Al 13.4080688 25.8144442 23.3616102
Al 29.4457807 0.898482756 17.9943559
Al 19.8493506 12.6676137 11.9321897
Al 0.0672331119 20.5719932 17.7679403
Al 27.4060689 16.6248749 22.486397
Al 27.2321627 5.32060464 15.2828195
Al 5.25128882 15.7558601 18.2561923
Al 12.1196422 10.9490915 2.15434895
Al 1.03496668 26.5382541 14.7857989
Al 9.01722644 8.35211887 6.74332552
Al 27.1127282 10.817446 29.2994506
Al 32.1352909 3.07300876 7.2987896
Al 31.6316843 25.8912651 0.871381809
Al 25.0516395 24.1629928 29.9779606
Al 7.02211178 11.6661711 33.2199489
Al 5.08244725 13.7709622 26.3381017
Al 4.93646177 32.1439747 13.1066171
Al 28.0575322 14.1029333 16.7242163
Al 8.77293472 0.500803508 11.4292861
Al 19.4257611 29.1297668 31.697836
Al 29.283046 8.84332453 29.5350654
Al 11.0923495 15.0350917 26.6164849
Al 19.927235 26.4941822 33.0742127
Al 18.3417423 5.74744272 18.5538332
Al 7.59080461 10.2249293 10.8606956
Al 12.9339938 22.2296013 2.49896156
Al 7.90142886 2.31084108 32.5851691
Al 2.879955 10.9004746 6.16894566
Al 18.6304646 17.9575254 30.1199806
Al 24.4595066 16.5436819 4.72836938
Al 6.54322221 13.7541249 23.7736946
Al 12.0706175 4.37827984 5.89120475
Al 28.8273791 20.4834052 26.6433348
Al 14.3703404 15.6230489 26.7933169
Al 31.9098982 2.9563958 25.231216
Al 26.602078 17.4809292 9.54820036
Al 16.6181021 11.8034876 24.1752038
Al 6.32970041 21.3895353 10.55938
Al 29.6186476 5.78602568 3.79508493
Al 4.76862661 2.43685331 15.074267
Al 1.17720497 33.3882208 0.0550088947
Al 30.6405523 13.6632603 32.2167347
Al 28.339707 13.562695 5.87441047
Al 15.0293191 5.06017248 28.9889204
Al 4.53230964 8.14724726 7.87802602
Al 4.12693449 9.83971918 18.2298903
Al 33.1963899 23.1416414 5.39073935
Al 23.8641961 0.909994805 26.8501963
Al 21.0373249 18.1522107 15.7882791
Al 10.5519213 22.2368891 29.7412426
Al 32.5859534 32.4008024 31.6495879
Al 12.2497694 12.7985501 26.6655222
Al 33.2423231 18.9060597 15.7239888
Al 23.2172244 5.23317852 4.9925451
Al 25.2838919 20.6624574 27.1954309
Al 29.1161579 29.654539 30.2421528
Al 23.5547018 26.1114245 31.5646885
Al 21.9091467 12.3514097 26.8569073
Al 30.5600048 12.5895359 15.7046449
Al 19.9339009 10.1481401 10.7955283
Al 16.6710837 7.0875708 28.6687226
Al 5.90616555 5.48399035 7.62804056
Al 10.4463531 2.07661001 6.08297541
Al 29.8691573 20.4667163 31.1846074
Al 33.2430678 21.1974895 1.60980511
Al 33.3295248 20.9889651 26.9224195
Al 14.4060942 18.1593494 2.72023499
Al 3.16049884 11.854971 32.4699882
Al 33.0024555 27.4762704 9.03821529
Al 23.4346365 24.6266094 24.5878902
Al 14.4991557 31.696637 19.8859973
Al 15.0994982 10.3740212 28.8436848
Al 2.52579912 14.0863975 21.1484043
Al 15.2523619 15.5889953 24.0494758
Al 12.9210127 19.4402257 4.59160459
Al 14.0104412 26.4867438 13.4619042
Al 28.2779018 24.8276047 27.6656674
Al 14.48914 29.9742048 17.583039
Al 23.1909432 33.2979195 33.2994637
Al 22.8135115 21.5249334 26.135423
Al 23.1822664 1.41042206 22.2970979
Al 24.0169258 6.22373236 24.9427862
Al 14.6077575 18.0694576 15.8577563
Al 13.5291056 21.8431055 12.5157141
Al 6.18291116 2.40976407 22.9270879
Al 20.7567321 32.2143273 11.4289253
Al 3.10868737 8.63457512 12.6908066
Al 22.8130835 21.9470354 1.54643225
Al 0.839903419 11.2355486 9.80844591
Al 7.27067747 14.6420652 6.26383204
Al 29.4099207 26.0805399 15.1849108
Al 0.177419062 24.4452732 7.92250507
Al 27.3066202 5.67393613 18.5535329
Al 20.5424806 19.7951858 30.0683642
Al 12.4261356 5.2207734 26.5870913
Al 32.0365439 16.3576044 29.4258633
Al 29.752288 13.1910546 12.9092922
Al 17.5937248 27.4974966 8.83393394
Al 11.4568409 30.1386531 2.79663083
Al 12.0331261 12.4101208 7.39313477
Al 8.91586155 27.7593334 3.0489569
Al 24.3538706 23.8271016 17.9880504
Al 30.1124332 13.5810096 18.6053704
Al 32.2255465 5.40634673 13.410348
Al 0.0149426835 19.8345872 30.5575454
Al 18.927106 18.9779215 32.6838051
Al 3.28696507 14.8637109 27.6735125
Al 14.6885619 23.8801215 6.860877
Al 5.06867285 31.959466 20.1182555
Al 20.9307181 10.9030036 0.0572437805
Al 14.9097574 23.7603087 20.1239472
Al 30.4075116 1.59764203 23.2765114
Al 29.2908029 3.86046372 25.5356458
Al 21.5072322 6.3099293 22.9976374
Al 1.98108005 8.11204798 7.25958783
Al 22.7522611 19.9512035 16.8119179
Al 31.7435266 31.8276866 22.0027849
Al 32.1665976 2.55529558 17.5953941
Al 2.74602779 19.3332715 26.4528268
Al 32.4024348 10.5223337 20.8806795
Al 12.5241698 33.1307333 9.327122
Al 30.4228088 14.8463108 7.05033228
Al 28.5769265 25.8506683 17.6349881
Al 2.22660611 24.3033158 6.22908546
Al 7.49594268 0.449320975 16.7516416
Al 8.24515213 15.0799681 12.6185658
Al 16.8954855 14.2749229 0.768720501
Al 17.9300677 1.24626337 21.4156473
Al 9.32747031 29.4893611 14.2184476
Al 12.0993417 33.1902015 22.2658426
Al 17.0471136 7.40207425 24.8878927
Al 3.52075024 28.3014449 21.072893
Al 11.0324871 32.6722552 13.0902253
Al 5.28047239 0.351347126 18.0985973
Al 5.24243372 29.5757693 17.2690746
Al 4.36241239 22.0652074 18.1413205
Al 29.1009839 10.7899402 2.00982506
Al 5.94843511 5.01243989 27.5384957
Al 0.639371074 16.6391382 12.3660766
Al 3.70837433 2.08704498 24.6005361
Al 22.2840074 31.3157429 8.47745846
Al 21.063059 2.66500219 9.99090934
Al 3.31965731 14.5710062 0.854205751
Al 16.1262918 5.28130443 3.48806149
Al 14.0225473 22.9908087 9.32359669
Al 22.9145798 17.007818 13.844646
Al 7.27000306 24.3238486 32.4194476
Al 31.0904176 31.5699047 8.25606195
Al 6.55145276 28.7019724 14.936507
Al 14.6537735 28.322435 24.0466681
Al 17.3626351 3.51648994 15.0568507
Al 5.78164632 21.7497677 13.0661593
Al 7.55039869 18.3046726 6.29546669
Al 21.9985092 1.38890986 11.9464806
Al 7.77670844 32.1719024 21.1407582
Al 15.9495899 6.57294482 8.02038154
Al 32.6216881 29.350521 22.7021372
Al 20.7891823 23.3277742 10.2339376
Al 2.53295031 21.1671856 1.19792822
Al 3.5385967 23.7117159 3.7501415
Al 2.82715239 32.6105856 8.37917402
Al 10.9523018 14.4586651 13.5177172
Al 10.8485658 17.4402979 6.92488536
Al 24.1484306 32.0320916 25.7292832
Al 15.438115 21.9143667 1.61395796
Al 30.9810348 27.9083134 5.19340562
Al 8.48101367 4.13996224 27.3891761
Al 22.8975644 26.0635191 18.9485027
Al 16.3214646 2.99865243 28.3221949
Al 10.0986407 11.3642976 28.7291117
Al 3.34025869 7.64737302 32.7930909
Al 9.27542381 23.7685358 6.7652613
Al 25.9685635 29.7388918 3.6437774
Al 33.0372478 0.784961362 22.4300528
Al 21.0151466 14.0036471 4.59471228
Al 13.3082271 3.49942027 1.53573531
Al 21.150923 17.3221476 29.5198898
Al 2.54695273 16.3323588 22.3360388
Al 18.3927862 15.4769599 32.1836812
Al 6.3222918 30.3088211 7.48550727
Al 31.4296221 12.6047547 1.60346627
Al 23.9525746 23.6455037 32.3548113
Al 17.3324602 9.53179605 15.2355808
Al 10.414862 11.4549713 20.8051535
Al 29.9294634 31.4264664 5.97894009
Al 14.8446466 13.1544502 27.7727044
Al 19.3283029 8.8752768 4.44352421
Al 2.86681926 16.3549318 19.5021464
Al 27.9930299 21.062681 16.147896
Al 3.96721166 4.22359013 4.09513519
Al 22.0405278 23.8710653 26.5555298
Al 20.550048 7.92628465 15.3107534
Al 2.43935855 30.5601701 16.4021732
Al 30.4951266 18.0018287 26.691864
Al 23.5549597 26.0554143 28.783355
Al 4.87359045 19.2514196 32.383264
Al 10.4387075 8.98290823 4.2864105
Al 16.4429946 18.607803 9.05598362
Al 17.7890217 22.0407128 2.45460245
Al 26.1759817 18.1936823 26.2207268
Al 31.9994324 13.1081214 8.7244905
Al 30.3167256 23.8032616 18.8550472
Al 13.6634153 0.758949147 2.71536583
Al 20.1672661 15.6956052 15.0268684
Al 14.046657 29.7176282 5.98238656
Al 13.9303631 6.39751591 1.61221366
Al 5.68461134 30.8298934 24.5853997
Al 26.4539799 28.3467721 11.3948818
Al 12.4550315 12.0609727 14.20729
Al 30.8919922 3.26108263 3.98048862
Al 22.9477708 3.39390092 2.75038238
Al 31.325239 15.6787893 22.6045497
Al 16.4139537 19.3751957 32.1073814
Al 0.379495786 17.1251525 20.5287141
Al 8.15695543 29.3073213 17.1931943
Al 14.438986 9.81226914 1.05237758
Al 2.37873342 18.9184847 18.315634
Al 24.4253772 14.5000141 16.4593442
Al 28.0174529 13.3036537 0.0390605222
Al 0.945100501 32.375357 25.9659437
Al 4.87044279 7.04249519 17.6679755
Al 22.7349107 28.5238838 14.4555557
Al 8.51566734 13.1385406 21.5980107
Al 12.4334951 10.4903642 8.99454845
Al 7.37359223 22.6655723 19.5350801
Al 4.35056376 27.6580072 7.90637017
Al 9.68514493 11.2877778 3.04012988
Al 2.86162136 3.64639929 22.0576095
Al 11.3190495 27.6727867 1.59366243
Al 4.18784036 18.6976417 1.67299871
Al 14.7384788 1.75668171 33.2424292
Al 3.36635588 26.8951074 4.6614447
Al 14.8095315 11.9320168 12.6639823
Al 11.4951989 4.55096745 18.3326736
Al 5.97234334 12.4587698 4.92309467
Al 7.45906663 31.2415019 33.3778875
Al 18.9853248 6.37020938 8.76748258
Al 13.4799949 1.12298983 20.503774
Al 0.327612811 32.3246677 2.67716299
Al 1.28826692 14.9812355 25.8337041
Al 32.1895035 0.899717505 5.16896828
Al 21.2151029 25.1790971 5.74026147
Al 10.626555 32.839692 29.203535
Al 16.2475794 2.51622774 7.3770244
Al 16.5040539 4.27284252 17.9376616
Al 22.1877401 9.28136322 27.3964113
Al 10.8495331 11.2013682 18.2325376
Al 5.95763879 23.1289508 2.47257517
Al 21.8616049 30.0141995 6.14533112
Al 13.6115382 2.71617184 28.1374534
Al 0.527651608 25.4818005 10.424872
Al 19.4993481 29.1523546 18.6058956
Al 2.72157591 6.70431618 22.0921809
Al 3.45614002 1.95491066 31.8806177
Al 19.9013377 30.8914318 29.1825714
Al 11.3304197 18.7946807 14.7596369
Al 3.19563915 10.9916642 8.89763166
Al 28.1652851 3.76935877 28.141753
Al 23.8933552 23.6009335 20.6716822
Al 3.10341657 18.0341652 7.97208671
Al 2.16658046 20.5220918 24.1528241
Al 13.0275921 14.0896497 18.4670328
Al 22.9246498 4.15019106 11.2574493
Al 21.3328839 27.900011 4.74578208
Al 24.0086919 19.5763133 24.8977143
Al 16.1223143 4.67922875 0.461161335
Al 16.7637325 7.76221128 0.361667153
Al 25.5442203 7.68482981 22.3327751
Al 25.0199287 27.0565715 24.1036138
Al 31.7051677 11.9038149 24.14344
Al 10.9844441 21.7714287 0.653032998
Al 23.502424 5.95209324 9.04381998
Al 5.76413686 0.545758274 4.12679397
Al 2.66182415 27.6319564 13.0311634
Al 32.8041477 23.9867257 2.45748944
Al 27.51475 14.8752395 8.7406508
Al 2.40043514 14.2943845 31.7525805
Al 3.56957037 23.0632412 23.1865678
Al 25.7275335 30.8436146 10.3801155
Al 15.3125027 24.2531652 31.5351718
Al 9.52464143 28.189481 6.30452246
Al 8.78783898 7.89883474 9.28080915
Al 15.1935225 28.0866784 7.67724472
Al 28.4694192 0.312144791 1.04782301
Al 17.6626758 7.45654986 20.7761886
Al 4.38422809 29.879663 14.7633878
Al 2.49702449 31.1718107 4.07724559
Al 0.0506424616 24.1607718 12.8363757
Al 4.72993267 6.8433017 20.45133
Al 31.9443861 9.32749975 11.2730047
Al 30.9558087 26.9118104 29.8219809
Al 12.2747364 20.3469452 16.3697826
Al 3.12977221 17.3368281 31.977431
Al 8.63202588 28.5942349 33.0134137
Al 12.6731437 3.15245314 32.3934461
Al 16.7710985 21.6903028 13.3435799
Al 4.63714427 0.290274871 0.372143433
Al 19.0977505 8.48949998 0.973633903
Al 29.922695 11.4203454 32.9415775
Al 24.7757131 14.6804058 12.5348337
Al 23.1858947 13.5206385 3.26048373
Al 12.2606958 20.7524202 21.7230876
Al 16.0788289 27.9972053 32.4555409
Al 16.1092902 21.4714008 27.7602538
Al 25.7847013 0.226591983 1.19086694
Al 24.6886816 19.0108898 15.1490936
Al 25.9176446 30.3305255 32.6538222
Al 24.9782156 19.7738146 10.3171266
Al 21.1309794 5.09791689 8.93118092
Al 1.7327485 13.022566 7.3195059
Al 17.1601728 29.0508171 16.4214404
Al 2.61995641 11.8969078 11.6348651
Al 28.1637433 5.14546995 31.5495933
Al 22.9213644 18.4432019 9.13541859
Al 21.2450272 5.4076772 26.7156923
Al 15.9273707 1.5727531 19.1569496
Al 6.71948929 24.5519867 12.7828867
Al 20.5918205 17.7777848 18.3738292
Al 31.2266337 8.32835107 13.9620335
Al 2.74578464 31.1502183 1.23906554
Al 11.746371 8.86284158 19.4876068
Al 17.2018665 23.4453155 5.42874852
Al 2.18088064 30.7744295 10.842311
Al 31.7909833 1.57428288 9.86582842
Al 0.124340592 3.78341847 4.95602036
Al 7.47637808 18.9316742 9.22622787
Al 13.2111862 16.4874728 22.4546899
Al 32.0073272 14.508821 14.0030222
Al 7.32873622 13.1137305 10.5937156
Al 22.4424711 0.0306280099 30.6871056
Al 15.0881915 22.656684 4.21123706
Al 2.84724903 11.5166863 19.5247159
Al 7.60921277 3.39755991 1.80982102
Al 20.2366342 21.7277602 28.5489371
Al 20.4225461 4.17792927 1.28537449
Al 17.8552059 16.492951 24.2249287
Al 31.4214441 1.27150954 20.4232372
Al 22.9006341 13.8467027 30.0467127
Al 5.98588791 26.8204236 0.609517857
Al 4.44841604 5.82544237 1.2607619
Al 12.2682263 4.32414731 11.8373294
Al 31.0919452 25.0342708 31.7372351
Al 1.04046321 5.15372872 20.865027
Al 8.90961452 26.0160814 4.71621238
Al 1.80018288 28.084432 7.50566658
Al 9.31831496 16.8712966 27.4739973
Al 0.65676683 14.6748981 18.9175572
Al 33.1405238 24.9869535 24.5477504
Al 32.1665059 9.05011387 23.2015919
Al 24.6665572 22.3921391 24.5364675
Al 11.0335876 2.08626448 19.7578488
Al 10.5504606 21.4862978 14.2967593
Al 11.1106711 32.7794716 2.76241255
Al 25.3061245 27.350104 13.7474234
Al 3.05130665 0.0340173989 2.61535267
Al 12.8675638 32.1951174 4.90638011
Al 26.5820672 2.2291315 11.3538749
Al 10.0363462 5.46291148 29.3684636
Al 4.29592148 29.2926799 12.1256692
Al 23.6177743 28.5562403 17.215784
Al 11.5481085 7.23933845 28.2629976
Al 24.2593862 31.9708885 31.2755944
Al 21.8642335 26.067404 14.2469479
Al 22.6488568 23.1895268 12.6541591
Al 10.2507625 17.3412907 2.30216356
Al 7.4415138 25.2870397 20.0500597
Al 23.4548428 16.874888 31.0506289
Al 18.0724295 23.6881153 11.23564
Al 7.03035913 20.7585212 17.4043682
Al 33.2081114 25.4794501 29.9651767
Al 21.3083021 24.1555065 22.0665298
Al 6.79025985 18.4604074 27.3541774
Al 9.59641451 6.26293493 19.8793867
Al 16.7009015 2.82142859 4.85550764
Al 23.8249194 0.861736235 7.49682724
Al 5.66579714 25.190959 4.29527332
Al 14.7103117 13.3507793 25.1037355
Al 4.55306717 25.3922845 25.7260339
Al 14.3363637 31.2307556 2.82996132
Al 31.984547 17.2105362 14.0958971
Al 6.38828041 11.8495547 28.3265522
Al 1.26331412 22.1134111 22.0896766
Al 11.3383876 1.19042101 24.1222553
Al 1.53470677 3.89037439 18.1468601
Al 32.7265193 27.5787311 25.1343627
Al 5.08423935 23.0653419 20.9637544
Al 13.888549 14.8541392 12.4902668
Al 12.7152755 1.3232097 5.46448986
Al 13.7708342 18.3372989 29.8841321
Al 33.1305339 9.47850176 15.6216524
Al 31.2005073 10.8088873 13.4769589
Al 15.8929193 19.8667851 4.35506028
Al 9.35271224 9.75775916 16.2678745
Al 3.58923402 30.1834754 8.5797618
Al 0.194662009 17.5273654 31.6154478
Al 2.96997107 22.9223143 32.8006
Al 20.075871 24.441126 14.6858566
Al 15.6151322 2.3867205 25.9640724
Al 11.7706263 9.64400845 6.71181731
Al 7.3201948 6.56649578 25.8241154
Al 26.41002 20.7314453 8.30980567
Al 14.2163779 15.4015964 29.7738265
Al 28.28822 0.904773966 29.6288483
Al 33.1042713 19.1841599 22.923164
Al 26.9912235 29.0570539 20.0525307
Al 14.8052668 31.1643452 25.0013884
Al 25.8748047 19.4221506 4.45112711
Al 25.13828 12.840673 31.2193321
Al 32.236244 12.5932601 26.8976002
Al 10.0351044 21.6364783 5.0498913
Al 22.9423054 18.8959401 22.4991181
Al 29.5203702 6.14880817 29.2588412
Al 9.32178803 5.65058246 8.01070627
Al 23.6017915 25.7990075 6.53990453
Al 18.369296 12.5122748 3.85406694
Al 23.2732394 0.650994527 2.6489284
Al 6.32700697 7.36914639 9.68031864
Al 30.8895198 2.70967378 27.9472917
Al 15.4599474 30.5609899 22.0950613
Al 22.9041821 10.8289181 31.1940559
Al 12.6937597 0.902910587 29.8575262
Al 2.07158482 11.6189977 16.9118522
Al 1.62292329 8.79738795 22.8912988
Al 2.40471428 18.9654258 29.51215
Al 7.37013342 21.511436 21.9966329
Al 17.2400803 32.344039 29.575117
Al 7.53890586 18.3082304 14.6536719
Al 29.408056 22.9986836 31.9542193
Al 12.9256281 12.0065434 29.4875179
Al 5.59902194 4.69568734 13.2742915
Al 5.36729093 3.17732564 0.414038509
Al 27.1661429 22.5226834 26.6633901
Al 26.3741851 24.5533137 25.1205237
Al 14.1093186 22.0804121 17.5971559
Al 5.2752213 15.4534153 12.1226327
Al 29.7040918 8.4226084 0.846285396
Al 21.9151348 3.92904749 24.0405472
Al 15.7853915 26.1237286 25.4825312
Al 11.3435485 18.2799425 32.9196848
Al 24.9484719 11.9901781 20.1364411
Al 30.4632822 18.5695616 3.89589916
Al 15.9309984 2.40553884 2.23802665
Al 25.5163982 14.509209 24.3898837
Al 19.7095433 5.8722162 13.7108234
Al 6.5637082 25.8101581 8.26435753
Al 11.4749735 30.1996014 30.4046302
Al 29.2024181 24.0975108 25.2540776
Al 28.9980617 9.68700626 12.7893444
Al 3.28950681 17.7919786 11.4372604
Al 10.2188323 19.8837698 31.0076332
Al 13.1078863 2.3937649 25.5207979
Al 26.848243 10.2531512 20.9369719
Al 27.8654052 14.790526 25.7323903
Al 3.11369949 25.7066994 9.16855304
Al 16.6561533 3.54945007 31.3996272
Al 29.2152365 32.9242163 22.1665582
Al 22.0945669 1.85436661 19.9562025
Al 31.6582362 25.4881621 4.23817496
Al 5.51161609 32.9586316 22.6374299
Al 10.4678747 6.02106525 10.6330961
Al 7.2957021 15.4188568 29.9877418
Al 1.08330204 26.4380048 3.31668931
Al 20.9434405 17.786707 32.2245748
Al 10.427252 3.66540309 25.9282753
Al 25.7704792 2.93112057 22.1990825
Al 15.2029382 6.12360448 26.0385531
Al 25.5716393 10.4224006 18.2327625
Al 15.4535518 7.50479424 15.9704603
Al 3.91552371 4.70442825 24.6384907
Al 7.95766514 9.21717898 32.3531704
Al 15.931638 25.8086331 4.78335946
Al 17.1021216 17.2668487 19.0053913
Al 18.4094915 10.4674132 21.923207
Al 4.5370921 8.49823809 22.7524029
Al 5.15775761 13.9412639 31.8138737
Al 11.1025626 18.6133698 22.752712
Al 0.420391575 8.49353516 2.73278302
Al 32.101901 22.6703323 30.4604614
Al 6.92108924 8.19139085 19.5150556
Al 3.73990528 26.3522297 23.3321833
Al 0.675147195 31.6363757 23.5630281
Al 12.08066 5.58195492 15.4023842
Al 15.1249948 16.1292795 7.84555833
Al 20.4433987 29.6543306 1.31654112
Al 15.1359306 4.33101437 11.9462592
Al 5.14959167 11.5931497 12.0451287
Al 5.11001016 21.4050621 0.820945505
Al 21.0982186 27.2810729 7.38556915
Al 11.9475485 10.4986845 25.1526244
Al 29.856594 12.9046546 26.1629592
Al 24.2833841 29.0861847 27.8750801
Al 8.52646503 7.69721338 3.28207129
Al 4.66950919 27.1895255 31.2587246
Al 24.476799 7.4572847 11.2321368
Al 6.40482457 19.4922424 23.9900418
Al 19.3542583 25.9322008 21.5928472
Al 12.0452011 11.693237 4.64696577
Al 29.1811586 11.7965061 23.1777812
Al 20.6029794 1.93488488 22.822985
Al 1.92858611 26.5075131 25.536184
Al 17.5738818 3.13511229 12.1583377
Al 21.1795285 27.5698224 17.0556178
Al 32.5202464 20.3381517 4.62171008
Al 27.1730738 9.8762287 0.713783873
Al 4.55200156 25.2087741 6.84545291
Al 15.6096536 25.3946453 9.28289869
Al 20.1182826 0.135951066 7.17368242
Al 2.87787202 15.3189181 8.29138925
Al 30.2298146 6.3388851 32.5935779
Al 27.167297 23.4350682 16.9803097
Al 1.24886959 30.8009735 30.9862238
Al 8.90309683 14.2018449 28.2067139
Al 29.6414706 17.3320309 6.34161292
Al 18.0648914 28.1874332 20.6595921
Al 32.5335821 29.2479772 16.3002029
Al 16.9925115 10.6701046 2.1838296
Al 15.7920515 7.4478754 18.9582947
Al 7.73253215 12.8066043 30.6777367
Al 9.94514535 28.224133 29.114251
Al 19.2744993 10.1122114 19.1943194
Al 33.000391 0.875045865 26.9387313
Al 29.7248341 25.1377439 5.68869311
Al 3.75574522 23.0556284 8.28977768
Al 23.0057836 21.1278299 7.73805971
Al 21.9234007 0.0873200672 27.9688025
Al 14.1160083 9.27277047 4.03743025
Al 21.0271087 12.7741559 1.99866969
Al 23.8249005 15.8875666 28.5486196
Al 22.9806505 14.3856582 20.9713856
Al 19.2000804 27.4364897 14.9506401
Al 9.2140807 22.8856147 15.9251634
Al 20.4449896 32.9451417 15.5895233
Al 32.6596658 29.3658775 6.80057405
Al 7.45053322 16.1236362 10.6316494
Al 8.43558524 3.31322251 6.93294514
Al 6.06010578 2.50211443 17.5454685
Al 10.8009584 6.70552572 12.9242366
Al 7.65651108 9.37056572 27.4619848
Al 23.6259504 7.40672291 14.1539125
Al 21.1252595 19.7549824 24.7588177
Al 2.55046796 21.6235045 28.0723712
Al 4.26444746 17.2391396 14.1599395
Al 18.4961928 17.2649897 13.8953348
Al 16.1688036 26.9086799 11.2857775
Al 13.3954682 26.084619 20.2878236
Al 22.0491259 1.86679786 25.1796562
Al 27.6698602 26.783402 25.4940058
Al 17.6764888 29.4569154 28.7517606
Al 9.84245448 32.8500512 4.88487635
Al 8.07749627 12.0434307 7.54837504
Al 23.3380537 18.9364589 2.56555314
Al 20.8616274 2.58340962 27.7374055
Al 27.2682537 21.1821066 11.197889
Al 20.6385854 21.2906629 8.46886509
Al 14.3167598 25.9828401 33.3016034
Al 16.6819582 12.2425481 5.75128016
Al 27.0858935 14.1293223 14.2991265
Al 17.6562191 16.9207904 11.3141322
Al 5.32447927 12.3057029 18.8103068
Al 24.477334 31.5290086 2.57384967
Al 8.65066439 21.154813 7.0780168
Al 22.3608449 19.2319462 5.10537716
Al 28.0724354 24.0871446 9.21999688
Al 4.3314556 20.4492292 22.2749985
Al 25.4437286 3.56293343 3.95204182
Al 31.3446907 17.9981231 20.9714286
Al 17.7590981 19.3608497 11.3771989
Al 15.3361409 29.364424 10.0762684
Al 24.4809686 9.60741335 9.45913331
Al 30.6035444 24.1652138 8.10785714
Al 14.6688901 1.70966109 9.90386815
Al 18.0445783 27.3665707 30.4697004
Al 11.7782237 32.5677381 31.6783688
Al 14.0148594 3.69850086 19.2534434
Al 21.9229855 11.3832178 13.2601267
Al 0.0763804122 30.3213662 0.443397391
Al 30.8847046 18.0823731 31.1600269
Al 22.6108393 26.4836087 22.8065307
Al 6.36936075 1.48278805 20.4033454
Al 16.5813867 9.74568068 19.6999376
Al 5.4092451 19.8848833 15.5328106
Al 32.2134204 31.7026201 5.5453643
Al 3.59763224 5.86543621 11.1446407
Al 32.0470608 4.04953794 20.0527129
Al 5.1256899 15.7052847 21.9317623
Al 7.67787925 8.2254039 14.4440852
Al 3.26582828 16.8585316 5.35046625
Al 10.6334807 1.531932 31.9880539
Al 30.3824568 24.675114 12.7669224
Al 21.3270918 9.26779607 2.58022768
Al 20.176038 6.22914919 20.8134565
Al 26.0995344 12.2989296 2.25290503
Al 14.8282459 24.0816045 11.7261301
Al 24.0779941 28.5082374 5.66116151
Al 6.00774028 28.1767057 23.8509061
Al 15.8434513 27.1301768 2.02019131
Al 5.93880274 27.0696008 17.278918
Al 3.74550411 26.2673707 2.02328413
Al 12.1035319 13.7097888 1.07896014
Al 8.30199516 9.31517753 25.0604935
Al 25.2794084 26.4159603 26.6535212
Al 2.08747246 19.2117672 21.8567719
Al 12.3706441 31.661485 17.8748597
Al 30.8236594 6.12704384 18.9545784
Al 16.2078749 10.8982008 32.5703662
Al 16.9907006 14.276245 29.2240686
Al 0.0415563212 28.7796747 29.683897
Al 27.6825647 28.3119587 22.7288554
Al 27.7092152 3.65074073 9.48787577
Al 15.5061385 15.5229724 18.0724703
Al 19.3021938 9.03320003 8.23500009
Al 23.8253898 21.6322841 3.89431871
Al 19.6994783 10.5687683 16.356368
Al 27.1081207 30.9531222 1.63563323
Al 19.2058705 12.3039752 23.7571818
Al 22.0616904 23.7159871 7.77728786
Al 11.7060018 8.17452205 2.00805805
Al 20.9337485 18.70034 7.33428919
Al 8.21649197 1.67170631 4.36542803
Al 28.0881161 18.5555825 30.4218121
Al 9.58877203 18.9202183 4.81801011
Al 32.0010621 1.09368398 29.3746752
Al 13.9496254 22.8557624 25.754842
Al 29.0519757 4.93125863 20.350737
Al 31.0996698 32.5964627 3.00948329
Al 21.9503562 30.5517256 17.2432294
Al 25.7551854 26.533562 18.2970041
Al 29.2098888 17.6555469 19.8883818
Al 13.1412253 6.47795294 20.146899
Al 9.16699321 9.35157959 19.01532
Al 12.3936683 8.86119363 13.6496821
Al 5.80594502 6.20081216 30.0197593
Al 0.736020654 32.747027 20.423103
Al 26.0273503 16.6802742 30.1300629
Al 13.5902905 0.88427457 12.4864916
Al 5.25098675 11.6744436 30.8407273
Al 12.603705 16.9419332 1.21510376
Al 16.8786189 23.32675 8.32023844
Al 7.97713641 33.1560124 6.93470037
Al 11.1674804 27.5973074 4.51163191
Al 2.52201759 9.62432995 30.8285477
Al 14.2727972 20.9880317 20.0061171
Al 33.1025712 23.2324137 16.9658278
Al 9.50595407 16.4407981 14.3414964
Al 27.8241019 13.6719975 28.0600267
Al 16.4011152 29.468791 3.17234997
Al 28.1004165 14.1379051 23.0787465
Al 18.7117579 3.16357187 32.973788
Al 13.84536 6.25010374 17.6767765
Al 16.3271627 31.0481975 6.01515076
Al 7.69978762 26.6696455 31.2126031
Al 19.1222013 24.1097388 30.0511811
Al 11.0069315 7.00691852 17.4771494
Al 27.7940431 1.99368982 24.2213668
Al 4.56513131 19.3694954 6.00980709
Al 21.0255371 28.248108 24.0411959
Al 28.297125 31.3334442 19.7374073
Al 1.76660784 4.15695879 32.9462102
Al 32.31592 18.2643593 10.9392412
Al 28.7034233 29.5176057 17.8990934
Al 30.0512633 2.01703857 2.05768559
Al 29.322193 6.3394841 16.750682
Al 4.38655699 20.7810027 30.1848911
Al 21.2748283 7.13825226 7.16974884
Al 1.6025689 13.5972323 2.53595536
Al 25.8135691 26.9365554 2.83966486
Al 3.2057022 8.65558836 1.67514658
Al 1.00741736 13.6595538 28.0677371
Al 4.41721121 13.6702783 7.10752934
Al 20.0284071 0.96480482 31.9997059
Al 13.1856508 31.6343031 11.5729705
Al 9.75598921 20.2187351 17.0865876
Al 18.2644988 32.9577706 14.1028595
Al 25.8871517 4.66259687 32.9473152
Al 25.1075809 9.72082112 15.8177462
Al 19.0475206 0.838891529 4.30834826
Al 1.06584951 29.1444709 14.3332074
Al 15.9705254 33.3172127 14.6902954
Al 24.7490912 21.0089303 32.3465607
Al 3.75900864 1.59019818 20.2033231
Al 25.2048526 22.7116278 10.9638449
Al 31.9264871 33.0438818 24.6677684
Al 19.7453766 28.4151836 26.4491753
Al 1.94790693 24.303536 1.70043457
Al 30.9708939 20.6760538 21.9481437
Al 23.1629415 2.0669684 29.3407577
Al 24.0673565 11.8518908 10.9373543
Al 6.9489806 30.3555554 12.6210847
Al 33.2291905 12.1314188 15.0410668
Al 14.5250271 8.2300096 27.454196
Al 15.546053 4.08243966 9.1709622
Al 16.3467413 9.12632644 22.9098466
Al 7.32801664 11.0465981 15.6500689
Al 26.21186 13.9191128 18.7503018
Al 15.7181817 30.0767201 0.665179601
Al 11.4899539 10.7604078 33.056501
Al 0.741227771 5.40471154 26.1368931
Al 0.285578293 19.6309207 8.32860439
Al 16.9138495 24.2778346 21.3716112
Al 16.4801144 19.2687679 13.5151381
Al 32.5558566 1.30901049 2.34574033
Al 18.9809026 12.4560299 9.19024514
Al 6.56029275 28.8688551 26.6761841
Al 30.7249159 18.0378568 23.6707686
Al 4.48104645 28.8304168 28.6955942
Al 21.4784686 20.5574939 21.4290512
Al 24.1762914 3.47425693 19.9576997
Al 23.1404046 26.4605777 3.16200313
Al 22.5974419 22.2631471 23.2175378
Al 18.3149554 28.348731 0.901843931
Al 10.3476188 13.0932692 32.3815005
Al 19.8903921 15.0620484 23.5036442
Al 14.478998 18.5593817 27.0195152
Al 0.594341453 8.80705199 5.28678839
Al 5.00165972 24.2254556 0.454027542
Al 9.82289148 14.9931247 30.7516508
Al 2.40076613 12.2109553 14.2803354
Al 20.2000336 14.1594004 33.3489465
Al 14.2133116 10.9755682 6.0428931
Al 19.408696 31.6874976 9.04285189
Al 25.2642407 2.84898057 1.43883222
Al 7.70804557 2.76575204 14.5888139
Al 2.02689226 2.04055229 1.0688098
Al 20.36183 25.5271977 19.2899328
Al 13.317076 11.9303995 16.7829756
Al 18.0512356 32.1305301 11.5268712
Al 17.2679927 30.7740289 8.59545342
Al 22.2405774 4.67976792 13.8124787
Al 18.6441239 9.34784153 24.4570979
Al 5.06216745 10.012488 20.5471299
Al 18.6719678 24.6878777 17.1642053
Al 29.4301211 11.2034687 10.8702528
Al 11.8648321 28.3992917 24.0545695
Al 27.5349382 4.67368629 23.0837358
Al 9.33776345 24.0449679 13.5474784
Al 9.82443768 6.40601807 26.4045746
Al 32.8078631 27.2214127 31.9006994
Al 6.07254145 20.6387917 8.01167938
Al 14.0128035 14.4067253 15.7126311
Al 3.1002823 6.31528984 27.1337149
Al 22.1034853 6.19980149 16.4358309
Al 9.56801056 1.09403064 8.80039058
Al 12.8691435 13.2259352 31.9632756
Al 32.985262 22.0426758 24.2915896
Al 26.6672857 20.2265495 24.9297704
Al 22.4830629 12.9895373 32.829581
Al 18.9861796 31.9009181 31.6105531
Al 1.86763471 16.5396599 2.58899755
Al 18.5352963 19.3131811 23.339214
Al 6.18579299 4.85759521 15.9021731
Al 30.8483422 4.93909037 6.05564884
Al 8.61936126 30.571467 30.8491836
Al 3.62024927 2.0774788 17.7026154
Al 9.68693024 4.02267642 12.4978347
Al 16.4114986 5.75506798 22.428102
Al 24.6528391 24.6263471 12.9037743
Al 12.2809787 23.1146445 20.3941028
Al 18.1342539 6.13913708 1.87071677
Al 12.3824672 16.1385306 9.2183753
Al 1.58361931 24.8868176 22.5786554
Al 1.56962 14.2904022 16.0742586
Al 30.1831999 15.421845 24.7452262
Al 14.2397083 8.70978357 20.9742034
Al 10.0112683 13.69535 5.33298138
Al 29.5378644 30.3642633 27.7041826
Al 11.948469 24.2434183 25.5696461
Al 17.4655493 9.07925443 12.5149167
Al 14.2806621 29.7772606 29.5809034
Al 8.39243161 27.5608626 19.0918264
Al 1.27525906 2.00418533 15.7163776
Al 17.8771814 29.1671736 23.1922165
Al 2.86435729 15.0273208 13.1533997
Al 18.9291016 4.5854463 22.4081702
Al 2.09710344 28.6096521 27.7423668
Al 26.6069063 10.0470792 3.61031203
Al 6.36276912 15.8001226 14.4401519
Al 12.3947224 9.02810568 16.5919465
Al 18.7183124 9.97399335 32.2183279
Al 23.3443994 17.2020828 16.6402801
Al 27.0362372 0.043139681 32.0712295
Al 16.9975952 17.0030672 0.54059756
Al 14.5273132 32.7031731 31.9214871
Al 11.5791037 27.7728497 14.4095199
Al 30.9565144 7.40425832 5.61571049
Al 22.1772533 14.1778557 13.6122878
Al 25.5791594 15.9560224 32.8660345
Al 32.2801354 18.3226249 6.41920042
Al 1.48477463 19.5729264 5.99167542
Al 18.6130817 19.6015304 7.75466139
Al 17.2149285 0.767500817 31.9646455
Al 8.95165614 17.0349665 32.1811837
Al 18.4750115 20.9287493 25.8674931
Al 12.5162863 18.6026026 9.09621016
Al 29.2883613 21.4824536 13.4655089
Al 1.52488159 18.6474127 0.532203685
Al 1.220505 33.3275471 4.88190492
Al 12.8924061 3.41051966 13.9965067
Al 9.69373263 14.3850245 23.7368472
Al 29.9437147 19.2128684 28.8103298
Al 3.09377507 10.1312099 25.9068233
Al 8.53804237 30.335664 5.41704803
Al 11.9710392 21.2960331 9.76189488
Al 28.2313715 26.6781468 12.7356009
Al 28.5210092 8.54569265 31.8460512
Al 22.9239631 7.19067286 2.5433587
Al 12.4917077 4.79568236 30.0654438
Al 18.3637355 24.2096656 24.1100349
Al 9.13741806 19.8579802 24.788283
Al 23.6453512 12.1760461 17.9511763
Al 10.88152 27.7739796 10.3063034
Al 13.444051 23.5104615 0.223366948
Al 17.513583 0.0799711974 9.28521989
Al 15.0016565 9.44415526 9.55077141
Al 18.7289937 31.2891888 26.7957744
Al 12.31459 25.5811381 2.40075735
Al 9.75203644 10.3747378 8.46814506
Al 32.1069929 19.2245937 33.2157518
Al 20.7792098 12.5958144 15.5018804
Al 22.296975 16.7741849 6.06874473
Al 23.118436 8.9271662 0.386508957
Al 16.3644707 9.07079691 30.7805425
Al 0.171017316 7.81194549 20.5701942
Al 24.3645725 4.30497675 30.7442363
Al 18.3011259 3.16055608 2.43434423
Al 11.5451501 19.9901021 7.08137849
Al 26.1278175 19.0701796 20.2798508
Al 27.4307998 23.5022706 29.9015303
Al 18.0000787 5.55430045 11.0957366
Al 5.45835653 6.98792814 3.56421504
Al 3.99554978 22.6750526 26.2540863
Al 19.2507475 3.40182204 26.0264352
Al 12.4634801 9.83454934 27.8338747
Al 11.6446425 19.8145579 12.1974468
Al 11.7493657 11.9864727 23.1442322
Al 11.0837686 1.76320599 13.0156598
Al 25.0055966 19.2939443 29.8223679
Al 11.9668618 32.525248 26.1803039
Al 24.084942 26.2436314 15.9667479
Al 19.5199114 7.75220882 22.81894
Al 22.0769338 11.2247614 9.45469997
Al 5.02033067 8.86816171 30.796887
Al 1.23017039 16.7266089 14.9565724
Al 12.1814552 15.9780748 31.7976901
Al 11.5198874 5.89819638 0.0133141705
Al 1.00062915 12.4676091 4.79998409
Al 19.0424758 10.2271953 27.6029166
Al 18.4764898 2.50695027 18.6452323
Al 14.6113981 5.02028687 6.49076321
Al 17.0247035 18.4395954 25.5217161
Al 16.825294 18.3142789 22.0626903
Al 18.2183051 26.802617 24.3300285
Al 12.4621307 14.5797162 24.2679795
Al 6.36212572 31.4351095 5.07290567
Al 2.70907279 19.0831394 15.396839
Al 3.04304241 13.9178418 18.3729221
Al 30.5898258 19.106394 12.8257876
Al 23.4459757 29.5867047 24.5600655
Al 25.9871914 3.68532969 25.041917
Al 30.7955569 9.93235743 25.5871478
Al 0.691142627 12.4980836 20.5810861
Al 25.3616761 14.4433678 9.76919055
Al 8.39796195 7.2355064 11.9036034
Al 29.6037864 3.10376313 30.2703953
Al 25.7827823 27.7016601 31.590261
Al 13.2012238 26.7702743 26.0184624
Al 1.0891025 2.29581776 20.3908294
Al 33.365321 10.7168627 7.01319726
Al 30.9207816 30.3226673 18.8521975
Al 17.8372047 29.9899903 13.7894453
Al 9.18464253 25.9202839 0.18537303
Al 4.40349222 24.0588588 14.3196402
Al 6.93829786 31.5298457 18.160557
Al 9.17902721 4.13880575 4.07661666
Al 17.804521 30.9723227 20.9465706
Al 21.3530364 12.5579783 6.77889968
Al 26.6250695 2.15155745 6.01338352
Al 19.7618183 4.01629023 16.2070519
Al 22.3164324 23.706841 3.37089443
Al 11.8077033 20.7296471 18.9201007
Al 25.5711079 20.6666564 1.37630458
Al 19.0997941 23.6707301 27.2972356
Al 20.3754141 22.4139071 24.4678253
Al 11.6639891 13.9392916 21.6794187
Al 11.1908504 25.7937062 21.7926151
Al 9.04529725 2.51174393 17.6430585
Al 3.96390654 6.40382126 6.04342851
Al 3.52653478 4.73437113 15.6675471
Al 14.6387385 13.5923721 6.75359673
Al 14.5128299 20.3853709 8.79592739
Al 31.5581019 28.5724979 27.4530146
Al 13.4109391 8.13305514 32.8364406
Al 24.959261 5.44860962 2.28664492
Al 29.4606479 9.32976321 7.65074691
Al 10.4354494 1.18442498 26.607357
Al 25.737664 4.83688501 10.8219883
Al 0.308469068 6.06004509 23.1333208
Al 23.7338297 12.7731244 22.6619404
Al 13.8293505 5.5619674 32.1631377
Al 18.8715084 11.1452922 6.30528174
Al 16.951084 32.0274341 16.9093434
Al 14.458778 14.0202599 21.2753817
Al 12.814032 2.81241424 16.8524591
Al 4.97798379 25.9032362 28.64011
Al 19.6466108 0.0210318332 29.198173
Al 10.5451617 21.8694204 24.3673092
Al 0.898800738 21.9604416 7.3999144
Al 14.5918714 18.6648977 18.1094963
Al 25.1124459 8.09832299 26.2667203
Al 12.5901742 23.1900555 30.9019095
Al 16.9915049 9.78466739 4.65924488
Al 5.33519395 18.4300029 29.9008536
Al 17.0410277 22.0731219 23.9152009
Al 5.45066153 15.8749695 24.6630973
Al 9.55761693 17.8477536 11.8679936
Al 26.0041232 10.652444 26.8038755
Al 29.4345314 16.8555135 9.19014174
Al 30.0747022 22.3551591 23.9127225
Al 17.669652 4.48017273 6.9217828
Al 21.4861601 9.70899357 6.88021483
Al 1.75858108 27.9622903 31.22465
Al 24.6591087 16.689046 21.4301492
Al 21.5581548 30.2397979 19.7855086
Al 32.110594 14.7552502 16.7698908
Al 6.68788139 7.29293768 5.72305078
Al 1.00915259 1.23811903 24.6548253
Al 23.7624317 23.1421877 5.93080414
Al 5.29205837 4.32239629 20.8380983
Al 25.0686612 21.2620656 21.6991951
Al 8.30708253 16.513124 8.39149095
Al 11.9444568 16.9306385 4.19492731
Al 20.7295167 17.1642709 25.3782222
Al 5.1055639 25.7712296 20.9205334
Al 27.015232 29.6178642 27.8441127
Al 27.4946403 1.84114022 26.805133
Al 13.3439467 29.5353359 26.4733911
Al 29.834622 3.80379081 18.1426226
Al 4.76866628 11.6417358 15.8830436
Al 12.749922 23.3060021 15.6388931
Al 33.1974659 6.56097735 28.3953586
Al 12.6143124 23.0666643 23.2049008
Al 11.1451068 32.8798845 19.9612103
Al 1.38553917 30.9302216 6.42435237
Al 13.5082809 30.4636562 8.58800182
Al 21.7106168 30.5928972 26.7973288
Al 31.9808381 30.0522719 3.615618
Al 10.6655764 29.5771564 12.1252437
Al 11.3428965 18.8631398 26.4044358
Al 26.8253119 3.01236443 30.3624486
Al 24.4018901 29.8164959 12.7167202
Al 33.38602 19.7985586 20.1966816
Al 26.4203392 8.13924514 14.2964391
Al 8.86077813 0.441143171 19.2508691
Al 32.2216132 14.9730865 10.9349827
Al 30.7727371 25.5372006 10.4069036
Al 12.4299882 30.4262779 20.368908
Al 20.4285945 3.62079492 30.440543
Al 21.7621546 6.14839501 11.8207117
Al 7.99037973 15.9952529 16.8740345
Al 10.2300867 10.1682144 13.8870768
Al 3.70892698 29.7904385 31.1029031
Al 2.72481036 0.510981416 27.1236336
Al 5.35733206 16.8276182 6.82878699
Al 23.02773 33.2437049 16.4156927
Al 27.7759312 17.9384822 4.29725004
Al 24.0287865 4.66957197 22.81261
Al 0.704330863 13.651678 12.7935384
Al 12.1236015 17.3824894 19.7721598
Al 6.32176257 13.4086006 13.4358167
Al 13.6871314 28.9524721 1.02313156
Al 15.7269982 26.4828895 30.295218
Al 30.5206019 5.42548585 1.50463516
Al 8.60310428 1.20956943 24.1754502
Al 26.83175 15.9546257 6.09691706
Al 11.9930184 1.30364195 0.992810335
Al 0.258511628 33.1168464 7.49759498
Al 29.270253 10.8959224 27.8469197
Al 9.20472068 3.27678363 9.88949725
Al 30.8064526 20.8196658 2.40045887
Al 19.1054217 13.8581425 6.63702735
Al 9.50508968 16.3165143 19.1031564
Al 19.4896316 7.4436291 11.611632
Al 20.4443191 12.382157 18.2502072
Al 6.26552558 27.4907299 3.21730589
Al 30.8233798 10.1749793 16.365647
Al 28.4875132 2.60964657 21.3405975
Al 7.75178666 25.2142238 2.29562532
Al 10.1131231 4.37076713 31.6557207
Al 20.2623207 25.9896878 2.68699979
Al 5.71080017 9.92082197 25.5316035
Al 24.1933093 28.5050743 20.0451982
Al 14.7555506 21.0621831 23.205697
Al 1.30367476 19.6407084 11.1319237
Al 10.325177 14.3901448 2.6117501
Al 27.4656672 29.4649953 9.05251719
Al 3.63995692 2.96738564 29.2284147
Al 26.4235036 0.945030418 8.89348992
Al 30.4758953 28.0167485 11.630487
Al 24.7722113 31.4479351 5.54836599
Al 13.478158 20.7713003 27.4270791
Al 7.38675172 14.3148633 19.2559186
Al 18.6342813 11.9013455 0.48748751
Al 26.0732161 14.4900538 4.04749756
Al 9.21453034 27.3920605 15.8260635
Al 16.4912978 30.3640893 31.2074732
Al 10.6479969 25.5056618 29.1150018
Al 26.0497332 7.52128179 19.7585115
Al 23.4811521 26.8409047 11.7936813
Al 20.699373 12.1972343 31.1856059
Al 30.34315 32.7879329 30.2515039
Al 1.18614449 11.1138222 27.8590803
Al 9.26257221 30.9844809 7.51709332
Al 20.4834194 27.0408735 30.6629426
Al 23.5354503 3.92517417 26.5024679
Al 29.2013286 22.9377307 21.4887665
Al 16.8849256 22.7329663 18.4135446
Al 13.1722256 11.0805597 19.5851644
Al 3.3907501 32.8337333 24.6858798
Al 12.8621472 27.8489956 18.5777226
Al 1.10189401 1.59567548 9.18398793
Al 8.04830468 18.3407955 17.7233457
Al 24.9379866 24.4953395 3.93108307
Al 21.2216629 26.7695569 10.253399
Al 0.0882430945 17.35635 17.9236439
Al 3.56418493 24.3725505 16.9408502
Al 0.465136152 26.2710023 5.76718959
Al 14.1297866 6.46261405 13.6817187
Al 12.4523855 0.0243392933 15.1817958
Al 31.6899935 26.276585 17.0828757
Al 30.9588994 11.834235 6.71071039
Al 28.3678059 12.5825944 20.46513
Al 9.62261406 27.857887 22.5888774
Al 28.8938817 17.2562199 2.09894512
Al 14.9669099 23.9021822 14.5491721
Al 20.8153372 14.9206113 19.5942124
Al 9.14133958 19.9092549 27.7975697
Al 7.49260766 5.141155 10.3563868
Al 7.07553779 21.0015902 26.2251346
Al 6.28515464 32.1791421 27.1341982
Al 22.6585583 20.6943269 28.7936949
Al 32.1472366 27.8396447 2.49747801
Al 14.6446629 16.2764391 5.07642853
Al 3.63203255 1.39510259 4.89834339
Al 19.1559703 21.5903841 22.174667
Al 26.1326043 30.0190205 17.7852105
Al 9.02934702 11.2355701 23.0670822
Al 17.7511725 10.9156606 30.0064304
Al 2.48515626 31.1289491 13.5278234
Al 32.3118404 8.04133568 8.62769448
Al 10.659057 17.4447022 30.0564187
Al 12.9295992 26.1838407 10.8887599
Al 10.1677125 12.4174725 9.7856232
Al 1.25656759 9.12585204 17.9800066
Al 29.9454666 28.6144534 15.406694
Al 17.3634714 16.0564623 15.8792585
Al 29.8050999 14.2813273 10.4162541
Al 32.8744826 18.2942902 25.6857212
Al 22.9815491 32.8231798 18.895844
Al 2.57791709 3.45654053 26.952946
Al 5.22186408 23.9778819 10.307835
Al 25.3102712 3.18658897 28.0515108
Al 5.78847248 22.1463769 31.8284825
Al 18.3299821 13.6733302 15.5556728
Al 10.9772147 29.474693 27.0396768
Al 24.4647835 16.5410033 7.8100991
Al 11.1882187 33.0980806 6.972867
Al 31.6447289 10.4020703 8.91798655
Al 27.9196258 18.2991476 11.5723256
Al 0.125378071 14.5674084 22.0334482
Al 7.0924935 11.7410782 2.78625563
Al 13.6301921 30.086406 32.121128
Al 18.5233457 4.94977603 29.8290054
Al 16.9820926 15.1470514 5.76814384
Al 13.6484878 2.40405296 7.81797229
Al 30.7996695 25.9126387 23.8979504
Al 23.0785925 4.72794339 0.229810903
Al 17.7077349 11.7796851 13.6860786
Al 20.4264162 24.7915872 12.1893926
Al 31.1076439 18.9520651 8.95750055
Al 22.1429802 32.1459577 21.3914749
Al 1.83331615 23.9417551 14.8850378
Al 2.94725032 16.7600911 16.7560982
Al 18.3980163 19.2326623 27.7416579
Al 6.87113939 20.0513593 2.22752833
Al 33.1325555 5.78589621 18.6248388
Al 12.7421852 17.1455241 25.0898041
Al 10.2735728 27.2379203 31.5411847
Al 31.1022915 16.9228281 0.118165424
Al 22.3822852 19.0072041 11.57577
Al 32.3911782 1.32853283 32.789015
Al 25.1426132 31.8841499 28.0316554
Al 2.38018754 20.4377846 31.8921883
Al 2.19775538 6.7089702 18.9618575
Al 19.3508339 12.9057809 20.7686297
Al 26.5458826 8.10966788 17.2186737
Al 20.5185807 17.864169 22.8972243
Al 3.00566961 20.703893 8.76802799
Al 13.2095536 26.4386707 16.1186433
Al 19.4109933 30.5807953 16.041862
Al 30.7691395 7.79286114 27.3966226
Al 10.1197399 32.1214429 0.260041559
Al 1.32345928 22.760468 19.1628287
Al 14.4278186 17.5510019 32.8354138
Al 5.81688055 16.8115552 31.9339763
Al 22.2067098 13.9921148 10.9455512
Al 32.7197904 6.85111821 10.9027534
Al 27.4985613 23.9023378 12.0739193
Al 1.4412872 14.0464218 10.3255818
Al 17.7653815 26.2994626 27.6186667
Al 3.74717219 12.968496 29.2920537
Al 10.9378156 0.494702782 17.3409227
Al 26.9605808 2.8575568 19.1690675
Al 23.5719912 31.9713862 10.5787259
Al 27.974197 4.82604025 12.6913185
Al 18.3539017 14.7410719 12.7337175
Al 3.82955262 27.146267 18.661744
Al 14.8592753 4.48871502 15.5661758
Al 20.0727211 18.9706925 12.9124725
Al 30.7686477 22.4449987 6.0394591
Al 3.59231125 27.2417078 15.9068387
Al 2.89601378 22.0339925 5.71231963
Al 24.1577798 9.25648719 20.5385669
Al 32.2411195 7.67779414 0.301307811
Al 24.1486801 9.98703171 12.8075862
Al 28.3801467 27.016096 10.2167415
Al 15.3193346 24.7147481 17.4591993
Al 15.1556228 32.1955314 9.82716935
Al 19.5536688 23.3838174 3.63724101
Al 26.3298933 12.0288209 8.91622773
Al 9.98482539 8.84330259 29.6834416
Al 16.2825399 16.7723075 30.8482157
Al 28.2548375 10.6686813 17.6421554
Al 21.0143251 19.1778178 1.07180875
Al 30.2264853 27.5547947 21.9484748
Al 10.3046498 15.2388713 10.6971794
Al 2.72062605 26.0242067 29.4099379
Al 28.492086 19.8790932 2.04628887
Al 7.46356134 26.6769876 10.7382826
Al 16.0517803 26.5719578 22.5831138
Al 4.67651687 2.53418105 12.0815785
Al 16.7206086 29.1069936 25.7541755
Al 20.3363313 29.6023104 10.1201019
Al 28.8810348 26.3772181 7.75403713
Al 31.3111331 9.69155716 31.8888019
Al 26.4182717 3.02152806 13.9873422
Al 21.6625452 30.8547628 31.7124102
Al 21.9534902 2.35149331 15.1300892
Al 16.8090967 28.0745722 5.70184868
Al 32.9246772 3.67561783 1.17675897
Al 8.26441486 32.6223162 13.5240475
Al 22.5378707 32.1140486 13.4369104
Al 31.7894523 12.1423263 11.1387177
Al 20.1097368 17.5231896 9.61784812
Al 16.8619674 16.8145243 28.2531475
Al 27.3120785 31.377351 30.0302905
Al 31.1065773 32.1923864 27.1355365
Al 22.0408832 27.6057237 0.680664965
Al 14.6191183 15.4507126 1.3092748
Al 16.3571004 9.39197585 7.25064127
Al 8.61453138 5.59863377 14.6326803
Al 32.8510078 11.8540751 17.8944184
Al 13.1547465 16.5068345 17.4003186
Al 20.5016985 7.74367265 17.9720452
Al 13.246514 14.5990552 3.33893849
Al 31.5819898 23.0337046 0.0357186852
Al 31.746933 8.67753633 18.5815474
Al 19.9595787 16.7800221 1.15420457
Al 1.44508261 14.9310071 4.96213924
Al 28.6438824 6.23696804 26.6023817
Al 17.1439556 22.8858028 15.7905122
Al 5.84756559 8.23937605 28.3174281
Al 1.89608056 10.7231232 2.94115863
Al 20.712365 10.3820631 29.4349912
Al 7.84871832 1.57116864 27.4367666
Al 14.9041714 21.4738617 32.4991508
Al 0.556567675 30.8157906 18.476137
Al 24.2685341 6.79840764 32.5611922
Al 28.0458531 0.390167462 20.0281605
Al 16.1838638 33.0676484 26.2549763
Al 24.4525861 16.9795399 24.448972
Al 14.2770726 32.9518261 7.04435384
Al 21.2471695 14.9848612 28.0324773
Al 1.57482679 6.45379258 9.56880591
Al 6.09032633 0.422370102 25.1381911
Al 10.9872007 25.3222868 15.6376706
Al 24.8485798 21.8063737 16.4417145
Al 14.9696112 29.3987975 13.2219657
Al 9.57871997 0.967015264 15.1308741
Al 27.4208182 30.8858957 22.7068283
Al 2.34015118 2.68189957 13.5822257
Al 8.7485529 13.6041288 14.6693847
Al 31.1427937 0.704620668 13.4834267
Al 15.1758094 9.17290572 12.0972768
Al 11.3340841 7.05515515 31.1332278
Al 9.43794043 0.820840124 21.7960227
Al 12.3390031 16.1857027 14.7319435
Al 13.2916532 26.7807457 5.96904639
Al 20.4004285 30.7186463 13.3989004
Al 18.2048376 29.3850876 10.9946204
Al 18.9275704 8.08983423 29.5825472
Al 16.4506602 14.4345705 3.47564762
Al 28.351797 32.3188437 8.32702753
Al 17.8219855 6.11470469 15.9252085
Al 4.60673145 3.22125407 7.29551597
Al 19.4670494 15.1540526 10.2496943
Al 6.89358159 1.84740671 8.5929824
Al 21.0039914 1.30435826 17.6029679
Al 19.3608667 25.1418996 9.32026396
Al 29.1512115 28.7886502 6.47837673
Al 2.26542588 7.35084808 25.054532
Al 16.1794158 26.3037945 19.5397138
Al 17.8974661 8.46052284 17.6588197
Al 24.6085125 23.6349862 27.4517749
Al 23.008446 3.25217598 17.3099455
Al 4.77871496 18.5610748 18.645836
Al 25.1370759 17.9311385 12.0880175
Al 17.044999 31.7493944 23.9464051
Al 20.7461247 10.4706993 25.108035
Al 32.6986933 5.41312238 3.08272879
Al 19.1797573 28.8623801 3.34464058
Al 15.2866075 2.42611931 13.8912644
Al 4.85834683 12.0438285 24.413501
Al 10.8712276 17.8301231 17.3489019
Al 11.5303913 5.54799086 3.29209373
Al 27.6968365 20.9857757 32.2619753
Al 2.79203592 30.2521196 25.6602733
Al 29.9480258 9.39457583 21.2041417
Al 29.9182458 1.21316626 25.9105
Al 15.1047428 17.9974841 24.0956471
Al 7.11224484 2.96005263 11.9853379
Al 26.5049737 25.4486737 15.3733399
Al 5.6125674 7.44864234 12.3148638
Al 23.0870593 29.3577945 10.4029064
Al 20.9427387 21.105889 3.1670307
Al 21.6380512 0.303096427 9.20278666
Al 19.6438019 5.98144816 24.8520639
Al 19.4296465 23.445053 6.88567564
Al 32.5657806 14.6929365 0.398360495
Al 1.56810516 21.8545159 13.059457
Al 7.27029637 9.93239808 30.0115656
Al 5.89127908 28.6164663 10.2575004
Al 10.1621194 16.0459749 21.7040665
Al 30.7427993 21.4883738 17.3953219
Al 26.6786857 10.4859488 11.3594473
Al 12.6827434 27.4596373 28.5355618
Al 3.92079871 20.0578459 12.937127
Al 26.0191877 32.6504106 15.0181363
Al 21.3913811 30.4922715 3.69406418
Al 16.3454978 0.796277263 11.7850918
Al 1.11834939 6.34839308 0.750544743
Al 2.97470785 0.344426537 14.5278563
Al 23.1195815 15.5494778 25.8426788
Al 15.7209701 0.246620633 4.44158701
Al 3.67193218 11.8995126 1.58827033
Al 4.39755033 10.179699 28.7977794
Al 2.61353149 24.5684718 27.2404079
Al 17.734844 25.5586058 6.96093299
Al 24.3521034 1.13240564 10.3113843
Al 22.6959204 30.9646125 29.3372062
Al 7.58092073 14.1202317 3.73802477
Al 24.7553927 28.0309507 0.410903293
Al 4.07414756 17.3629535 27.4701538
Al 31.0417309 8.09570811 2.88132681
Al 9.27977558 24.5299852 26.7270348
Al 7.15242803 3.15037032 25.2705324
Al 23.4395376 30.5355576 0.520825876
Al 24.8607991 11.7746285 4.76150969
Al 22.901589 18.6757915 19.4643202
Al 5.59022537 2.86782935 3.21218766
Al 28.8841253 12.417399 8.23281809
Al 20.3803502 32.3040105 0.347579393
Al 17.54067 24.8452336 13.4083584
Al 6.20157776 33.2529504 31.6476185
Al 21.9826321 32.6082846 24.3125376
Al 23.3604428 13.2609068 8.41513138
Al 30.1996263 23.3350135 3.23125138
Al 14.3818377 4.32492539 24.5264613
Al 2.32224485 0.926092389 22.3473988
Al 24.7624749 21.8740283 29.6518534
Al 7.01476754 6.44356136 1.51825225
Al 4.66370584 18.0895131 21.0991003
Al 20.2748016 31.9747417 18.5380789
Al 26.9871493 5.71038926 4.15547776
Al 2.63072246 12.6894132 26.2805864
Al 24.1940213 10.8575831 7.14761038
Al 21.754167 14.6683447 17.1993167
Al 26.906424 30.3049971 6.47654853
Al 4.46203051 23.1316429 29.0104368
Al 20.6431397 5.81388005 3.13980823
Al 33.3881286 32.8336259 13.6422817
Al 13.8416209 7.94358735 7.71607431
Al 1.09638753 9.25397809 0.108015463
Al 20.6725855 3.22343569 3.72221398
Al 19.9857843 0.318712784 20.3741949
Al 25.9775136 27.8500528 16.280737
Al 28.1938681 21.0034236 4.56857997
Al 15.2482668 12.4567861 30.4268148
Al 5.68420092 13.5193506 1.21339646
Al 8.01862375 14.7082824 25.8853789
Al 20.9528237 6.83149403 0.50525223
Al 23.5293005 21.0876497 19.6196717
Al 24.2517904 2.48461173 12.8576017
Al 33.1787045 20.2580757 13.3522493
Al 28.2788356 17.487758 24.8452193
Al 21.0846123 15.2130786 7.89087874
Al 10.3309613 9.44115433 11.1551846
Al 22.6099661 4.54779039 29.0327135
Al 0.487895784 21.9024565 32.4653879
Al 13.7253275 18.0770725 6.74175356
Al 6.39159541 23.5810162 26.3515775
Al 10.219489 14.6366182 7.99363672
Al 16.981664 26.008011 15.7972972
Al 14.0175587 18.9032906 21.3816556
Al 6.82708808 28.796592 29.4042617
Al 15.5519292 33.1486726 1.12540114
Al 19.7346647 10.0593855 13.6502559
Al 25.8719451 15.840044 27.0853706
Al 15.574816 16.7932545 13.493369
Al 2.10325662 4.83556202 7.04302644
Al 1.70381406 23.1310436 24.8945523
Al 7.80499949 20.9813358 14.4959409
Al 25.2515821 8.19871916 1.59469143
Al 7.31493756 10.7526427 13.0434341
Al 5.31249825 32.8613239 8.10876061
Al 29.621936 0.818800692 5.24003325
Al 0.442073735 4.78252393 15.8746952
Al 10.5882806 21.967237 26.999938
Al 26.5361258 24.3694264 19.7733108
Al 27.199406 6.76838049 0.214611049
Al 26.4072623 18.0195016 1.89173855
Al 6.48195613 15.8824972 27.4734379
Al 29.8889642 15.2286092 30.4606322
Al 21.8129392 7.64726567 4.66252221
Al 14.4593678 3.22074508 4.51808569
Al 16.7946052 27.633439 13.7802658
Al 20.8487823 4.20645579 18.5499411
Al 31.8798139 27.5795955 13.8872381
Al 29.1101697 16.256298 17.8257757
Al 2.27163215 7.08085444 16.2185234
Al 4.90976628 26.2033103 11.4736789
Al 25.6715383 12.2371468 13.2359345
Al 21.5158298 8.13360411 9.76376199
Al 16.943324 11.7376765 8.18354638
Al 24.2096808 12.7279186 26.0033111
Al 4.68216564 19.3872857 10.0831376
Al 28.0720684 25.2860118 23.1003735
Al 32.775906 5.29040248 32.2659004
Al 7.69618187 23.4075556 4.54022671
Al 3.25360577 5.81394391 29.5713818
Al 17.9155539 21.1139237 33.3584173
Al 31.6891024 13.1856314 4.686054
Al 29.8261333 8.18657705 10.6407917
Al 1.30332772 28.369686 17.6559773
Al 7.31733645 11.9088972 25.8648697
Al 30.793713 32.6620771 10.6789989
Al 10.8147657 2.89029633 28.7009011
Al 16.8109983 15.1303494 26.2384257
Al 12.406288 15.1501023 6.03480298
Al 8.51465921 29.4883948 10.5262278
Al 7.55657009 10.7613195 20.6394754
Al 24.9969331 26.3479524 21.3324327
Al 23.0611825 8.12008072 30.4079355
Al 3.19076789 24.3848588 19.5664296
Al 18.3572609 18.2754147 16.8464278
Al 5.66742213 20.7116474 19.9142766
Al 8.16636472 15.8891561 1.68826944
Al 20.2374737 20.6427104 11.2253206
Al 18.3078063 5.27216093 27.4010172
Al 30.3464341 5.49476714 11.517401
Al 7.19760351 20.6169444 4.80967925
Al 17.7887652 11.6885135 17.9278394
Al 16.2535335 2.62632014 23.158899
Al 7.87424891 32.6462072 29.200548
Al 29.9699128 22.9830428 10.7855636
Al 27.4497596 15.4890296 12.1984939
Al 31.9692121 9.99574452 1.38970621
Al 12.2309473 12.8692362 11.6086747
Al 33.3057688 23.6468666 27.5908399
Al 30.0395576 20.5302513 10.8179255
Al 13.0767342 5.682918 9.05896087
Al 26.1835359 5.63576073 26.5250725
Al 28.641139 18.5028873 16.055071
Al 25.9303317 18.9913755 22.8195258
Al 10.1559717 23.7838878 2.16653856
Al 7.1671107 31.3411757 15.4247386
Al 30.1860687 4.41783243 22.4273191
Al 18.4013586 21.9615756 9.41140115
Al 7.18479547 27.6686344 21.6551851
Al 24.4922793 29.4971447 7.95218561
Al 8.69455073 29.9964467 1.92287984
Al 5.96667239 2.00691058 29.6916051
Al 30.7762637 19.8812731 15.2461805
Al 28.6543085 8.5553567 15.3179464
Al 0.813567907 16.7107903 7.31132242
Al 7.41089307 19.7212133 31.5703314
Al 31.8759851 4.75631588 29.8863405
Al 27.0941056 15.0780236 1.62172836
Al 7.05967467 20.5701649 29.1849068
Al 20.9445654 25.9753035 28.1491514
Al 29.0550244 32.6081674 14.9972553
Al 19.6771806 22.4512935 17.2555057
Al 12.6747743 23.2348504 27.9367819
Al 24.9525181 29.0602192 22.269261
Al 16.4798376 19.3610523 29.437114
Al 8.23541877 27.3636524 13.282273
Al 7.14696142 6.29334533 21.1758681
Al 13.488812 19.7599494 0.805297823
Al 28.350254 8.4309291 19.2922955
Al 28.2556031 28.2309955 2.11730868
Al 9.30065056 8.68191095 21.5456834
Al 16.8187279 6.38533765 13.156372
Al 28.9729181 27.6063775 27.9116325
Al 21.9489782 23.3317935 19.2055528
Al 2.72448936 9.54267134 15.0237005
Al 23.3321732 9.71684121 4.19457147
Al 28.3703848 16.0269492 32.3862162
Al 5.76241356 12.9729327 21.2479853
Al 4.44196109 10.0863125 3.32196123
Al 27.5782647 28.1267205 33.2634309
Al 20.2659367 30.1208083 22.2666636
Al 19.7619699 2.61151872 7.72894203
Al 12.5451169 7.27688378 5.20783374
Al 18.887832 18.9536816 2.34476445
Al 32.3722333 11.6202816 30.9046572
Al 32.021124 24.9795617 15.087809
Al 2.35276263 19.2355925 3.25907735
Al 28.1400079 7.90793776 2.89916276
Al 11.2406766 3.72962465 8.52279569
Al 25.2909849 0.849580024 29.7180613
Al 21.1285376 11.4543796 4.31209862
Al 5.49357466 31.1848877 30.0324993
Al 16.0920828 21.3372705 10.6769671
Al 18.352906 0.725747466 1.09524722
Al 14.8940118 12.0786235 3.63541346
Al 31.6586688 22.5605695 14.8040936
Al 27.3187556 1.5145942 2.98677527
Al 12.6031682 20.0941424 24.5653543
Al 25.6014532 5.047672 6.50618021
Al 33.3210066 29.9629535 25.9602066
Al 21.5260226 8.42895596 20.5885853
Al 29.6914695 15.5483991 27.8511681
Al 22.1127045 2.68016964 32.0485815
Al 9.13792116 26.0174881 8.49491938
Al 22.7219067 27.1751333 25.9384064
Al 2.78720953 6.0280907 13.4742507
Al 22.7851575 19.6391098 31.2220254
Al 26.1324096 6.56140136 8.61561462
Al 13.7602716 28.9288258 15.4594153
Al 27.8699381 4.32311598 1.97050261
Al 7.56718658 16.2045671 22.9916442
Al 20.7431898 6.27671508 29.2169269
Al 9.15895454 19.1656816 0.305470335
Al 9.96887989 30.1623971 24.7361805
Al 11.7917616 25.4345428 32.7502023
Al 17.5768026 25.167198 2.75030155
Al 18.4364777 4.83528942 4.43639551
Al 21.6424007 7.73824672 25.1525251
Al 3.27165617 21.59417 15.7467669
Al 1.92177792 2.1597907 6.87457661
Al 8.64490188 32.3074139 23.8336874
Al 27.1391336 18.2322217 6.62877555
Al 13.6934309 7.56586574 29.9518626
Al 28.8490603 15.1062618 20.8863401
Al 16.6018292 14.1934278 8.40351442
Al 0.243855116 24.5936673 32.7556643
Al 16.5183291 14.2310458 11.0616711
Al 24.449822 13.9232936 0.9920503
Al 15.0014086 16.8247737 20.632767
Al 21.7392064 16.8223333 20.7258515
Al 8.25195292 32.3478712 2.94336663
Al 32.5548841 18.704828 28.3236839
Al 27.3384207 7.79642491 11.9893428
Al 20.3341435 5.14855607 6.27267961
Al 8.22747736 29.7714993 19.9465491
Al 9.75132193 9.52839122 1.07797756
Al 28.3940364 32.5766869 3.53893889
Al 18.7154955 26.84318 11.9580416
Al 32.1814353 10.6638465 3.98363778
Al 23.0652628 24.4592025 10.1794859
Al 1.76902685 4.36624587 2.42148983
Al 25.8405767 13.412599 6.71894835
Al 29.8284336 14.9536908 1.1909098
Al 27.8186795 26.5393131 20.5949309
Al 7.04606681 9.39797082 7.91872402
Al 5.1776893 9.56239635 13.9571266
Al 23.2911537 11.2286664 28.5712641
Al 14.3374688 0.450904898 24.1279067
Al 17.491608 8.28232818 9.97169586
Al 4.23388876 33.3567125 29.3737239
Al 10.8008414 15.212864 16.5526718
Al 24.8147416 11.367648 33.1125838
Al 23.6580572 18.3453689 33.3812842
Al 23.4034358 14.2820253 5.70736357
Al 10.0117002 25.4482092 19.581292
Al 29.9730012 6.66061882 8.35851216
Al 24.6844313 31.7114068 22.6993731
Al 21.7117207 4.25014485 21.0340311
Al 28.4396979 25.7920987 30.6339878
Al 9.88131566 16.9388823 24.3174029
Al 26.5172749 27.3010896 29.2287394
Al 6.27595709 29.9986958 21.9857594
Al 25.3139476 13.096039 28.7388356
Al 1.59051866 28.2974471 23.734721
Al 22.8083799 21.469638 10.6715395
Al 2.88542738 16.7031691 25.2777664
Al 32.7421145 7.76966918 25.4919285
Al 0.303856819 3.17402051 28.1943883
Al 6.57866782 9.90760753 17.7308285
Al 12.3383941 24.3770591 12.7834293
Al 32.0213787 0.185281254 16.0214687
Al 9.78416981 11.1759331 5.74927086
Al 5.20531242 26.8829439 13.8579604
Al 20.8782677 20.9192365 18.763096
Al 4.70394121 10.0143844 33.2706144
Al 4.28197651 14.2332585 15.6994725
Al 31.3177138 5.70403006 24.399699
Al 23.5906417 6.54968452 20.2699503
Al 12.31532 16.8305349 12.1176852
Al 2.84455712 31.8002551 21.7376989
Al 14.634034 21.2770298 15.1333433
Al 19.5508016 32.6403023 22.827207
Al 26.490971 18.6369719 32.6633464
Al 14.0638935 33.3560824 27.2705876
Al 23.7802551 15.9412426 18.8134263
Al 0.494758349 1.68636211 11.8769126
Al 21.8978236 13.2366315 24.2219073
Al 16.5280171 23.7890216 26.2754791
Al 24.6387893 30.4806221 15.4811047
Al 0.607576577 7.3647485 14.1413695
Al 23.9476005 16.2623739 1.97885043
Al 18.9505535 14.6518161 2.26350791
Al 28.3260028 19.3383902 18.3711791
Al 19.1422962 6.43643102 31.7999318
Al 29.4331248 6.49037782 13.8839543
Al 10.1342085 25.6976779 11.6418168
Al 5.31551648 3.99814096 9.82590306
Al 26.1753761 5.3139114 20.8385637
Al 26.4339046 22.488878 3.24672435
Al 24.8553862 33.2390092 12.6199597
Al 25.9466832 22.0698589 19.1222703
Al 3.14589704 8.09839637 4.42031667
Al 25.5094342 23.5150172 8.31950273
Al 10.3598504 15.4450276 0.292034892
Al 1.57590074 12.1007272 30.3909255
Al 31.4458073 20.2567455 25.2687811
Al 11.3298128 24.2942039 9.45986314
Al 16.6419274 18.1066519 6.14045191
Al 28.5884837 31.320233 32.2723897
Al 6.47690239 14.5813959 8.6845859
Al 2.74835328 24.4276024 12.2516256
Al 10.9220532 26.1113921 6.91722012
Al 19.1644363 26.6589932 5.10691061
Al 31.576442 5.1742714 27.1303525
Al 10.4333267 26.83829 26.4370904
Al 10.5613419 12.7142165 15.9581496
Al 25.8906667 25.9912179 10.2482428
Al 12.5484866 10.4885788 11.7263167
Al 12.3995059 16.9524516 28.147574
Al 31.439923 3.29133188 11.7593523
Al 30.7891462 0.53880624 7.55420587
Al 27.3939745 13.184373 10.9035138
Al 29.984927 27.8487657 32.500921
Al 15.8787195 12.0514876 16.0770939
Al 31.7248642 16.2629772 4.91288845
Al 32.8799512 5.92639658 7.17956813
Al 28.200991 20.3515345 20.9973616
Al 1.22894597 21.8736246 3.73718667
Al 9.99497181 4.07081414 1.38095336
Al 12.7123554 31.3309109 28.2617374
Al 11.7900047 28.6592652 7.7775231
Al 10.586273 3.28883354 15.3161849
Al 12.5175484 24.7488358 18.1771007
Al 20.9535345 15.4561495 31.2373695
Al 27.9233055 27.1311861 4.70241621
Al 19.0214074 23.4469232 20.1843198
Al 8.08790216 22.8555531 24.4108909
Al 21.9225735 10.3239816 18.6428272
Al 14.7235812 9.93169634 17.8343506
Al 19.5259982 13.6660145 26.1133262
Al 8.85098021 23.8331986 21.9447508
Al 29.0565479 22.4826712 1.12084897
Al 6.25719577 24.4451935 23.1548845
Al 7.54455776 0.188661426 0.664866468
Al 16.4345603 23.927686 29.1346347
Al 27.2699637 32.8610267 5.87526876
Al 9.60066568 3.46717626 23.5715319
Al 0.730875512 21.4708952 15.4232386
Al 21.1215002 1.6735857 0.991631791
Al 0.310954398 10.17399 25.4298226
Al 27.2686736 7.59688788 28.2352309
Al 9.33062575 6.86041582 0.33441992
Al 15.6862425 7.33386659 5.54585799
Al 7.11998945 16.9445852 20.4464822
Al 20.5070651 25.361046 24.8489897
Al 12.8919347 20.3226271 31.4265626
Al 21.5860878 16.5254075 3.68891264
Al 0.786678418 27.2365749 0.833199822
Al 23.5311844 26.9361778 8.94969145
Al 32.7126913 3.00799202 14.2009975
Al 21.5730334 28.5082171 28.2253204
Al 24.5977385 5.57386697 17.9731285
Al 29.1840113 2.55515927 7.33252952
Al 28.3033128 19.4724767 8.91734664
Al 32.2211291 7.12151222 16.6472596
Al 16.6431898 23.4011065 0.319546188
Al 10.2774893 30.8817929 21.8252347
Al 18.5418232 27.0952457 17.920456
Al 30.7964361 29.9441769 24.2974267
Al 3.71028253 13.3139893 4.18242968
Al 11.2644617 5.36163796 23.8779923
Al 23.4305952 10.4175612 25.2936692
Al 29.9427541 27.2658827 19.1475934
Al 18.077477 1.3034507 27.2717905
Al 16.0841464 6.36464176 31.4547798
Al 14.3446027 19.0259363 11.2185992
Al 13.6088626 28.2913111 3.64868619
Al 3.28439946 29.9674786 18.9818223
Al 22.3154729 15.5688564 0.333649056
Al 9.59785376 12.4749336 12.4953997
Al 29.6319893 19.9872338 6.41334873
Al 29.5355018 1.13512635 32.2309699
Al 27.1069968 22.3032161 23.1415433
Al 1.21357957 1.22062857 18.1064555
Al 27.5895435 24.5493187 4.29577637
Al 1.84234234 8.81154317 10.5001839
Al 8.15034885 6.9556428 28.5415313
Al 19.9921551 33.3942179 25.8854555
Al 18.5944931 21.0888843 5.3581485
Al 17.7440958 21.9761082 30.5617967
Al 22.3442959 19.9121683 14.0131413
Al 29.2134005 15.5759604 4.30195743
Al 6.63305325 23.2048448 7.99624526
Al 9.71987232 6.18599291 5.29713681
Al 32.0192603 15.3607349 27.0053148
Al 22.0345692 24.8977968 0.982559515
Al 5.52832675 22.3090182 5.61640399
Al 0.562543941 30.1353205 9.18428156
Al 8.7401727 21.6353933 2.93881227
Al 2.61347912 9.01967822 20.5061294
Al 28.8225494 29.969659 4.10453041
Al 21.9335585 8.75407856 12.3048304
Al 11.6895263 19.7993551 28.8929735
Al 15.8457922 31.7523978 12.5292346
Al 17.4378368 25.7439167 32.3414249
Al 23.788395 7.8415131 6.88916858
Al 8.58418997 18.5805893 22.4985343
Al 6.97315285 17.6750491 3.76155161
Al 10.434713 31.7682573 10.5422267
Al 3.2897113 28.5541819 0.382870698
Al 4.75264123 24.6706875 30.9967965
Al 10.6518028 31.6537068 15.5966451
Al 28.608481 29.6702747 13.1033234
Al 21.4037003 21.8578815 5.76527149
Al 6.13198552 7.16891771 32.6609315
Al 15.2998348 12.5567509 18.7907058
Al 27.0028277 6.97311254 24.4146108
Al 15.3056877 14.7780566 32.1225264
Al 11.1462549 29.2465375 17.0739977
Al 16.8064718 3.84949901 20.6964022
Al 14.4099234 11.023907 21.7285221
Al 31.4611079 26.5472141 7.23189139
Al 32.3057237 22.1565022 20.1115487
Al 14.3080818 22.1125757 29.587238
Al 11.5257585 4.40691691 21.0173217
Al 26.2226893 25.2910024 6.43495119
Al 32.3521049 22.1683346 11.8719552
Al 9.96199257 22.724656 18.4573456
Al 12.2968552 23.2256388 7.03291405
Al 25.4276673 24.1650515 22.5904348
Al 19.404441 7.83646572 26.6610412
Al 29.182322 3.29785564 14.5208036
Al 2.48851771 28.1505469 10.2915453
Al 1.39192568 16.1878892 29.6998827
Al 32.8853201 18.0645412 2.40958001
Al 29.9939588 30.1319685 21.4537244
Al 33.1438036 14.2943436 30.8731564
Al 13.2443427 27.9032622 30.9575723
Al 20.7838398 16.0778188 12.4904585
Al 14.3356061 12.4424926 0.825537842
Al 17.1157646 4.54433942 25.1342099
Al 2.70956668 25.7694615 32.7434471
Al 8.85791492 21.5029925 9.49839156
Al 19.5646164 1.93144226 14.0189987
Al 9.01831458 33.1172874 31.7198954
Al 8.12097871 18.0626643 29.6436312
Al 28.2821875 32.6198976 27.3779287
Al 6.25785211 22.7306765 15.8977453
Al 16.7007241 20.5341336 16.7043864
Al 5.19567929 16.951477 9.3350115
Al 6.12598341 27.0795622 5.78676011
Al 27.6820254 29.8075737 15.315641
Al 0.228373847 26.9086573 27.845333
Al 26.521378 17.2266272 17.1891332
Al 25.9118042 29.5262936 25.3440088
Al 29.2055906 23.337215 15.5148158
Al 9.72126315 25.4935224 24.112912
Al 14.0528293 9.27982079 24.0704255
Al 28.7685927 13.2192437 3.03338703
Al 17.1574625 11.5251701 11.1244879
Al 26.5776449 3.48330653 16.7264221
Al 26.5080497 32.3625994 24.802277
Al 13.4353908 6.75371709 23.1752198
Al 7.44199172 14.7752871 32.6677527
Al 0.665296606 12.126239 0.419717275
Al 29.7712829 30.3707205 10.7433267
Al 31.1421882 17.719147 17.0088135
Al 32.5242571 14.3908687 24.4632024
Al 17.9234498 32.8583165 19.226373
Al 27.1316702 14.4354134 30.904189
Al 4.45533516 9.34923952 10.4956359
Al 7.72738836 22.0139714 0.401687072
Al 10.8513592 6.83777896 22.0661866
Al 31.3216169 13.5317389 29.2356803
Al 1.39193785 33.2900677 29.3487372
Al 4.13843058 4.57643079 18.4861099
Al 20.219292 30.6356857 24.7438401
Al 8.66493238 20.4647792 11.8987794
Al 7.60816418 26.4277707 28.0292075
Al 26.1463173 6.22499304 30.4490842
Al 7.56966441 17.2503409 25.2224673
Al 23.1249508 28.8733952 31.7794359
Al 23.1802062 2.47630906 5.21927597
Al 7.48768441 4.98027337 32.8591955
Al 2.4370708 3.80476854 9.35944946
Al 28.2527117 3.29878651 4.56903235
Al 21.1639061 10.4968276 22.4221679
Al 24.267649 19.3082977 6.6390283
Al 10.0835728 19.1562014 9.70749182
Al 31.9911888 10.0676317 28.3217976
Al 18.5170051 2.19963977 30.0491287
Al 9.55079059 10.8742371 31.4522581
Al 28.5678201 29.5482226 25.4684597
Al 28.1317856 7.62733201 6.25321995
Al 23.2098153 7.10347151 27.7107778
Al 12.6852123 30.9919989 23.8107475
Al 1.36709421 29.29396 2.52320925
Al 16.7615976 9.50376075 26.5317673
Al 8.14485853 20.1729703 19.7307473
Al 1.12573419 15.9786301 0.0793691508
Al 6.16164664 29.3425761 31.9934843
Al 8.57693132 29.8566733 28.028947
Al 6.48195787 4.81729864 5.13454544
Al 8.66025393 1.79139591 30.0640642
Al 1.61756784 2.15450912 3.63548468
Al 5.33977102 31.6522506 2.69694921
Al 23.2758587 29.1506141 2.70891229
Al 11.3646585 2.24857765 3.2975614
Al 15.2887575 20.3660325 25.5551733
Al 31.4306396 30.3345967 29.6190942
Al 15.5712159 30.9929659 27.6841382
Al 7.15236656 25.9510585 25.3632589
Al 0.913057903 12.3861493 23.974027
Al 22.4857248 9.59405594 15.4182085
Al 28.3962766 11.3212284 15.0529513
Al 12.8833538 7.50054659 11.0011498
Al 3.59088848 22.2025688 11.116643
Al 32.1040583 32.693624 18.5438247
Al 16.3390708 19.5747681 1.48808893
Al 9.46441552 1.37313203 1.91180463
Al 4.91933815 20.3396348 27.8284463
Al 25.3566963 10.0688644 23.6894408
Al 31.2033138 13.0671652 20.9990662
Al 6.62725126 18.687157 12.1917068
Al 16.4493076 21.1317414 21.0579149
Al 4.16902235 4.87087396 31.9582053
Al 25.1543265 29.904839 30.0413425
Al 22.3919858 3.19069681 7.48335569
Al 8.54335601 7.50295841 17.2277251
Al 28.3333898 9.03827549 26.3566432
Al 19.1853147 15.4374005 29.416862
Al 25.0433397 19.2593859 17.9502696
Al 29.3081093 21.8934879 8.27716409
Al 5.76213505 5.99863722 23.2835056
Al 29.3557464 32.1198587 12.5884101
Al 1.02502876 4.48703241 12.0119579
Al 26.3966088 27.7672129 7.57308491
Al 4.52042247 21.0261113 3.45078099
Al 18.9542162 20.3079366 14.9851863
Al 20.9057163 28.0320993 12.514301
Al 25.0323665 0.997145446 24.374371
Al 13.5837712 18.9831129 13.6303171
Al 10.0886113 18.4939928 20.0314059
Al 28.8359628 19.7896803 23.5308892
Al 19.5158406 23.7069974 0.123660879
Al 27.1507895 10.8871094 6.24589116
Al 17.7965789 0.897927607 24.4030917
Al 6.47503801 10.7224899 22.9052242
Al 15.4796912 6.53521092 10.7546583
Al 22.5947402 28.979217 22.1816746
Al 14.8025354 12.1584817 9.69685888
Al 12.8994537 31.7701292 0.662998594
Al 15.6205032 2.11302752 16.4634732
Al 28.651061 22.1160186 18.8883094
Al 22.2856809 23.8133652 29.276504
Al 4.6817927 15.5702198 29.7139536
Al 24.6490966 24.9143998 1.27484116
Al 15.6837106 33.3746966 21.5282806
Al 18.1760054 13.0755959 31.5538085
Al 29.5785351 25.9927044 2.52774287
Al 30.6297376 3.70839754 32.9553377
Al 3.13742201 11.4399446 22.4297732
Al 3.93679191 28.1676556 25.8034356
Al 14.2539474 31.4097142 15.6228625
Al 4.27535699 13.5981631 10.0205399
Al 20.6768482 33.2475134 2.91860835
Al 4.70689146 7.57844545 25.4565282
Al 31.4752008 6.89503605 21.6558265
Al 17.9501825 31.8773602 3.30293496
Al 19.6651782 31.2333424 5.50967283
Al 26.0259796 12.1820846 16.4248807
Al 24.9015511 1.8199144 32.3917932
Al 17.2498007 17.2337676 3.44497953
Al 10.7942493 24.4275181 4.54095932
Al 13.1169412 26.0121889 8.36535251
Al 10.0062909 9.15040291 27.0172791
Al 33.244604 4.20711666 9.65296648
Al 27.5599902 9.01194241 9.69028812
Al 26.6107443 22.8208157 0.442837746
Al 21.4119477 24.5763407 31.623824
Al 22.3302785 11.9882316 20.5744925
Al 13.8484562 10.06147 31.1024509
Al 26.6785803 31.2873924 12.7939197
Al 30.1788024 29.8847002 1.27782554
Al 4.90076197 31.4605111 33.0227684
Al 30.3256148 25.3104876 21.2248581
Al 9.28811968 16.0599646 4.74502122
Al 18.8169947 16.1654757 21.0881505
Al 6.17895545 0.645242128 10.9254317
Al 32.7342943 14.7354575 3.05734961
Al 28.0994358 6.27306356 10.3539895
Al 0.967588142 29.143847 20.6274288
Al 19.665445 12.7615188 28.7385159
Al 27.3299425 1.24767211 15.7863238
Al 9.88169505 21.5002004 21.5807462
Al 31.9552452 23.5771974 22.4100461
Al 19.2946768 16.5515774 5.54944039
Al 7.28272009 9.90118089 4.80639628
Al 31.5874556 30.4136971 14.0075984
Al 14.2798565 3.00950957 30.504735
Al 27.5290171 20.8708752 29.3848728
Al 1.38042845 8.28744351 27.4552434
Al 27.4007248 0.654331367 13.343793
Al 6.82062651 17.7537928 0.80084447
Al 7.22531788 25.3554426 15.4313814
Al 18.2363237 3.50049235 9.4273286
Al 15.0773936 23.8446459 23.2993129
Al 0.309979803 30.9487492 28.2750655
Al 30.2176861 24.4603726 29.4112786
Al 17.5833236 0.174349727 6.63816656
Al 29.9793246 21.9430298 28.6118178
Al 4.1583666 29.2093081 5.8255069
Al 8.51235468 5.82986282 23.5467387
Al 10.4640363 22.5431443 11.6277588
Al 0.449866832 16.7891486 23.7611756
Al 18.2188283 1.36029654 16.3010528
Al 3.25154286 32.5118086 18.3436808
Al 5.60314395 17.4900966 16.3932266
Al 3.14434748 33.2634277 11.3988782
Al 1.24301622 6.28851228 4.85765708
Al 25.3003552 32.12666 7.97307319
Al 29.1361284 1.63176916 9.62115341
Al 23.1226614 16.5575365 10.890481
Al 15.4804564 0.730801431 29.934572
Al 30.796009 32.5769869 0.255024163
Al 31.7673913 7.33688766 30.3335047
Al 33.1678983 30.7635543 11.8485125
Al 32.0289598 16.6580752 8.69743362
Al 15.2001245 27.4297952 17.128876
Al 24.8440391 1.70745986 18.01776
Al 14.0171448 21.1657723 6.00698086
Al 5.21256198 2.47003201 26.9901433
Al 25.3321452 0.417202646 4.45754111
Al 9.29791219 32.1631265 26.7820226
Al 25.5281079 32.5612344 17.5616198
Al 21.0315104 8.89369528 31.640591
Al 26.7136548 16.3271193 19.4247774
Al 28.3423007 6.93680305 22.0052463
Al 7.88890478 32.2266066 9.67766329
Al 19.5622776 22.3328491 13.2902217
Al 15.4814817 28.1953643 27.9675701
Al 25.9573046 14.3189067 21.3851826
Al 14.0745587 4.52264953 21.7376802
Al 24.4504096 1.5296317 15.360997
Al 13.6354857 24.6804975 4.44705488
Al 7.68642648 28.3115791 8.27844308
Al 9.19644679 4.97711026 17.1957607
Al 29.7504052 7.76907371 23.9367823
Al 19.0901789 29.0616432 7.26827146
Al 18.3033357 16.2985848 7.96933535
Al 26.9373902 19.5785781 13.8648764
Al 27.7054621 17.4099529 27.8423578
Al 3.98863213 29.280993 3.18023623
Al 29.4362334 12.1023705 30.3165868
Al 16.4403985 21.230055 6.98176664
Al 11.4436668 30.1703721 5.9665057
Al 28.1654485 4.91656162 7.13731221
Al 1.02828982 22.9667072 9.88690033
Al 24.4084601 4.26746107 15.3169065
Al 0.0895889811 33.0578139 10.3844423
Al 22.0481533 22.0541979 31.1082594
Al 29.2756829 18.8365119 33.317676
Al 1.67118519 23.2400154 30.3722438
Al 33.027403 14.6016038 7.03088639
Al 1.24186239 28.4831835 4.90815071
Al 25.5520475 16.3813911 14.5058515
Al 31.0940076 25.565688 26.5440619
Al 32.6808899 26.8462851 22.2143808
Al 6.34765764 0.754438945 13.6107405
Al 14.9851391 24.4798675 2.24178498
Al 6.03512106 29.7832683 1.5554748
Al 17.1538958 12.4722398 27.0996463
Al 5.86777361 11.6373138 9.23711809
Al 15.0177105 28.7313917 20.1611701
Al 21.5637701 24.783838 16.8587819
Al 11.2407152 7.434499 8.48097883
Al 14.2691316 0.249623736 17.3901555
Al 10.7739403 28.2514745 20.0816447
Al 25.6003025 8.86490782 31.6708536
Al 10.2407777 13.8031846 19.1331547
Al 32.0524583 22.0764536 8.98707044
Al 32.5533374 3.37346581 22.7397407
Al 8.79428087 13.0370593 1.16889737
Al 12.0906556 30.3553526 13.8911118
Al 5.39236846 21.7028097 24.4117402
Al 13.1979215 28.2615314 22.016974
Al 25.1486312 0.15906392 20.264029
Al 27.2666233 11.3030468 32.0290295
Al 14.689423 9.77330716 14.7207897
Al 11.7462285 1.83932664 10.5831503
Al 16.2222805 14.0975195 13.9400493
Al 30.4562782 16.1541755 12.3710605
Al 10.3974613 7.76640836 15.1488385
Al 3.15083163 31.125214 28.4151074
Al 20.9064402 19.3847203 27.3410918
Al 16.8157256 30.213377 18.8050222
Al 18.3138 20.4003529 18.8523485
Al 1.19014176 25.510909 17.482682
Al 8.77590193 25.2779212 17.320554
