frame 0 of H_liquid_920/prod.xyz

2048 atoms
1 atom types

0 33.39462820 xlo xhi
0 33.39462820 ylo yhi
0 33.39462820 zlo zhi

Masses

1 26.982

Atoms # atomic

1 1 22.284754 32.762349 5.543043
2 1 8.287782 21.969549 30.939301
3 1 0.819103 10.104394 12.883305
4 1 6.699547 9.502632 1.462237
5 1 24.869092 21.014332 13.211662
6 1 7.309101 8.042456 23.091109
7 1 18.450848 7.223244 6.362088
8 1 1.170272 32.844348 16.041832
9 1 7.936193 3.642172 21.286078
10 1 32.643753 24.514432 19.636830
11 1 25.771579 21.400142 6.016852
12 1 26.380162 22.548221 14.600068
13 1 9.673835 31.322335 18.359403
14 1 7.072123 4.638758 18.615431
15 1 10.399382 8.227659 24.031347
16 1 3.665675 29.775576 23.275665
17 1 0.974136 16.915183 9.823437
18 1 23.614690 23.745755 15.167641
19 1 29.151658 25.457494 32.961499
20 1 24.870943 30.842947 20.297062
21 1 0.206787 27.656911 11.673005
22 1 4.804639 7.257769 14.968182
23 1 11.738783 14.254211 29.409951
24 1 5.439631 15.539960 4.554904
25 1 18.213191 14.784627 18.017268
26 1 31.221763 4.618145 15.897450
27 1 11.177798 29.682891 33.174214
28 1 3.167299 32.546439 31.505333
29 1 4.684526 32.494948 15.875538
30 1 26.698045 0.101475 22.256852
31 1 19.129925 16.564107 26.907825
32 1 24.720393 3.464537 8.810266
33 1 13.297751 25.285704 29.994595
34 1 29.355559 32.199258 24.676433
35 1 25.641901 5.777830 13.137941
36 1 18.941972 1.618767 10.811286
37 1 14.718716 25.463286 27.870853
38 1 6.208163 24.479356 17.968490
39 1 16.748266 14.517545 20.229412
40 1 18.165015 30.872602 0.643035
41 1 27.705729 9.596131 23.572848
42 1 8.405208 28.112201 24.875910
43 1 27.498792 2.732382 33.105859
44 1 27.545488 12.016292 25.208609
45 1 5.269633 9.870744 6.037079
46 1 30.591962 4.072202 9.134462
47 1 1.368970 3.815956 24.491084
48 1 7.997002 23.728383 10.814726
49 1 26.450672 12.166978 22.635259
50 1 27.549128 24.892006 1.714565
51 1 19.292690 18.766897 20.596251
52 1 23.171897 8.723291 23.264280
53 1 31.712456 15.700745 19.515773
54 1 27.525993 32.912479 10.698364
55 1 8.721652 6.892110 31.231321
56 1 5.339917 31.366275 10.424933
57 1 1.115243 7.309768 31.462160
58 1 31.464604 30.096161 32.251750
59 1 0.131415 9.346663 30.225046
60 1 21.440306 27.614607 20.309070
61 1 9.786121 12.223972 26.166133
62 1 28.122041 31.940370 17.282399
63 1 4.291686 18.258623 23.811397
64 1 27.712012 22.857034 6.609362
65 1 13.079144 28.836713 11.434166
66 1 14.302446 10.953753 25.963951
67 1 16.016708 8.102079 2.732998
68 1 1.230291 26.311868 20.331384
69 1 25.436073 7.800793 4.558155
70 1 22.017846 5.726066 31.321890
71 1 4.648818 16.232819 2.134642
72 1 20.502550 21.374997 33.293709
73 1 20.332476 4.120952 11.997949
74 1 23.336603 11.154123 1.821388
75 1 30.836193 31.091843 16.537970
76 1 23.713000 11.892004 15.008242
77 1 22.281570 15.833225 23.309345
78 1 1.078686 2.268295 31.194186
79 1 30.411102 10.888729 19.059590
80 1 19.696455 18.696004 4.778341
81 1 4.081393 1.474865 9.330094
82 1 26.048762 9.019870 7.463981
83 1 13.125382 2.524571 22.695182
84 1 7.508825 23.960575 29.272762
85 1 0.654696 17.315278 4.859760
86 1 1.116720 4.961350 30.495146
87 1 6.730840 13.738710 16.588650
88 1 23.865851 18.257863 27.595036
89 1 32.738090 27.599162 19.075713
90 1 7.607917 4.231586 30.468393
91 1 10.891826 20.146174 2.649545
92 1 1.431387 17.101972 27.358696
93 1 9.907947 24.430344 31.338773
94 1 28.992252 10.250922 4.719602
95 1 24.750691 9.233351 28.853079
96 1 28.311572 17.158261 13.864047
97 1 28.899786 2.384355 12.083817
98 1 6.106386 1.628393 6.330302
99 1 30.320681 28.616808 8.807185
100 1 29.964509 15.897817 15.360458
101 1 30.582807 19.924773 19.452995
102 1 21.679765 22.003311 15.537842
103 1 17.114430 14.060377 22.984168
104 1 12.328491 7.632814 25.508536
105 1 15.075590 16.385379 10.553717
106 1 8.587172 12.244837 17.766072
107 1 26.483595 25.118507 32.339589
108 1 5.766378 28.490934 19.716398
109 1 31.127063 22.888555 26.505445
110 1 3.690677 32.551727 5.921378
111 1 23.634567 8.212110 17.692319
112 1 13.408069 25.814444 23.361610
113 1 29.445781 0.898483 17.994356
114 1 19.849351 12.667614 11.932190
115 1 0.067233 20.571993 17.767940
116 1 27.406069 16.624875 22.486397
117 1 27.232163 5.320605 15.282820
118 1 5.251289 15.755860 18.256192
119 1 12.119642 10.949091 2.154349
120 1 1.034967 26.538254 14.785799
121 1 9.017226 8.352119 6.743326
122 1 27.112728 10.817446 29.299451
123 1 32.135291 3.073009 7.298790
124 1 31.631684 25.891265 0.871382
125 1 25.051640 24.162993 29.977961
126 1 7.022112 11.666171 33.219949
127 1 5.082447 13.770962 26.338102
128 1 4.936462 32.143975 13.106617
129 1 28.057532 14.102933 16.724216
130 1 8.772935 0.500804 11.429286
131 1 19.425761 29.129767 31.697836
132 1 29.283046 8.843325 29.535065
133 1 11.092349 15.035092 26.616485
134 1 19.927235 26.494182 33.074213
135 1 18.341742 5.747443 18.553833
136 1 7.590805 10.224929 10.860696
137 1 12.933994 22.229601 2.498962
138 1 7.901429 2.310841 32.585169
139 1 2.879955 10.900475 6.168946
140 1 18.630465 17.957525 30.119981
141 1 24.459507 16.543682 4.728369
142 1 6.543222 13.754125 23.773695
143 1 12.070618 4.378280 5.891205
144 1 28.827379 20.483405 26.643335
145 1 14.370340 15.623049 26.793317
146 1 31.909898 2.956396 25.231216
147 1 26.602078 17.480929 9.548200
148 1 16.618102 11.803488 24.175204
149 1 6.329700 21.389535 10.559380
150 1 29.618648 5.786026 3.795085
151 1 4.768627 2.436853 15.074267
152 1 1.177205 33.388221 0.055009
153 1 30.640552 13.663260 32.216735
154 1 28.339707 13.562695 5.874410
155 1 15.029319 5.060172 28.988920
156 1 4.532310 8.147247 7.878026
157 1 4.126934 9.839719 18.229890
158 1 33.196390 23.141641 5.390739
159 1 23.864196 0.909995 26.850196
160 1 21.037325 18.152211 15.788279
161 1 10.551921 22.236889 29.741243
162 1 32.585953 32.400802 31.649588
163 1 12.249769 12.798550 26.665522
164 1 33.242323 18.906060 15.723989
165 1 23.217224 5.233179 4.992545
166 1 25.283892 20.662457 27.195431
167 1 29.116158 29.654539 30.242153
168 1 23.554702 26.111424 31.564688
169 1 21.909147 12.351410 26.856907
170 1 30.560005 12.589536 15.704645
171 1 19.933901 10.148140 10.795528
172 1 16.671084 7.087571 28.668723
173 1 5.906166 5.483990 7.628041
174 1 10.446353 2.076610 6.082975
175 1 29.869157 20.466716 31.184607
176 1 33.243068 21.197489 1.609805
177 1 33.329525 20.988965 26.922420
178 1 14.406094 18.159349 2.720235
179 1 3.160499 11.854971 32.469988
180 1 33.002456 27.476270 9.038215
181 1 23.434636 24.626609 24.587890
182 1 14.499156 31.696637 19.885997
183 1 15.099498 10.374021 28.843685
184 1 2.525799 14.086398 21.148404
185 1 15.252362 15.588995 24.049476
186 1 12.921013 19.440226 4.591605
187 1 14.010441 26.486744 13.461904
188 1 28.277902 24.827605 27.665667
189 1 14.489140 29.974205 17.583039
190 1 23.190943 33.297919 33.299464
191 1 22.813512 21.524933 26.135423
192 1 23.182266 1.410422 22.297098
193 1 24.016926 6.223732 24.942786
194 1 14.607757 18.069458 15.857756
195 1 13.529106 21.843106 12.515714
196 1 6.182911 2.409764 22.927088
197 1 20.756732 32.214327 11.428925
198 1 3.108687 8.634575 12.690807
199 1 22.813084 21.947035 1.546432
200 1 0.839903 11.235549 9.808446
201 1 7.270677 14.642065 6.263832
202 1 29.409921 26.080540 15.184911
203 1 0.177419 24.445273 7.922505
204 1 27.306620 5.673936 18.553533
205 1 20.542481 19.795186 30.068364
206 1 12.426136 5.220773 26.587091
207 1 32.036544 16.357604 29.425863
208 1 29.752288 13.191055 12.909292
209 1 17.593725 27.497497 8.833934
210 1 11.456841 30.138653 2.796631
211 1 12.033126 12.410121 7.393135
212 1 8.915862 27.759333 3.048957
213 1 24.353871 23.827102 17.988050
214 1 30.112433 13.581010 18.605370
215 1 32.225547 5.406347 13.410348
216 1 0.014943 19.834587 30.557545
217 1 18.927106 18.977922 32.683805
218 1 3.286965 14.863711 27.673513
219 1 14.688562 23.880122 6.860877
220 1 5.068673 31.959466 20.118256
221 1 20.930718 10.903004 0.057244
222 1 14.909757 23.760309 20.123947
223 1 30.407512 1.597642 23.276511
224 1 29.290803 3.860464 25.535646
225 1 21.507232 6.309929 22.997637
226 1 1.981080 8.112048 7.259588
227 1 22.752261 19.951203 16.811918
228 1 31.743527 31.827687 22.002785
229 1 32.166598 2.555296 17.595394
230 1 2.746028 19.333271 26.452827
231 1 32.402435 10.522334 20.880679
232 1 12.524170 33.130733 9.327122
233 1 30.422809 14.846311 7.050332
234 1 28.576926 25.850668 17.634988
235 1 2.226606 24.303316 6.229085
236 1 7.495943 0.449321 16.751642
237 1 8.245152 15.079968 12.618566
238 1 16.895485 14.274923 0.768721
239 1 17.930068 1.246263 21.415647
240 1 9.327470 29.489361 14.218448
241 1 12.099342 33.190202 22.265843
242 1 17.047114 7.402074 24.887893
243 1 3.520750 28.301445 21.072893
244 1 11.032487 32.672255 13.090225
245 1 5.280472 0.351347 18.098597
246 1 5.242434 29.575769 17.269075
247 1 4.362412 22.065207 18.141320
248 1 29.100984 10.789940 2.009825
249 1 5.948435 5.012440 27.538496
250 1 0.639371 16.639138 12.366077
251 1 3.708374 2.087045 24.600536
252 1 22.284007 31.315743 8.477458
253 1 21.063059 2.665002 9.990909
254 1 3.319657 14.571006 0.854206
255 1 16.126292 5.281304 3.488061
256 1 14.022547 22.990809 9.323597
257 1 22.914580 17.007818 13.844646
258 1 7.270003 24.323849 32.419448
259 1 31.090418 31.569905 8.256062
260 1 6.551453 28.701972 14.936507
261 1 14.653773 28.322435 24.046668
262 1 17.362635 3.516490 15.056851
263 1 5.781646 21.749768 13.066159
264 1 7.550399 18.304673 6.295467
265 1 21.998509 1.388910 11.946481
266 1 7.776708 32.171902 21.140758
267 1 15.949590 6.572945 8.020382
268 1 32.621688 29.350521 22.702137
269 1 20.789182 23.327774 10.233938
270 1 2.532950 21.167186 1.197928
271 1 3.538597 23.711716 3.750141
272 1 2.827152 32.610586 8.379174
273 1 10.952302 14.458665 13.517717
274 1 10.848566 17.440298 6.924885
275 1 24.148431 32.032092 25.729283
276 1 15.438115 21.914367 1.613958
277 1 30.981035 27.908313 5.193406
278 1 8.481014 4.139962 27.389176
279 1 22.897564 26.063519 18.948503
280 1 16.321465 2.998652 28.322195
281 1 10.098641 11.364298 28.729112
282 1 3.340259 7.647373 32.793091
283 1 9.275424 23.768536 6.765261
284 1 25.968563 29.738892 3.643777
285 1 33.037248 0.784961 22.430053
286 1 21.015147 14.003647 4.594712
287 1 13.308227 3.499420 1.535735
288 1 21.150923 17.322148 29.519890
289 1 2.546953 16.332359 22.336039
290 1 18.392786 15.476960 32.183681
291 1 6.322292 30.308821 7.485507
292 1 31.429622 12.604755 1.603466
293 1 23.952575 23.645504 32.354811
294 1 17.332460 9.531796 15.235581
295 1 10.414862 11.454971 20.805153
296 1 29.929463 31.426466 5.978940
297 1 14.844647 13.154450 27.772704
298 1 19.328303 8.875277 4.443524
299 1 2.866819 16.354932 19.502146
300 1 27.993030 21.062681 16.147896
301 1 3.967212 4.223590 4.095135
302 1 22.040528 23.871065 26.555530
303 1 20.550048 7.926285 15.310753
304 1 2.439359 30.560170 16.402173
305 1 30.495127 18.001829 26.691864
306 1 23.554960 26.055414 28.783355
307 1 4.873590 19.251420 32.383264
308 1 10.438707 8.982908 4.286410
309 1 16.442995 18.607803 9.055984
310 1 17.789022 22.040713 2.454602
311 1 26.175982 18.193682 26.220727
312 1 31.999432 13.108121 8.724490
313 1 30.316726 23.803262 18.855047
314 1 13.663415 0.758949 2.715366
315 1 20.167266 15.695605 15.026868
316 1 14.046657 29.717628 5.982387
317 1 13.930363 6.397516 1.612214
318 1 5.684611 30.829893 24.585400
319 1 26.453980 28.346772 11.394882
320 1 12.455032 12.060973 14.207290
321 1 30.891992 3.261083 3.980489
322 1 22.947771 3.393901 2.750382
323 1 31.325239 15.678789 22.604550
324 1 16.413954 19.375196 32.107381
325 1 0.379496 17.125152 20.528714
326 1 8.156955 29.307321 17.193194
327 1 14.438986 9.812269 1.052378
328 1 2.378733 18.918485 18.315634
329 1 24.425377 14.500014 16.459344
330 1 28.017453 13.303654 0.039061
331 1 0.945101 32.375357 25.965944
332 1 4.870443 7.042495 17.667976
333 1 22.734911 28.523884 14.455556
334 1 8.515667 13.138541 21.598011
335 1 12.433495 10.490364 8.994548
336 1 7.373592 22.665572 19.535080
337 1 4.350564 27.658007 7.906370
338 1 9.685145 11.287778 3.040130
339 1 2.861621 3.646399 22.057610
340 1 11.319050 27.672787 1.593662
341 1 4.187840 18.697642 1.672999
342 1 14.738479 1.756682 33.242429
343 1 3.366356 26.895107 4.661445
344 1 14.809532 11.932017 12.663982
345 1 11.495199 4.550967 18.332674
346 1 5.972343 12.458770 4.923095
347 1 7.459067 31.241502 33.377887
348 1 18.985325 6.370209 8.767483
349 1 13.479995 1.122990 20.503774
350 1 0.327613 32.324668 2.677163
351 1 1.288267 14.981236 25.833704
352 1 32.189504 0.899718 5.168968
353 1 21.215103 25.179097 5.740261
354 1 10.626555 32.839692 29.203535
355 1 16.247579 2.516228 7.377024
356 1 16.504054 4.272843 17.937662
357 1 22.187740 9.281363 27.396411
358 1 10.849533 11.201368 18.232538
359 1 5.957639 23.128951 2.472575
360 1 21.861605 30.014200 6.145331
361 1 13.611538 2.716172 28.137453
362 1 0.527652 25.481800 10.424872
363 1 19.499348 29.152355 18.605896
364 1 2.721576 6.704316 22.092181
365 1 3.456140 1.954911 31.880618
366 1 19.901338 30.891432 29.182571
367 1 11.330420 18.794681 14.759637
368 1 3.195639 10.991664 8.897632
369 1 28.165285 3.769359 28.141753
370 1 23.893355 23.600934 20.671682
371 1 3.103417 18.034165 7.972087
372 1 2.166580 20.522092 24.152824
373 1 13.027592 14.089650 18.467033
374 1 22.924650 4.150191 11.257449
375 1 21.332884 27.900011 4.745782
376 1 24.008692 19.576313 24.897714
377 1 16.122314 4.679229 0.461161
378 1 16.763732 7.762211 0.361667
379 1 25.544220 7.684830 22.332775
380 1 25.019929 27.056572 24.103614
381 1 31.705168 11.903815 24.143440
382 1 10.984444 21.771429 0.653033
383 1 23.502424 5.952093 9.043820
384 1 5.764137 0.545758 4.126794
385 1 2.661824 27.631956 13.031163
386 1 32.804148 23.986726 2.457489
387 1 27.514750 14.875239 8.740651
388 1 2.400435 14.294384 31.752581
389 1 3.569570 23.063241 23.186568
390 1 25.727533 30.843615 10.380116
391 1 15.312503 24.253165 31.535172
392 1 9.524641 28.189481 6.304522
393 1 8.787839 7.898835 9.280809
394 1 15.193523 28.086678 7.677245
395 1 28.469419 0.312145 1.047823
396 1 17.662676 7.456550 20.776189
397 1 4.384228 29.879663 14.763388
398 1 2.497024 31.171811 4.077246
399 1 0.050642 24.160772 12.836376
400 1 4.729933 6.843302 20.451330
401 1 31.944386 9.327500 11.273005
402 1 30.955809 26.911810 29.821981
403 1 12.274736 20.346945 16.369783
404 1 3.129772 17.336828 31.977431
405 1 8.632026 28.594235 33.013414
406 1 12.673144 3.152453 32.393446
407 1 16.771099 21.690303 13.343580
408 1 4.637144 0.290275 0.372143
409 1 19.097751 8.489500 0.973634
410 1 29.922695 11.420345 32.941578
411 1 24.775713 14.680406 12.534834
412 1 23.185895 13.520639 3.260484
413 1 12.260696 20.752420 21.723088
414 1 16.078829 27.997205 32.455541
415 1 16.109290 21.471401 27.760254
416 1 25.784701 0.226592 1.190867
417 1 24.688682 19.010890 15.149094
418 1 25.917645 30.330526 32.653822
419 1 24.978216 19.773815 10.317127
420 1 21.130979 5.097917 8.931181
421 1 1.732749 13.022566 7.319506
422 1 17.160173 29.050817 16.421440
423 1 2.619956 11.896908 11.634865
424 1 28.163743 5.145470 31.549593
425 1 22.921364 18.443202 9.135419
426 1 21.245027 5.407677 26.715692
427 1 15.927371 1.572753 19.156950
428 1 6.719489 24.551987 12.782887
429 1 20.591821 17.777785 18.373829
430 1 31.226634 8.328351 13.962034
431 1 2.745785 31.150218 1.239066
432 1 11.746371 8.862842 19.487607
433 1 17.201867 23.445315 5.428749
434 1 2.180881 30.774430 10.842311
435 1 31.790983 1.574283 9.865828
436 1 0.124341 3.783418 4.956020
437 1 7.476378 18.931674 9.226228
438 1 13.211186 16.487473 22.454690
439 1 32.007327 14.508821 14.003022
440 1 7.328736 13.113731 10.593716
441 1 22.442471 0.030628 30.687106
442 1 15.088192 22.656684 4.211237
443 1 2.847249 11.516686 19.524716
444 1 7.609213 3.397560 1.809821
445 1 20.236634 21.727760 28.548937
446 1 20.422546 4.177929 1.285374
447 1 17.855206 16.492951 24.224929
448 1 31.421444 1.271510 20.423237
449 1 22.900634 13.846703 30.046713
450 1 5.985888 26.820424 0.609518
451 1 4.448416 5.825442 1.260762
452 1 12.268226 4.324147 11.837329
453 1 31.091945 25.034271 31.737235
454 1 1.040463 5.153729 20.865027
455 1 8.909615 26.016081 4.716212
456 1 1.800183 28.084432 7.505667
457 1 9.318315 16.871297 27.473997
458 1 0.656767 14.674898 18.917557
459 1 33.140524 24.986953 24.547750
460 1 32.166506 9.050114 23.201592
461 1 24.666557 22.392139 24.536468
462 1 11.033588 2.086264 19.757849
463 1 10.550461 21.486298 14.296759
464 1 11.110671 32.779472 2.762413
465 1 25.306124 27.350104 13.747423
466 1 3.051307 0.034017 2.615353
467 1 12.867564 32.195117 4.906380
468 1 26.582067 2.229131 11.353875
469 1 10.036346 5.462911 29.368464
470 1 4.295921 29.292680 12.125669
471 1 23.617774 28.556240 17.215784
472 1 11.548108 7.239338 28.262998
473 1 24.259386 31.970889 31.275594
474 1 21.864234 26.067404 14.246948
475 1 22.648857 23.189527 12.654159
476 1 10.250763 17.341291 2.302164
477 1 7.441514 25.287040 20.050060
478 1 23.454843 16.874888 31.050629
479 1 18.072429 23.688115 11.235640
480 1 7.030359 20.758521 17.404368
481 1 33.208111 25.479450 29.965177
482 1 21.308302 24.155507 22.066530
483 1 6.790260 18.460407 27.354177
484 1 9.596415 6.262935 19.879387
485 1 16.700902 2.821429 4.855508
486 1 23.824919 0.861736 7.496827
487 1 5.665797 25.190959 4.295273
488 1 14.710312 13.350779 25.103735
489 1 4.553067 25.392284 25.726034
490 1 14.336364 31.230756 2.829961
491 1 31.984547 17.210536 14.095897
492 1 6.388280 11.849555 28.326552
493 1 1.263314 22.113411 22.089677
494 1 11.338388 1.190421 24.122255
495 1 1.534707 3.890374 18.146860
496 1 32.726519 27.578731 25.134363
497 1 5.084239 23.065342 20.963754
498 1 13.888549 14.854139 12.490267
499 1 12.715276 1.323210 5.464490
500 1 13.770834 18.337299 29.884132
501 1 33.130534 9.478502 15.621652
502 1 31.200507 10.808887 13.476959
503 1 15.892919 19.866785 4.355060
504 1 9.352712 9.757759 16.267875
505 1 3.589234 30.183475 8.579762
506 1 0.194662 17.527365 31.615448
507 1 2.969971 22.922314 32.800600
508 1 20.075871 24.441126 14.685857
509 1 15.615132 2.386721 25.964072
510 1 11.770626 9.644008 6.711817
511 1 7.320195 6.566496 25.824115
512 1 26.410020 20.731445 8.309806
513 1 14.216378 15.401596 29.773826
514 1 28.288220 0.904774 29.628848
515 1 33.104271 19.184160 22.923164
516 1 26.991224 29.057054 20.052531
517 1 14.805267 31.164345 25.001388
518 1 25.874805 19.422151 4.451127
519 1 25.138280 12.840673 31.219332
520 1 32.236244 12.593260 26.897600
521 1 10.035104 21.636478 5.049891
522 1 22.942305 18.895940 22.499118
523 1 29.520370 6.148808 29.258841
524 1 9.321788 5.650582 8.010706
525 1 23.601792 25.799007 6.539905
526 1 18.369296 12.512275 3.854067
527 1 23.273239 0.650995 2.648928
528 1 6.327007 7.369146 9.680319
529 1 30.889520 2.709674 27.947292
530 1 15.459947 30.560990 22.095061
531 1 22.904182 10.828918 31.194056
532 1 12.693760 0.902911 29.857526
533 1 2.071585 11.618998 16.911852
534 1 1.622923 8.797388 22.891299
535 1 2.404714 18.965426 29.512150
536 1 7.370133 21.511436 21.996633
537 1 17.240080 32.344039 29.575117
538 1 7.538906 18.308230 14.653672
539 1 29.408056 22.998684 31.954219
540 1 12.925628 12.006543 29.487518
541 1 5.599022 4.695687 13.274292
542 1 5.367291 3.177326 0.414039
543 1 27.166143 22.522683 26.663390
544 1 26.374185 24.553314 25.120524
545 1 14.109319 22.080412 17.597156
546 1 5.275221 15.453415 12.122633
547 1 29.704092 8.422608 0.846285
548 1 21.915135 3.929047 24.040547
549 1 15.785391 26.123729 25.482531
550 1 11.343549 18.279943 32.919685
551 1 24.948472 11.990178 20.136441
552 1 30.463282 18.569562 3.895899
553 1 15.930998 2.405539 2.238027
554 1 25.516398 14.509209 24.389884
555 1 19.709543 5.872216 13.710823
556 1 6.563708 25.810158 8.264358
557 1 11.474974 30.199601 30.404630
558 1 29.202418 24.097511 25.254078
559 1 28.998062 9.687006 12.789344
560 1 3.289507 17.791979 11.437260
561 1 10.218832 19.883770 31.007633
562 1 13.107886 2.393765 25.520798
563 1 26.848243 10.253151 20.936972
564 1 27.865405 14.790526 25.732390
565 1 3.113699 25.706699 9.168553
566 1 16.656153 3.549450 31.399627
567 1 29.215236 32.924216 22.166558
568 1 22.094567 1.854367 19.956202
569 1 31.658236 25.488162 4.238175
570 1 5.511616 32.958632 22.637430
571 1 10.467875 6.021065 10.633096
572 1 7.295702 15.418857 29.987742
573 1 1.083302 26.438005 3.316689
574 1 20.943441 17.786707 32.224575
575 1 10.427252 3.665403 25.928275
576 1 25.770479 2.931121 22.199082
577 1 15.202938 6.123604 26.038553
578 1 25.571639 10.422401 18.232762
579 1 15.453552 7.504794 15.970460
580 1 3.915524 4.704428 24.638491
581 1 7.957665 9.217179 32.353170
582 1 15.931638 25.808633 4.783359
583 1 17.102122 17.266849 19.005391
584 1 18.409492 10.467413 21.923207
585 1 4.537092 8.498238 22.752403
586 1 5.157758 13.941264 31.813874
587 1 11.102563 18.613370 22.752712
588 1 0.420392 8.493535 2.732783
589 1 32.101901 22.670332 30.460461
590 1 6.921089 8.191391 19.515056
591 1 3.739905 26.352230 23.332183
592 1 0.675147 31.636376 23.563028
593 1 12.080660 5.581955 15.402384
594 1 15.124995 16.129279 7.845558
595 1 20.443399 29.654331 1.316541
596 1 15.135931 4.331014 11.946259
597 1 5.149592 11.593150 12.045129
598 1 5.110010 21.405062 0.820946
599 1 21.098219 27.281073 7.385569
600 1 11.947548 10.498684 25.152624
601 1 29.856594 12.904655 26.162959
602 1 24.283384 29.086185 27.875080
603 1 8.526465 7.697213 3.282071
604 1 4.669509 27.189525 31.258725
605 1 24.476799 7.457285 11.232137
606 1 6.404825 19.492242 23.990042
607 1 19.354258 25.932201 21.592847
608 1 12.045201 11.693237 4.646966
609 1 29.181159 11.796506 23.177781
610 1 20.602979 1.934885 22.822985
611 1 1.928586 26.507513 25.536184
612 1 17.573882 3.135112 12.158338
613 1 21.179528 27.569822 17.055618
614 1 32.520246 20.338152 4.621710
615 1 27.173074 9.876229 0.713784
616 1 4.552002 25.208774 6.845453
617 1 15.609654 25.394645 9.282899
618 1 20.118283 0.135951 7.173682
619 1 2.877872 15.318918 8.291389
620 1 30.229815 6.338885 32.593578
621 1 27.167297 23.435068 16.980310
622 1 1.248870 30.800974 30.986224
623 1 8.903097 14.201845 28.206714
624 1 29.641471 17.332031 6.341613
625 1 18.064891 28.187433 20.659592
626 1 32.533582 29.247977 16.300203
627 1 16.992511 10.670105 2.183830
628 1 15.792051 7.447875 18.958295
629 1 7.732532 12.806604 30.677737
630 1 9.945145 28.224133 29.114251
631 1 19.274499 10.112211 19.194319
632 1 33.000391 0.875046 26.938731
633 1 29.724834 25.137744 5.688693
634 1 3.755745 23.055628 8.289778
635 1 23.005784 21.127830 7.738060
636 1 21.923401 0.087320 27.968802
637 1 14.116008 9.272770 4.037430
638 1 21.027109 12.774156 1.998670
639 1 23.824900 15.887567 28.548620
640 1 22.980650 14.385658 20.971386
641 1 19.200080 27.436490 14.950640
642 1 9.214081 22.885615 15.925163
643 1 20.444990 32.945142 15.589523
644 1 32.659666 29.365877 6.800574
645 1 7.450533 16.123636 10.631649
646 1 8.435585 3.313223 6.932945
647 1 6.060106 2.502114 17.545468
648 1 10.800958 6.705526 12.924237
649 1 7.656511 9.370566 27.461985
650 1 23.625950 7.406723 14.153913
651 1 21.125259 19.754982 24.758818
652 1 2.550468 21.623504 28.072371
653 1 4.264447 17.239140 14.159940
654 1 18.496193 17.264990 13.895335
655 1 16.168804 26.908680 11.285778
656 1 13.395468 26.084619 20.287824
657 1 22.049126 1.866798 25.179656
658 1 27.669860 26.783402 25.494006
659 1 17.676489 29.456915 28.751761
660 1 9.842454 32.850051 4.884876
661 1 8.077496 12.043431 7.548375
662 1 23.338054 18.936459 2.565553
663 1 20.861627 2.583410 27.737406
664 1 27.268254 21.182107 11.197889
665 1 20.638585 21.290663 8.468865
666 1 14.316760 25.982840 33.301603
667 1 16.681958 12.242548 5.751280
668 1 27.085894 14.129322 14.299126
669 1 17.656219 16.920790 11.314132
670 1 5.324479 12.305703 18.810307
671 1 24.477334 31.529009 2.573850
672 1 8.650664 21.154813 7.078017
673 1 22.360845 19.231946 5.105377
674 1 28.072435 24.087145 9.219997
675 1 4.331456 20.449229 22.274998
676 1 25.443729 3.562933 3.952042
677 1 31.344691 17.998123 20.971429
678 1 17.759098 19.360850 11.377199
679 1 15.336141 29.364424 10.076268
680 1 24.480969 9.607413 9.459133
681 1 30.603544 24.165214 8.107857
682 1 14.668890 1.709661 9.903868
683 1 18.044578 27.366571 30.469700
684 1 11.778224 32.567738 31.678369
685 1 14.014859 3.698501 19.253443
686 1 21.922985 11.383218 13.260127
687 1 0.076380 30.321366 0.443397
688 1 30.884705 18.082373 31.160027
689 1 22.610839 26.483609 22.806531
690 1 6.369361 1.482788 20.403345
691 1 16.581387 9.745681 19.699938
692 1 5.409245 19.884883 15.532811
693 1 32.213420 31.702620 5.545364
694 1 3.597632 5.865436 11.144641
695 1 32.047061 4.049538 20.052713
696 1 5.125690 15.705285 21.931762
697 1 7.677879 8.225404 14.444085
698 1 3.265828 16.858532 5.350466
699 1 10.633481 1.531932 31.988054
700 1 30.382457 24.675114 12.766922
701 1 21.327092 9.267796 2.580228
702 1 20.176038 6.229149 20.813457
703 1 26.099534 12.298930 2.252905
704 1 14.828246 24.081605 11.726130
705 1 24.077994 28.508237 5.661162
706 1 6.007740 28.176706 23.850906
707 1 15.843451 27.130177 2.020191
708 1 5.938803 27.069601 17.278918
709 1 3.745504 26.267371 2.023284
710 1 12.103532 13.709789 1.078960
711 1 8.301995 9.315178 25.060493
712 1 25.279408 26.415960 26.653521
713 1 2.087472 19.211767 21.856772
714 1 12.370644 31.661485 17.874860
715 1 30.823659 6.127044 18.954578
716 1 16.207875 10.898201 32.570366
717 1 16.990701 14.276245 29.224069
718 1 0.041556 28.779675 29.683897
719 1 27.682565 28.311959 22.728855
720 1 27.709215 3.650741 9.487876
721 1 15.506139 15.522972 18.072470
722 1 19.302194 9.033200 8.235000
723 1 23.825390 21.632284 3.894319
724 1 19.699478 10.568768 16.356368
725 1 27.108121 30.953122 1.635633
726 1 19.205870 12.303975 23.757182
727 1 22.061690 23.715987 7.777288
728 1 11.706002 8.174522 2.008058
729 1 20.933749 18.700340 7.334289
730 1 8.216492 1.671706 4.365428
731 1 28.088116 18.555582 30.421812
732 1 9.588772 18.920218 4.818010
733 1 32.001062 1.093684 29.374675
734 1 13.949625 22.855762 25.754842
735 1 29.051976 4.931259 20.350737
736 1 31.099670 32.596463 3.009483
737 1 21.950356 30.551726 17.243229
738 1 25.755185 26.533562 18.297004
739 1 29.209889 17.655547 19.888382
740 1 13.141225 6.477953 20.146899
741 1 9.166993 9.351580 19.015320
742 1 12.393668 8.861194 13.649682
743 1 5.805945 6.200812 30.019759
744 1 0.736021 32.747027 20.423103
745 1 26.027350 16.680274 30.130063
746 1 13.590291 0.884275 12.486492
747 1 5.250987 11.674444 30.840727
748 1 12.603705 16.941933 1.215104
749 1 16.878619 23.326750 8.320238
750 1 7.977136 33.156012 6.934700
751 1 11.167480 27.597307 4.511632
752 1 2.522018 9.624330 30.828548
753 1 14.272797 20.988032 20.006117
754 1 33.102571 23.232414 16.965828
755 1 9.505954 16.440798 14.341496
756 1 27.824102 13.671997 28.060027
757 1 16.401115 29.468791 3.172350
758 1 28.100417 14.137905 23.078747
759 1 18.711758 3.163572 32.973788
760 1 13.845360 6.250104 17.676776
761 1 16.327163 31.048198 6.015151
762 1 7.699788 26.669646 31.212603
763 1 19.122201 24.109739 30.051181
764 1 11.006932 7.006919 17.477149
765 1 27.794043 1.993690 24.221367
766 1 4.565131 19.369495 6.009807
767 1 21.025537 28.248108 24.041196
768 1 28.297125 31.333444 19.737407
769 1 1.766608 4.156959 32.946210
770 1 32.315920 18.264359 10.939241
771 1 28.703423 29.517606 17.899093
772 1 30.051263 2.017039 2.057686
773 1 29.322193 6.339484 16.750682
774 1 4.386557 20.781003 30.184891
775 1 21.274828 7.138252 7.169749
776 1 1.602569 13.597232 2.535955
777 1 25.813569 26.936555 2.839665
778 1 3.205702 8.655588 1.675147
779 1 1.007417 13.659554 28.067737
780 1 4.417211 13.670278 7.107529
781 1 20.028407 0.964805 31.999706
782 1 13.185651 31.634303 11.572971
783 1 9.755989 20.218735 17.086588
784 1 18.264499 32.957771 14.102859
785 1 25.887152 4.662597 32.947315
786 1 25.107581 9.720821 15.817746
787 1 19.047521 0.838892 4.308348
788 1 1.065850 29.144471 14.333207
789 1 15.970525 33.317213 14.690295
790 1 24.749091 21.008930 32.346561
791 1 3.759009 1.590198 20.203323
792 1 25.204853 22.711628 10.963845
793 1 31.926487 33.043882 24.667768
794 1 19.745377 28.415184 26.449175
795 1 1.947907 24.303536 1.700435
796 1 30.970894 20.676054 21.948144
797 1 23.162941 2.066968 29.340758
798 1 24.067356 11.851891 10.937354
799 1 6.948981 30.355555 12.621085
800 1 33.229191 12.131419 15.041067
801 1 14.525027 8.230010 27.454196
802 1 15.546053 4.082440 9.170962
803 1 16.346741 9.126326 22.909847
804 1 7.328017 11.046598 15.650069
805 1 26.211860 13.919113 18.750302
806 1 15.718182 30.076720 0.665180
807 1 11.489954 10.760408 33.056501
808 1 0.741228 5.404712 26.136893
809 1 0.285578 19.630921 8.328604
810 1 16.913850 24.277835 21.371611
811 1 16.480114 19.268768 13.515138
812 1 32.555857 1.309010 2.345740
813 1 18.980903 12.456030 9.190245
814 1 6.560293 28.868855 26.676184
815 1 30.724916 18.037857 23.670769
816 1 4.481046 28.830417 28.695594
817 1 21.478469 20.557494 21.429051
818 1 24.176291 3.474257 19.957700
819 1 23.140405 26.460578 3.162003
820 1 22.597442 22.263147 23.217538
821 1 18.314955 28.348731 0.901844
822 1 10.347619 13.093269 32.381501
823 1 19.890392 15.062048 23.503644
824 1 14.478998 18.559382 27.019515
825 1 0.594341 8.807052 5.286788
826 1 5.001660 24.225456 0.454028
827 1 9.822891 14.993125 30.751651
828 1 2.400766 12.210955 14.280335
829 1 20.200034 14.159400 33.348946
830 1 14.213312 10.975568 6.042893
831 1 19.408696 31.687498 9.042852
832 1 25.264241 2.848981 1.438832
833 1 7.708046 2.765752 14.588814
834 1 2.026892 2.040552 1.068810
835 1 20.361830 25.527198 19.289933
836 1 13.317076 11.930400 16.782976
837 1 18.051236 32.130530 11.526871
838 1 17.267993 30.774029 8.595453
839 1 22.240577 4.679768 13.812479
840 1 18.644124 9.347842 24.457098
841 1 5.062167 10.012488 20.547130
842 1 18.671968 24.687878 17.164205
843 1 29.430121 11.203469 10.870253
844 1 11.864832 28.399292 24.054569
845 1 27.534938 4.673686 23.083736
846 1 9.337763 24.044968 13.547478
847 1 9.824438 6.406018 26.404575
848 1 32.807863 27.221413 31.900699
849 1 6.072541 20.638792 8.011679
850 1 14.012804 14.406725 15.712631
851 1 3.100282 6.315290 27.133715
852 1 22.103485 6.199801 16.435831
853 1 9.568011 1.094031 8.800391
854 1 12.869143 13.225935 31.963276
855 1 32.985262 22.042676 24.291590
856 1 26.667286 20.226550 24.929770
857 1 22.483063 12.989537 32.829581
858 1 18.986180 31.900918 31.610553
859 1 1.867635 16.539660 2.588998
860 1 18.535296 19.313181 23.339214
861 1 6.185793 4.857595 15.902173
862 1 30.848342 4.939090 6.055649
863 1 8.619361 30.571467 30.849184
864 1 3.620249 2.077479 17.702615
865 1 9.686930 4.022676 12.497835
866 1 16.411499 5.755068 22.428102
867 1 24.652839 24.626347 12.903774
868 1 12.280979 23.114645 20.394103
869 1 18.134254 6.139137 1.870717
870 1 12.382467 16.138531 9.218375
871 1 1.583619 24.886818 22.578655
872 1 1.569620 14.290402 16.074259
873 1 30.183200 15.421845 24.745226
874 1 14.239708 8.709784 20.974203
875 1 10.011268 13.695350 5.332981
876 1 29.537864 30.364263 27.704183
877 1 11.948469 24.243418 25.569646
878 1 17.465549 9.079254 12.514917
879 1 14.280662 29.777261 29.580903
880 1 8.392432 27.560863 19.091826
881 1 1.275259 2.004185 15.716378
882 1 17.877181 29.167174 23.192217
883 1 2.864357 15.027321 13.153400
884 1 18.929102 4.585446 22.408170
885 1 2.097103 28.609652 27.742367
886 1 26.606906 10.047079 3.610312
887 1 6.362769 15.800123 14.440152
888 1 12.394722 9.028106 16.591946
889 1 18.718312 9.973993 32.218328
890 1 23.344399 17.202083 16.640280
891 1 27.036237 0.043140 32.071230
892 1 16.997595 17.003067 0.540598
893 1 14.527313 32.703173 31.921487
894 1 11.579104 27.772850 14.409520
895 1 30.956514 7.404258 5.615710
896 1 22.177253 14.177856 13.612288
897 1 25.579159 15.956022 32.866034
898 1 32.280135 18.322625 6.419200
899 1 1.484775 19.572926 5.991675
900 1 18.613082 19.601530 7.754661
901 1 17.214928 0.767501 31.964645
902 1 8.951656 17.034966 32.181184
903 1 18.475012 20.928749 25.867493
904 1 12.516286 18.602603 9.096210
905 1 29.288361 21.482454 13.465509
906 1 1.524882 18.647413 0.532204
907 1 1.220505 33.327547 4.881905
908 1 12.892406 3.410520 13.996507
909 1 9.693733 14.385025 23.736847
910 1 29.943715 19.212868 28.810330
911 1 3.093775 10.131210 25.906823
912 1 8.538042 30.335664 5.417048
913 1 11.971039 21.296033 9.761895
914 1 28.231372 26.678147 12.735601
915 1 28.521009 8.545693 31.846051
916 1 22.923963 7.190673 2.543359
917 1 12.491708 4.795682 30.065444
918 1 18.363736 24.209666 24.110035
919 1 9.137418 19.857980 24.788283
920 1 23.645351 12.176046 17.951176
921 1 10.881520 27.773980 10.306303
922 1 13.444051 23.510462 0.223367
923 1 17.513583 0.079971 9.285220
924 1 15.001656 9.444155 9.550771
925 1 18.728994 31.289189 26.795774
926 1 12.314590 25.581138 2.400757
927 1 9.752036 10.374738 8.468145
928 1 32.106993 19.224594 33.215752
929 1 20.779210 12.595814 15.501880
930 1 22.296975 16.774185 6.068745
931 1 23.118436 8.927166 0.386509
932 1 16.364471 9.070797 30.780542
933 1 0.171017 7.811945 20.570194
934 1 24.364573 4.304977 30.744236
935 1 18.301126 3.160556 2.434344
936 1 11.545150 19.990102 7.081378
937 1 26.127817 19.070180 20.279851
938 1 27.430800 23.502271 29.901530
939 1 18.000079 5.554300 11.095737
940 1 5.458357 6.987928 3.564215
941 1 3.995550 22.675053 26.254086
942 1 19.250747 3.401822 26.026435
943 1 12.463480 9.834549 27.833875
944 1 11.644642 19.814558 12.197447
945 1 11.749366 11.986473 23.144232
946 1 11.083769 1.763206 13.015660
947 1 25.005597 19.293944 29.822368
948 1 11.966862 32.525248 26.180304
949 1 24.084942 26.243631 15.966748
950 1 19.519911 7.752209 22.818940
951 1 22.076934 11.224761 9.454700
952 1 5.020331 8.868162 30.796887
953 1 1.230170 16.726609 14.956572
954 1 12.181455 15.978075 31.797690
955 1 11.519887 5.898196 0.013314
956 1 1.000629 12.467609 4.799984
957 1 19.042476 10.227195 27.602917
958 1 18.476490 2.506950 18.645232
959 1 14.611398 5.020287 6.490763
960 1 17.024704 18.439595 25.521716
961 1 16.825294 18.314279 22.062690
962 1 18.218305 26.802617 24.330029
963 1 12.462131 14.579716 24.267979
964 1 6.362126 31.435109 5.072906
965 1 2.709073 19.083139 15.396839
966 1 3.043042 13.917842 18.372922
967 1 30.589826 19.106394 12.825788
968 1 23.445976 29.586705 24.560066
969 1 25.987191 3.685330 25.041917
970 1 30.795557 9.932357 25.587148
971 1 0.691143 12.498084 20.581086
972 1 25.361676 14.443368 9.769191
973 1 8.397962 7.235506 11.903603
974 1 29.603786 3.103763 30.270395
975 1 25.782782 27.701660 31.590261
976 1 13.201224 26.770274 26.018462
977 1 1.089103 2.295818 20.390829
978 1 33.365321 10.716863 7.013197
979 1 30.920782 30.322667 18.852197
980 1 17.837205 29.989990 13.789445
981 1 9.184643 25.920284 0.185373
982 1 4.403492 24.058859 14.319640
983 1 6.938298 31.529846 18.160557
984 1 9.179027 4.138806 4.076617
985 1 17.804521 30.972323 20.946571
986 1 21.353036 12.557978 6.778900
987 1 26.625069 2.151557 6.013384
988 1 19.761818 4.016290 16.207052
989 1 22.316432 23.706841 3.370894
990 1 11.807703 20.729647 18.920101
991 1 25.571108 20.666656 1.376305
992 1 19.099794 23.670730 27.297236
993 1 20.375414 22.413907 24.467825
994 1 11.663989 13.939292 21.679419
995 1 11.190850 25.793706 21.792615
996 1 9.045297 2.511744 17.643058
997 1 3.963907 6.403821 6.043429
998 1 3.526535 4.734371 15.667547
999 1 14.638739 13.592372 6.753597
1000 1 14.512830 20.385371 8.795927
1001 1 31.558102 28.572498 27.453015
1002 1 13.410939 8.133055 32.836441
1003 1 24.959261 5.448610 2.286645
1004 1 29.460648 9.329763 7.650747
1005 1 10.435449 1.184425 26.607357
1006 1 25.737664 4.836885 10.821988
1007 1 0.308469 6.060045 23.133321
1008 1 23.733830 12.773124 22.661940
1009 1 13.829351 5.561967 32.163138
1010 1 18.871508 11.145292 6.305282
1011 1 16.951084 32.027434 16.909343
1012 1 14.458778 14.020260 21.275382
1013 1 12.814032 2.812414 16.852459
1014 1 4.977984 25.903236 28.640110
1015 1 19.646611 0.021032 29.198173
1016 1 10.545162 21.869420 24.367309
1017 1 0.898801 21.960442 7.399914
1018 1 14.591871 18.664898 18.109496
1019 1 25.112446 8.098323 26.266720
1020 1 12.590174 23.190055 30.901909
1021 1 16.991505 9.784667 4.659245
1022 1 5.335194 18.430003 29.900854
1023 1 17.041028 22.073122 23.915201
1024 1 5.450662 15.874970 24.663097
1025 1 9.557617 17.847754 11.867994
1026 1 26.004123 10.652444 26.803876
1027 1 29.434531 16.855514 9.190142
1028 1 30.074702 22.355159 23.912723
1029 1 17.669652 4.480173 6.921783
1030 1 21.486160 9.708994 6.880215
1031 1 1.758581 27.962290 31.224650
1032 1 24.659109 16.689046 21.430149
1033 1 21.558155 30.239798 19.785509
1034 1 32.110594 14.755250 16.769891
1035 1 6.687881 7.292938 5.723051
1036 1 1.009153 1.238119 24.654825
1037 1 23.762432 23.142188 5.930804
1038 1 5.292058 4.322396 20.838098
1039 1 25.068661 21.262066 21.699195
1040 1 8.307083 16.513124 8.391491
1041 1 11.944457 16.930639 4.194927
1042 1 20.729517 17.164271 25.378222
1043 1 5.105564 25.771230 20.920533
1044 1 27.015232 29.617864 27.844113
1045 1 27.494640 1.841140 26.805133
1046 1 13.343947 29.535336 26.473391
1047 1 29.834622 3.803791 18.142623
1048 1 4.768666 11.641736 15.883044
1049 1 12.749922 23.306002 15.638893
1050 1 33.197466 6.560977 28.395359
1051 1 12.614312 23.066664 23.204901
1052 1 11.145107 32.879885 19.961210
1053 1 1.385539 30.930222 6.424352
1054 1 13.508281 30.463656 8.588002
1055 1 21.710617 30.592897 26.797329
1056 1 31.980838 30.052272 3.615618
1057 1 10.665576 29.577156 12.125244
1058 1 11.342897 18.863140 26.404436
1059 1 26.825312 3.012364 30.362449
1060 1 24.401890 29.816496 12.716720
1061 1 33.386020 19.798559 20.196682
1062 1 26.420339 8.139245 14.296439
1063 1 8.860778 0.441143 19.250869
1064 1 32.221613 14.973087 10.934983
1065 1 30.772737 25.537201 10.406904
1066 1 12.429988 30.426278 20.368908
1067 1 20.428594 3.620795 30.440543
1068 1 21.762155 6.148395 11.820712
1069 1 7.990380 15.995253 16.874035
1070 1 10.230087 10.168214 13.887077
1071 1 3.708927 29.790439 31.102903
1072 1 2.724810 0.510981 27.123634
1073 1 5.357332 16.827618 6.828787
1074 1 23.027730 33.243705 16.415693
1075 1 27.775931 17.938482 4.297250
1076 1 24.028786 4.669572 22.812610
1077 1 0.704331 13.651678 12.793538
1078 1 12.123601 17.382489 19.772160
1079 1 6.321763 13.408601 13.435817
1080 1 13.687131 28.952472 1.023132
1081 1 15.726998 26.482889 30.295218
1082 1 30.520602 5.425486 1.504635
1083 1 8.603104 1.209569 24.175450
1084 1 26.831750 15.954626 6.096917
1085 1 11.993018 1.303642 0.992810
1086 1 0.258512 33.116846 7.497595
1087 1 29.270253 10.895922 27.846920
1088 1 9.204721 3.276784 9.889497
1089 1 30.806453 20.819666 2.400459
1090 1 19.105422 13.858142 6.637027
1091 1 9.505090 16.316514 19.103156
1092 1 19.489632 7.443629 11.611632
1093 1 20.444319 12.382157 18.250207
1094 1 6.265526 27.490730 3.217306
1095 1 30.823380 10.174979 16.365647
1096 1 28.487513 2.609647 21.340598
1097 1 7.751787 25.214224 2.295625
1098 1 10.113123 4.370767 31.655721
1099 1 20.262321 25.989688 2.687000
1100 1 5.710800 9.920822 25.531603
1101 1 24.193309 28.505074 20.045198
1102 1 14.755551 21.062183 23.205697
1103 1 1.303675 19.640708 11.131924
1104 1 10.325177 14.390145 2.611750
1105 1 27.465667 29.464995 9.052517
1106 1 3.639957 2.967386 29.228415
1107 1 26.423504 0.945030 8.893490
1108 1 30.475895 28.016748 11.630487
1109 1 24.772211 31.447935 5.548366
1110 1 13.478158 20.771300 27.427079
1111 1 7.386752 14.314863 19.255919
1112 1 18.634281 11.901345 0.487488
1113 1 26.073216 14.490054 4.047498
1114 1 9.214530 27.392060 15.826064
1115 1 16.491298 30.364089 31.207473
1116 1 10.647997 25.505662 29.115002
1117 1 26.049733 7.521282 19.758512
1118 1 23.481152 26.840905 11.793681
1119 1 20.699373 12.197234 31.185606
1120 1 30.343150 32.787933 30.251504
1121 1 1.186144 11.113822 27.859080
1122 1 9.262572 30.984481 7.517093
1123 1 20.483419 27.040874 30.662943
1124 1 23.535450 3.925174 26.502468
1125 1 29.201329 22.937731 21.488767
1126 1 16.884926 22.732966 18.413545
1127 1 13.172226 11.080560 19.585164
1128 1 3.390750 32.833733 24.685880
1129 1 12.862147 27.848996 18.577723
1130 1 1.101894 1.595675 9.183988
1131 1 8.048305 18.340795 17.723346
1132 1 24.937987 24.495340 3.931083
1133 1 21.221663 26.769557 10.253399
1134 1 0.088243 17.356350 17.923644
1135 1 3.564185 24.372550 16.940850
1136 1 0.465136 26.271002 5.767190
1137 1 14.129787 6.462614 13.681719
1138 1 12.452386 0.024339 15.181796
1139 1 31.689993 26.276585 17.082876
1140 1 30.958899 11.834235 6.710710
1141 1 28.367806 12.582594 20.465130
1142 1 9.622614 27.857887 22.588877
1143 1 28.893882 17.256220 2.098945
1144 1 14.966910 23.902182 14.549172
1145 1 20.815337 14.920611 19.594212
1146 1 9.141340 19.909255 27.797570
1147 1 7.492608 5.141155 10.356387
1148 1 7.075538 21.001590 26.225135
1149 1 6.285155 32.179142 27.134198
1150 1 22.658558 20.694327 28.793695
1151 1 32.147237 27.839645 2.497478
1152 1 14.644663 16.276439 5.076429
1153 1 3.632033 1.395103 4.898343
1154 1 19.155970 21.590384 22.174667
1155 1 26.132604 30.019020 17.785211
1156 1 9.029347 11.235570 23.067082
1157 1 17.751172 10.915661 30.006430
1158 1 2.485156 31.128949 13.527823
1159 1 32.311840 8.041336 8.627694
1160 1 10.659057 17.444702 30.056419
1161 1 12.929599 26.183841 10.888760
1162 1 10.167713 12.417473 9.785623
1163 1 1.256568 9.125852 17.980007
1164 1 29.945467 28.614453 15.406694
1165 1 17.363471 16.056462 15.879259
1166 1 29.805100 14.281327 10.416254
1167 1 32.874483 18.294290 25.685721
1168 1 22.981549 32.823180 18.895844
1169 1 2.577917 3.456541 26.952946
1170 1 5.221864 23.977882 10.307835
1171 1 25.310271 3.186589 28.051511
1172 1 5.788472 22.146377 31.828482
1173 1 18.329982 13.673330 15.555673
1174 1 10.977215 29.474693 27.039677
1175 1 24.464783 16.541003 7.810099
1176 1 11.188219 33.098081 6.972867
1177 1 31.644729 10.402070 8.917987
1178 1 27.919626 18.299148 11.572326
1179 1 0.125378 14.567408 22.033448
1180 1 7.092493 11.741078 2.786256
1181 1 13.630192 30.086406 32.121128
1182 1 18.523346 4.949776 29.829005
1183 1 16.982093 15.147051 5.768144
1184 1 13.648488 2.404053 7.817972
1185 1 30.799670 25.912639 23.897950
1186 1 23.078592 4.727943 0.229811
1187 1 17.707735 11.779685 13.686079
1188 1 20.426416 24.791587 12.189393
1189 1 31.107644 18.952065 8.957501
1190 1 22.142980 32.145958 21.391475
1191 1 1.833316 23.941755 14.885038
1192 1 2.947250 16.760091 16.756098
1193 1 18.398016 19.232662 27.741658
1194 1 6.871139 20.051359 2.227528
1195 1 33.132556 5.785896 18.624839
1196 1 12.742185 17.145524 25.089804
1197 1 10.273573 27.237920 31.541185
1198 1 31.102291 16.922828 0.118165
1199 1 22.382285 19.007204 11.575770
1200 1 32.391178 1.328533 32.789015
1201 1 25.142613 31.884150 28.031655
1202 1 2.380188 20.437785 31.892188
1203 1 2.197755 6.708970 18.961858
1204 1 19.350834 12.905781 20.768630
1205 1 26.545883 8.109668 17.218674
1206 1 20.518581 17.864169 22.897224
1207 1 3.005670 20.703893 8.768028
1208 1 13.209554 26.438671 16.118643
1209 1 19.410993 30.580795 16.041862
1210 1 30.769140 7.792861 27.396623
1211 1 10.119740 32.121443 0.260042
1212 1 1.323459 22.760468 19.162829
1213 1 14.427819 17.551002 32.835414
1214 1 5.816881 16.811555 31.933976
1215 1 22.206710 13.992115 10.945551
1216 1 32.719790 6.851118 10.902753
1217 1 27.498561 23.902338 12.073919
1218 1 1.441287 14.046422 10.325582
1219 1 17.765382 26.299463 27.618667
1220 1 3.747172 12.968496 29.292054
1221 1 10.937816 0.494703 17.340923
1222 1 26.960581 2.857557 19.169068
1223 1 23.571991 31.971386 10.578726
1224 1 27.974197 4.826040 12.691318
1225 1 18.353902 14.741072 12.733717
1226 1 3.829553 27.146267 18.661744
1227 1 14.859275 4.488715 15.566176
1228 1 20.072721 18.970692 12.912472
1229 1 30.768648 22.444999 6.039459
1230 1 3.592311 27.241708 15.906839
1231 1 2.896014 22.033993 5.712320
1232 1 24.157780 9.256487 20.538567
1233 1 32.241120 7.677794 0.301308
1234 1 24.148680 9.987032 12.807586
1235 1 28.380147 27.016096 10.216741
1236 1 15.319335 24.714748 17.459199
1237 1 15.155623 32.195531 9.827169
1238 1 19.553669 23.383817 3.637241
1239 1 26.329893 12.028821 8.916228
1240 1 9.984825 8.843303 29.683442
1241 1 16.282540 16.772308 30.848216
1242 1 28.254838 10.668681 17.642155
1243 1 21.014325 19.177818 1.071809
1244 1 30.226485 27.554795 21.948475
1245 1 10.304650 15.238871 10.697179
1246 1 2.720626 26.024207 29.409938
1247 1 28.492086 19.879093 2.046289
1248 1 7.463561 26.676988 10.738283
1249 1 16.051780 26.571958 22.583114
1250 1 4.676517 2.534181 12.081579
1251 1 16.720609 29.106994 25.754175
1252 1 20.336331 29.602310 10.120102
1253 1 28.881035 26.377218 7.754037
1254 1 31.311133 9.691557 31.888802
1255 1 26.418272 3.021528 13.987342
1256 1 21.662545 30.854763 31.712410
1257 1 21.953490 2.351493 15.130089
1258 1 16.809097 28.074572 5.701849
1259 1 32.924677 3.675618 1.176759
1260 1 8.264415 32.622316 13.524047
1261 1 22.537871 32.114049 13.436910
1262 1 31.789452 12.142326 11.138718
1263 1 20.109737 17.523190 9.617848
1264 1 16.861967 16.814524 28.253148
1265 1 27.312078 31.377351 30.030290
1266 1 31.106577 32.192386 27.135537
1267 1 22.040883 27.605724 0.680665
1268 1 14.619118 15.450713 1.309275
1269 1 16.357100 9.391976 7.250641
1270 1 8.614531 5.598634 14.632680
1271 1 32.851008 11.854075 17.894418
1272 1 13.154746 16.506835 17.400319
1273 1 20.501698 7.743673 17.972045
1274 1 13.246514 14.599055 3.338938
1275 1 31.581990 23.033705 0.035719
1276 1 31.746933 8.677536 18.581547
1277 1 19.959579 16.780022 1.154205
1278 1 1.445083 14.931007 4.962139
1279 1 28.643882 6.236968 26.602382
1280 1 17.143956 22.885803 15.790512
1281 1 5.847566 8.239376 28.317428
1282 1 1.896081 10.723123 2.941159
1283 1 20.712365 10.382063 29.434991
1284 1 7.848718 1.571169 27.436767
1285 1 14.904171 21.473862 32.499151
1286 1 0.556568 30.815791 18.476137
1287 1 24.268534 6.798408 32.561192
1288 1 28.045853 0.390167 20.028160
1289 1 16.183864 33.067648 26.254976
1290 1 24.452586 16.979540 24.448972
1291 1 14.277073 32.951826 7.044354
1292 1 21.247169 14.984861 28.032477
1293 1 1.574827 6.453793 9.568806
1294 1 6.090326 0.422370 25.138191
1295 1 10.987201 25.322287 15.637671
1296 1 24.848580 21.806374 16.441714
1297 1 14.969611 29.398798 13.221966
1298 1 9.578720 0.967015 15.130874
1299 1 27.420818 30.885896 22.706828
1300 1 2.340151 2.681900 13.582226
1301 1 8.748553 13.604129 14.669385
1302 1 31.142794 0.704621 13.483427
1303 1 15.175809 9.172906 12.097277
1304 1 11.334084 7.055155 31.133228
1305 1 9.437940 0.820840 21.796023
1306 1 12.339003 16.185703 14.731943
1307 1 13.291653 26.780746 5.969046
1308 1 20.400429 30.718646 13.398900
1309 1 18.204838 29.385088 10.994620
1310 1 18.927570 8.089834 29.582547
1311 1 16.450660 14.434570 3.475648
1312 1 28.351797 32.318844 8.327028
1313 1 17.821986 6.114705 15.925209
1314 1 4.606731 3.221254 7.295516
1315 1 19.467049 15.154053 10.249694
1316 1 6.893582 1.847407 8.592982
1317 1 21.003991 1.304358 17.602968
1318 1 19.360867 25.141900 9.320264
1319 1 29.151211 28.788650 6.478377
1320 1 2.265426 7.350848 25.054532
1321 1 16.179416 26.303794 19.539714
1322 1 17.897466 8.460523 17.658820
1323 1 24.608512 23.634986 27.451775
1324 1 23.008446 3.252176 17.309946
1325 1 4.778715 18.561075 18.645836
1326 1 25.137076 17.931138 12.088017
1327 1 17.044999 31.749394 23.946405
1328 1 20.746125 10.470699 25.108035
1329 1 32.698693 5.413122 3.082729
1330 1 19.179757 28.862380 3.344641
1331 1 15.286608 2.426119 13.891264
1332 1 4.858347 12.043829 24.413501
1333 1 10.871228 17.830123 17.348902
1334 1 11.530391 5.547991 3.292094
1335 1 27.696836 20.985776 32.261975
1336 1 2.792036 30.252120 25.660273
1337 1 29.948026 9.394576 21.204142
1338 1 29.918246 1.213166 25.910500
1339 1 15.104743 17.997484 24.095647
1340 1 7.112245 2.960053 11.985338
1341 1 26.504974 25.448674 15.373340
1342 1 5.612567 7.448642 12.314864
1343 1 23.087059 29.357795 10.402906
1344 1 20.942739 21.105889 3.167031
1345 1 21.638051 0.303096 9.202787
1346 1 19.643802 5.981448 24.852064
1347 1 19.429647 23.445053 6.885676
1348 1 32.565781 14.692937 0.398360
1349 1 1.568105 21.854516 13.059457
1350 1 7.270296 9.932398 30.011566
1351 1 5.891279 28.616466 10.257500
1352 1 10.162119 16.045975 21.704066
1353 1 30.742799 21.488374 17.395322
1354 1 26.678686 10.485949 11.359447
1355 1 12.682743 27.459637 28.535562
1356 1 3.920799 20.057846 12.937127
1357 1 26.019188 32.650411 15.018136
1358 1 21.391381 30.492272 3.694064
1359 1 16.345498 0.796277 11.785092
1360 1 1.118349 6.348393 0.750545
1361 1 2.974708 0.344427 14.527856
1362 1 23.119581 15.549478 25.842679
1363 1 15.720970 0.246621 4.441587
1364 1 3.671932 11.899513 1.588270
1365 1 4.397550 10.179699 28.797779
1366 1 2.613531 24.568472 27.240408
1367 1 17.734844 25.558606 6.960933
1368 1 24.352103 1.132406 10.311384
1369 1 22.695920 30.964613 29.337206
1370 1 7.580921 14.120232 3.738025
1371 1 24.755393 28.030951 0.410903
1372 1 4.074148 17.362953 27.470154
1373 1 31.041731 8.095708 2.881327
1374 1 9.279776 24.529985 26.727035
1375 1 7.152428 3.150370 25.270532
1376 1 23.439538 30.535558 0.520826
1377 1 24.860799 11.774629 4.761510
1378 1 22.901589 18.675791 19.464320
1379 1 5.590225 2.867829 3.212188
1380 1 28.884125 12.417399 8.232818
1381 1 20.380350 32.304010 0.347579
1382 1 17.540670 24.845234 13.408358
1383 1 6.201578 33.252950 31.647619
1384 1 21.982632 32.608285 24.312538
1385 1 23.360443 13.260907 8.415131
1386 1 30.199626 23.335013 3.231251
1387 1 14.381838 4.324925 24.526461
1388 1 2.322245 0.926092 22.347399
1389 1 24.762475 21.874028 29.651853
1390 1 7.014768 6.443561 1.518252
1391 1 4.663706 18.089513 21.099100
1392 1 20.274802 31.974742 18.538079
1393 1 26.987149 5.710389 4.155478
1394 1 2.630722 12.689413 26.280586
1395 1 24.194021 10.857583 7.147610
1396 1 21.754167 14.668345 17.199317
1397 1 26.906424 30.304997 6.476549
1398 1 4.462031 23.131643 29.010437
1399 1 20.643140 5.813880 3.139808
1400 1 33.388129 32.833626 13.642282
1401 1 13.841621 7.943587 7.716074
1402 1 1.096388 9.253978 0.108015
1403 1 20.672586 3.223436 3.722214
1404 1 19.985784 0.318713 20.374195
1405 1 25.977514 27.850053 16.280737
1406 1 28.193868 21.003424 4.568580
1407 1 15.248267 12.456786 30.426815
1408 1 5.684201 13.519351 1.213396
1409 1 8.018624 14.708282 25.885379
1410 1 20.952824 6.831494 0.505252
1411 1 23.529301 21.087650 19.619672
1412 1 24.251790 2.484612 12.857602
1413 1 33.178705 20.258076 13.352249
1414 1 28.278836 17.487758 24.845219
1415 1 21.084612 15.213079 7.890879
1416 1 10.330961 9.441154 11.155185
1417 1 22.609966 4.547790 29.032713
1418 1 0.487896 21.902456 32.465388
1419 1 13.725328 18.077072 6.741754
1420 1 6.391595 23.581016 26.351578
1421 1 10.219489 14.636618 7.993637
1422 1 16.981664 26.008011 15.797297
1423 1 14.017559 18.903291 21.381656
1424 1 6.827088 28.796592 29.404262
1425 1 15.551929 33.148673 1.125401
1426 1 19.734665 10.059385 13.650256
1427 1 25.871945 15.840044 27.085371
1428 1 15.574816 16.793254 13.493369
1429 1 2.103257 4.835562 7.043026
1430 1 1.703814 23.131044 24.894552
1431 1 7.804999 20.981336 14.495941
1432 1 25.251582 8.198719 1.594691
1433 1 7.314938 10.752643 13.043434
1434 1 5.312498 32.861324 8.108761
1435 1 29.621936 0.818801 5.240033
1436 1 0.442074 4.782524 15.874695
1437 1 10.588281 21.967237 26.999938
1438 1 26.536126 24.369426 19.773311
1439 1 27.199406 6.768380 0.214611
1440 1 26.407262 18.019502 1.891739
1441 1 6.481956 15.882497 27.473438
1442 1 29.888964 15.228609 30.460632
1443 1 21.812939 7.647266 4.662522
1444 1 14.459368 3.220745 4.518086
1445 1 16.794605 27.633439 13.780266
1446 1 20.848782 4.206456 18.549941
1447 1 31.879814 27.579595 13.887238
1448 1 29.110170 16.256298 17.825776
1449 1 2.271632 7.080854 16.218523
1450 1 4.909766 26.203310 11.473679
1451 1 25.671538 12.237147 13.235935
1452 1 21.515830 8.133604 9.763762
1453 1 16.943324 11.737676 8.183546
1454 1 24.209681 12.727919 26.003311
1455 1 4.682166 19.387286 10.083138
1456 1 28.072068 25.286012 23.100373
1457 1 32.775906 5.290402 32.265900
1458 1 7.696182 23.407556 4.540227
1459 1 3.253606 5.813944 29.571382
1460 1 17.915554 21.113924 33.358417
1461 1 31.689102 13.185631 4.686054
1462 1 29.826133 8.186577 10.640792
1463 1 1.303328 28.369686 17.655977
1464 1 7.317336 11.908897 25.864870
1465 1 30.793713 32.662077 10.678999
1466 1 10.814766 2.890296 28.700901
1467 1 16.810998 15.130349 26.238426
1468 1 12.406288 15.150102 6.034803
1469 1 8.514659 29.488395 10.526228
1470 1 7.556570 10.761320 20.639475
1471 1 24.996933 26.347952 21.332433
1472 1 23.061183 8.120081 30.407936
1473 1 3.190768 24.384859 19.566430
1474 1 18.357261 18.275415 16.846428
1475 1 5.667422 20.711647 19.914277
1476 1 8.166365 15.889156 1.688269
1477 1 20.237474 20.642710 11.225321
1478 1 18.307806 5.272161 27.401017
1479 1 30.346434 5.494767 11.517401
1480 1 7.197604 20.616944 4.809679
1481 1 17.788765 11.688513 17.927839
1482 1 16.253533 2.626320 23.158899
1483 1 7.874249 32.646207 29.200548
1484 1 29.969913 22.983043 10.785564
1485 1 27.449760 15.489030 12.198494
1486 1 31.969212 9.995745 1.389706
1487 1 12.230947 12.869236 11.608675
1488 1 33.305769 23.646867 27.590840
1489 1 30.039558 20.530251 10.817925
1490 1 13.076734 5.682918 9.058961
1491 1 26.183536 5.635761 26.525073
1492 1 28.641139 18.502887 16.055071
1493 1 25.930332 18.991376 22.819526
1494 1 10.155972 23.783888 2.166539
1495 1 7.167111 31.341176 15.424739
1496 1 30.186069 4.417832 22.427319
1497 1 18.401359 21.961576 9.411401
1498 1 7.184795 27.668634 21.655185
1499 1 24.492279 29.497145 7.952186
1500 1 8.694551 29.996447 1.922880
1501 1 5.966672 2.006911 29.691605
1502 1 30.776264 19.881273 15.246180
1503 1 28.654308 8.555357 15.317946
1504 1 0.813568 16.710790 7.311322
1505 1 7.410893 19.721213 31.570331
1506 1 31.875985 4.756316 29.886340
1507 1 27.094106 15.078024 1.621728
1508 1 7.059675 20.570165 29.184907
1509 1 20.944565 25.975303 28.149151
1510 1 29.055024 32.608167 14.997255
1511 1 19.677181 22.451293 17.255506
1512 1 12.674774 23.234850 27.936782
1513 1 24.952518 29.060219 22.269261
1514 1 16.479838 19.361052 29.437114
1515 1 8.235419 27.363652 13.282273
1516 1 7.146961 6.293345 21.175868
1517 1 13.488812 19.759949 0.805298
1518 1 28.350254 8.430929 19.292296
1519 1 28.255603 28.230995 2.117309
1520 1 9.300651 8.681911 21.545683
1521 1 16.818728 6.385338 13.156372
1522 1 28.972918 27.606378 27.911632
1523 1 21.948978 23.331793 19.205553
1524 1 2.724489 9.542671 15.023701
1525 1 23.332173 9.716841 4.194571
1526 1 28.370385 16.026949 32.386216
1527 1 5.762414 12.972933 21.247985
1528 1 4.441961 10.086313 3.321961
1529 1 27.578265 28.126721 33.263431
1530 1 20.265937 30.120808 22.266664
1531 1 19.761970 2.611519 7.728942
1532 1 12.545117 7.276884 5.207834
1533 1 18.887832 18.953682 2.344764
1534 1 32.372233 11.620282 30.904657
1535 1 32.021124 24.979562 15.087809
1536 1 2.352763 19.235592 3.259077
1537 1 28.140008 7.907938 2.899163
1538 1 11.240677 3.729625 8.522796
1539 1 25.290985 0.849580 29.718061
1540 1 21.128538 11.454380 4.312099
1541 1 5.493575 31.184888 30.032499
1542 1 16.092083 21.337270 10.676967
1543 1 18.352906 0.725747 1.095247
1544 1 14.894012 12.078624 3.635413
1545 1 31.658669 22.560569 14.804094
1546 1 27.318756 1.514594 2.986775
1547 1 12.603168 20.094142 24.565354
1548 1 25.601453 5.047672 6.506180
1549 1 33.321007 29.962954 25.960207
1550 1 21.526023 8.428956 20.588585
1551 1 29.691470 15.548399 27.851168
1552 1 22.112704 2.680170 32.048581
1553 1 9.137921 26.017488 8.494919
1554 1 22.721907 27.175133 25.938406
1555 1 2.787210 6.028091 13.474251
1556 1 22.785158 19.639110 31.222025
1557 1 26.132410 6.561401 8.615615
1558 1 13.760272 28.928826 15.459415
1559 1 27.869938 4.323116 1.970503
1560 1 7.567187 16.204567 22.991644
1561 1 20.743190 6.276715 29.216927
1562 1 9.158955 19.165682 0.305470
1563 1 9.968880 30.162397 24.736180
1564 1 11.791762 25.434543 32.750202
1565 1 17.576803 25.167198 2.750302
1566 1 18.436478 4.835289 4.436396
1567 1 21.642401 7.738247 25.152525
1568 1 3.271656 21.594170 15.746767
1569 1 1.921778 2.159791 6.874577
1570 1 8.644902 32.307414 23.833687
1571 1 27.139134 18.232222 6.628776
1572 1 13.693431 7.565866 29.951863
1573 1 28.849060 15.106262 20.886340
1574 1 16.601829 14.193428 8.403514
1575 1 0.243855 24.593667 32.755664
1576 1 16.518329 14.231046 11.061671
1577 1 24.449822 13.923294 0.992050
1578 1 15.001409 16.824774 20.632767
1579 1 21.739206 16.822333 20.725852
1580 1 8.251953 32.347871 2.943367
1581 1 32.554884 18.704828 28.323684
1582 1 27.338421 7.796425 11.989343
1583 1 20.334143 5.148556 6.272680
1584 1 8.227477 29.771499 19.946549
1585 1 9.751322 9.528391 1.077978
1586 1 28.394036 32.576687 3.538939
1587 1 18.715495 26.843180 11.958042
1588 1 32.181435 10.663847 3.983638
1589 1 23.065263 24.459202 10.179486
1590 1 1.769027 4.366246 2.421490
1591 1 25.840577 13.412599 6.718948
1592 1 29.828434 14.953691 1.190910
1593 1 27.818679 26.539313 20.594931
1594 1 7.046067 9.397971 7.918724
1595 1 5.177689 9.562396 13.957127
1596 1 23.291154 11.228666 28.571264
1597 1 14.337469 0.450905 24.127907
1598 1 17.491608 8.282328 9.971696
1599 1 4.233889 33.356713 29.373724
1600 1 10.800841 15.212864 16.552672
1601 1 24.814742 11.367648 33.112584
1602 1 23.658057 18.345369 33.381284
1603 1 23.403436 14.282025 5.707364
1604 1 10.011700 25.448209 19.581292
1605 1 29.973001 6.660619 8.358512
1606 1 24.684431 31.711407 22.699373
1607 1 21.711721 4.250145 21.034031
1608 1 28.439698 25.792099 30.633988
1609 1 9.881316 16.938882 24.317403
1610 1 26.517275 27.301090 29.228739
1611 1 6.275957 29.998696 21.985759
1612 1 25.313948 13.096039 28.738836
1613 1 1.590519 28.297447 23.734721
1614 1 22.808380 21.469638 10.671539
1615 1 2.885427 16.703169 25.277766
1616 1 32.742114 7.769669 25.491929
1617 1 0.303857 3.174021 28.194388
1618 1 6.578668 9.907608 17.730829
1619 1 12.338394 24.377059 12.783429
1620 1 32.021379 0.185281 16.021469
1621 1 9.784170 11.175933 5.749271
1622 1 5.205312 26.882944 13.857960
1623 1 20.878268 20.919237 18.763096
1624 1 4.703941 10.014384 33.270614
1625 1 4.281977 14.233258 15.699473
1626 1 31.317714 5.704030 24.399699
1627 1 23.590642 6.549685 20.269950
1628 1 12.315320 16.830535 12.117685
1629 1 2.844557 31.800255 21.737699
1630 1 14.634034 21.277030 15.133343
1631 1 19.550802 32.640302 22.827207
1632 1 26.490971 18.636972 32.663346
1633 1 14.063894 33.356082 27.270588
1634 1 23.780255 15.941243 18.813426
1635 1 0.494758 1.686362 11.876913
1636 1 21.897824 13.236631 24.221907
1637 1 16.528017 23.789022 26.275479
1638 1 24.638789 30.480622 15.481105
1639 1 0.607577 7.364749 14.141369
1640 1 23.947601 16.262374 1.978850
1641 1 18.950554 14.651816 2.263508
1642 1 28.326003 19.338390 18.371179
1643 1 19.142296 6.436431 31.799932
1644 1 29.433125 6.490378 13.883954
1645 1 10.134208 25.697678 11.641817
1646 1 5.315516 3.998141 9.825903
1647 1 26.175376 5.313911 20.838564
1648 1 26.433905 22.488878 3.246724
1649 1 24.855386 33.239009 12.619960
1650 1 25.946683 22.069859 19.122270
1651 1 3.145897 8.098396 4.420317
1652 1 25.509434 23.515017 8.319503
1653 1 10.359850 15.445028 0.292035
1654 1 1.575901 12.100727 30.390926
1655 1 31.445807 20.256746 25.268781
1656 1 11.329813 24.294204 9.459863
1657 1 16.641927 18.106652 6.140452
1658 1 28.588484 31.320233 32.272390
1659 1 6.476902 14.581396 8.684586
1660 1 2.748353 24.427602 12.251626
1661 1 10.922053 26.111392 6.917220
1662 1 19.164436 26.658993 5.106911
1663 1 31.576442 5.174271 27.130353
1664 1 10.433327 26.838290 26.437090
1665 1 10.561342 12.714216 15.958150
1666 1 25.890667 25.991218 10.248243
1667 1 12.548487 10.488579 11.726317
1668 1 12.399506 16.952452 28.147574
1669 1 31.439923 3.291332 11.759352
1670 1 30.789146 0.538806 7.554206
1671 1 27.393974 13.184373 10.903514
1672 1 29.984927 27.848766 32.500921
1673 1 15.878720 12.051488 16.077094
1674 1 31.724864 16.262977 4.912888
1675 1 32.879951 5.926397 7.179568
1676 1 28.200991 20.351534 20.997362
1677 1 1.228946 21.873625 3.737187
1678 1 9.994972 4.070814 1.380953
1679 1 12.712355 31.330911 28.261737
1680 1 11.790005 28.659265 7.777523
1681 1 10.586273 3.288834 15.316185
1682 1 12.517548 24.748836 18.177101
1683 1 20.953534 15.456150 31.237369
1684 1 27.923306 27.131186 4.702416
1685 1 19.021407 23.446923 20.184320
1686 1 8.087902 22.855553 24.410891
1687 1 21.922573 10.323982 18.642827
1688 1 14.723581 9.931696 17.834351
1689 1 19.525998 13.666014 26.113326
1690 1 8.850980 23.833199 21.944751
1691 1 29.056548 22.482671 1.120849
1692 1 6.257196 24.445193 23.154885
1693 1 7.544558 0.188661 0.664866
1694 1 16.434560 23.927686 29.134635
1695 1 27.269964 32.861027 5.875269
1696 1 9.600666 3.467176 23.571532
1697 1 0.730876 21.470895 15.423239
1698 1 21.121500 1.673586 0.991632
1699 1 0.310954 10.173990 25.429823
1700 1 27.268674 7.596888 28.235231
1701 1 9.330626 6.860416 0.334420
1702 1 15.686243 7.333867 5.545858
1703 1 7.119989 16.944585 20.446482
1704 1 20.507065 25.361046 24.848990
1705 1 12.891935 20.322627 31.426563
1706 1 21.586088 16.525408 3.688913
1707 1 0.786678 27.236575 0.833200
1708 1 23.531184 26.936178 8.949691
1709 1 32.712691 3.007992 14.200997
1710 1 21.573033 28.508217 28.225320
1711 1 24.597738 5.573867 17.973129
1712 1 29.184011 2.555159 7.332530
1713 1 28.303313 19.472477 8.917347
1714 1 32.221129 7.121512 16.647260
1715 1 16.643190 23.401107 0.319546
1716 1 10.277489 30.881793 21.825235
1717 1 18.541823 27.095246 17.920456
1718 1 30.796436 29.944177 24.297427
1719 1 3.710283 13.313989 4.182430
1720 1 11.264462 5.361638 23.877992
1721 1 23.430595 10.417561 25.293669
1722 1 29.942754 27.265883 19.147593
1723 1 18.077477 1.303451 27.271791
1724 1 16.084146 6.364642 31.454780
1725 1 14.344603 19.025936 11.218599
1726 1 13.608863 28.291311 3.648686
1727 1 3.284399 29.967479 18.981822
1728 1 22.315473 15.568856 0.333649
1729 1 9.597854 12.474934 12.495400
1730 1 29.631989 19.987234 6.413349
1731 1 29.535502 1.135126 32.230970
1732 1 27.106997 22.303216 23.141543
1733 1 1.213580 1.220629 18.106455
1734 1 27.589544 24.549319 4.295776
1735 1 1.842342 8.811543 10.500184
1736 1 8.150349 6.955643 28.541531
1737 1 19.992155 33.394218 25.885455
1738 1 18.594493 21.088884 5.358149
1739 1 17.744096 21.976108 30.561797
1740 1 22.344296 19.912168 14.013141
1741 1 29.213400 15.575960 4.301957
1742 1 6.633053 23.204845 7.996245
1743 1 9.719872 6.185993 5.297137
1744 1 32.019260 15.360735 27.005315
1745 1 22.034569 24.897797 0.982560
1746 1 5.528327 22.309018 5.616404
1747 1 0.562544 30.135320 9.184282
1748 1 8.740173 21.635393 2.938812
1749 1 2.613479 9.019678 20.506129
1750 1 28.822549 29.969659 4.104530
1751 1 21.933559 8.754079 12.304830
1752 1 11.689526 19.799355 28.892974
1753 1 15.845792 31.752398 12.529235
1754 1 17.437837 25.743917 32.341425
1755 1 23.788395 7.841513 6.889169
1756 1 8.584190 18.580589 22.498534
1757 1 6.973153 17.675049 3.761552
1758 1 10.434713 31.768257 10.542227
1759 1 3.289711 28.554182 0.382871
1760 1 4.752641 24.670687 30.996796
1761 1 10.651803 31.653707 15.596645
1762 1 28.608481 29.670275 13.103323
1763 1 21.403700 21.857882 5.765271
1764 1 6.131986 7.168918 32.660931
1765 1 15.299835 12.556751 18.790706
1766 1 27.002828 6.973113 24.414611
1767 1 15.305688 14.778057 32.122526
1768 1 11.146255 29.246537 17.073998
1769 1 16.806472 3.849499 20.696402
1770 1 14.409923 11.023907 21.728522
1771 1 31.461108 26.547214 7.231891
1772 1 32.305724 22.156502 20.111549
1773 1 14.308082 22.112576 29.587238
1774 1 11.525759 4.406917 21.017322
1775 1 26.222689 25.291002 6.434951
1776 1 32.352105 22.168335 11.871955
1777 1 9.961993 22.724656 18.457346
1778 1 12.296855 23.225639 7.032914
1779 1 25.427667 24.165052 22.590435
1780 1 19.404441 7.836466 26.661041
1781 1 29.182322 3.297856 14.520804
1782 1 2.488518 28.150547 10.291545
1783 1 1.391926 16.187889 29.699883
1784 1 32.885320 18.064541 2.409580
1785 1 29.993959 30.131968 21.453724
1786 1 33.143804 14.294344 30.873156
1787 1 13.244343 27.903262 30.957572
1788 1 20.783840 16.077819 12.490459
1789 1 14.335606 12.442493 0.825538
1790 1 17.115765 4.544339 25.134210
1791 1 2.709567 25.769461 32.743447
1792 1 8.857915 21.502993 9.498392
1793 1 19.564616 1.931442 14.018999
1794 1 9.018315 33.117287 31.719895
1795 1 8.120979 18.062664 29.643631
1796 1 28.282187 32.619898 27.377929
1797 1 6.257852 22.730677 15.897745
1798 1 16.700724 20.534134 16.704386
1799 1 5.195679 16.951477 9.335012
1800 1 6.125983 27.079562 5.786760
1801 1 27.682025 29.807574 15.315641
1802 1 0.228374 26.908657 27.845333
1803 1 26.521378 17.226627 17.189133
1804 1 25.911804 29.526294 25.344009
1805 1 29.205591 23.337215 15.514816
1806 1 9.721263 25.493522 24.112912
1807 1 14.052829 9.279821 24.070425
1808 1 28.768593 13.219244 3.033387
1809 1 17.157463 11.525170 11.124488
1810 1 26.577645 3.483307 16.726422
1811 1 26.508050 32.362599 24.802277
1812 1 13.435391 6.753717 23.175220
1813 1 7.441992 14.775287 32.667753
1814 1 0.665297 12.126239 0.419717
1815 1 29.771283 30.370721 10.743327
1816 1 31.142188 17.719147 17.008813
1817 1 32.524257 14.390869 24.463202
1818 1 17.923450 32.858317 19.226373
1819 1 27.131670 14.435413 30.904189
1820 1 4.455335 9.349240 10.495636
1821 1 7.727388 22.013971 0.401687
1822 1 10.851359 6.837779 22.066187
1823 1 31.321617 13.531739 29.235680
1824 1 1.391938 33.290068 29.348737
1825 1 4.138431 4.576431 18.486110
1826 1 20.219292 30.635686 24.743840
1827 1 8.664932 20.464779 11.898779
1828 1 7.608164 26.427771 28.029207
1829 1 26.146317 6.224993 30.449084
1830 1 7.569664 17.250341 25.222467
1831 1 23.124951 28.873395 31.779436
1832 1 23.180206 2.476309 5.219276
1833 1 7.487684 4.980273 32.859195
1834 1 2.437071 3.804769 9.359449
1835 1 28.252712 3.298787 4.569032
1836 1 21.163906 10.496828 22.422168
1837 1 24.267649 19.308298 6.639028
1838 1 10.083573 19.156201 9.707492
1839 1 31.991189 10.067632 28.321798
1840 1 18.517005 2.199640 30.049129
1841 1 9.550791 10.874237 31.452258
1842 1 28.567820 29.548223 25.468460
1843 1 28.131786 7.627332 6.253220
1844 1 23.209815 7.103472 27.710778
1845 1 12.685212 30.991999 23.810748
1846 1 1.367094 29.293960 2.523209
1847 1 16.761598 9.503761 26.531767
1848 1 8.144859 20.172970 19.730747
1849 1 1.125734 15.978630 0.079369
1850 1 6.161647 29.342576 31.993484
1851 1 8.576931 29.856673 28.028947
1852 1 6.481958 4.817299 5.134545
1853 1 8.660254 1.791396 30.064064
1854 1 1.617568 2.154509 3.635485
1855 1 5.339771 31.652251 2.696949
1856 1 23.275859 29.150614 2.708912
1857 1 11.364659 2.248578 3.297561
1858 1 15.288757 20.366032 25.555173
1859 1 31.430640 30.334597 29.619094
1860 1 15.571216 30.992966 27.684138
1861 1 7.152367 25.951058 25.363259
1862 1 0.913058 12.386149 23.974027
1863 1 22.485725 9.594056 15.418209
1864 1 28.396277 11.321228 15.052951
1865 1 12.883354 7.500547 11.001150
1866 1 3.590888 22.202569 11.116643
1867 1 32.104058 32.693624 18.543825
1868 1 16.339071 19.574768 1.488089
1869 1 9.464416 1.373132 1.911805
1870 1 4.919338 20.339635 27.828446
1871 1 25.356696 10.068864 23.689441
1872 1 31.203314 13.067165 20.999066
1873 1 6.627251 18.687157 12.191707
1874 1 16.449308 21.131741 21.057915
1875 1 4.169022 4.870874 31.958205
1876 1 25.154326 29.904839 30.041342
1877 1 22.391986 3.190697 7.483356
1878 1 8.543356 7.502958 17.227725
1879 1 28.333390 9.038275 26.356643
1880 1 19.185315 15.437401 29.416862
1881 1 25.043340 19.259386 17.950270
1882 1 29.308109 21.893488 8.277164
1883 1 5.762135 5.998637 23.283506
1884 1 29.355746 32.119859 12.588410
1885 1 1.025029 4.487032 12.011958
1886 1 26.396609 27.767213 7.573085
1887 1 4.520422 21.026111 3.450781
1888 1 18.954216 20.307937 14.985186
1889 1 20.905716 28.032099 12.514301
1890 1 25.032366 0.997145 24.374371
1891 1 13.583771 18.983113 13.630317
1892 1 10.088611 18.493993 20.031406
1893 1 28.835963 19.789680 23.530889
1894 1 19.515841 23.706997 0.123661
1895 1 27.150789 10.887109 6.245891
1896 1 17.796579 0.897928 24.403092
1897 1 6.475038 10.722490 22.905224
1898 1 15.479691 6.535211 10.754658
1899 1 22.594740 28.979217 22.181675
1900 1 14.802535 12.158482 9.696859
1901 1 12.899454 31.770129 0.662999
1902 1 15.620503 2.113028 16.463473
1903 1 28.651061 22.116019 18.888309
1904 1 22.285681 23.813365 29.276504
1905 1 4.681793 15.570220 29.713954
1906 1 24.649097 24.914400 1.274841
1907 1 15.683711 33.374697 21.528281
1908 1 18.176005 13.075596 31.553808
1909 1 29.578535 25.992704 2.527743
1910 1 30.629738 3.708398 32.955338
1911 1 3.137422 11.439945 22.429773
1912 1 3.936792 28.167656 25.803436
1913 1 14.253947 31.409714 15.622863
1914 1 4.275357 13.598163 10.020540
1915 1 20.676848 33.247513 2.918608
1916 1 4.706891 7.578445 25.456528
1917 1 31.475201 6.895036 21.655826
1918 1 17.950183 31.877360 3.302935
1919 1 19.665178 31.233342 5.509673
1920 1 26.025980 12.182085 16.424881
1921 1 24.901551 1.819914 32.391793
1922 1 17.249801 17.233768 3.444980
1923 1 10.794249 24.427518 4.540959
1924 1 13.116941 26.012189 8.365353
1925 1 10.006291 9.150403 27.017279
1926 1 33.244604 4.207117 9.652966
1927 1 27.559990 9.011942 9.690288
1928 1 26.610744 22.820816 0.442838
1929 1 21.411948 24.576341 31.623824
1930 1 22.330278 11.988232 20.574493
1931 1 13.848456 10.061470 31.102451
1932 1 26.678580 31.287392 12.793920
1933 1 30.178802 29.884700 1.277826
1934 1 4.900762 31.460511 33.022768
1935 1 30.325615 25.310488 21.224858
1936 1 9.288120 16.059965 4.745021
1937 1 18.816995 16.165476 21.088151
1938 1 6.178955 0.645242 10.925432
1939 1 32.734294 14.735458 3.057350
1940 1 28.099436 6.273064 10.353990
1941 1 0.967588 29.143847 20.627429
1942 1 19.665445 12.761519 28.738516
1943 1 27.329943 1.247672 15.786324
1944 1 9.881695 21.500200 21.580746
1945 1 31.955245 23.577197 22.410046
1946 1 19.294677 16.551577 5.549440
1947 1 7.282720 9.901181 4.806396
1948 1 31.587456 30.413697 14.007598
1949 1 14.279856 3.009510 30.504735
1950 1 27.529017 20.870875 29.384873
1951 1 1.380428 8.287444 27.455243
1952 1 27.400725 0.654331 13.343793
1953 1 6.820627 17.753793 0.800844
1954 1 7.225318 25.355443 15.431381
1955 1 18.236324 3.500492 9.427329
1956 1 15.077394 23.844646 23.299313
1957 1 0.309980 30.948749 28.275066
1958 1 30.217686 24.460373 29.411279
1959 1 17.583324 0.174350 6.638167
1960 1 29.979325 21.943030 28.611818
1961 1 4.158367 29.209308 5.825507
1962 1 8.512355 5.829863 23.546739
1963 1 10.464036 22.543144 11.627759
1964 1 0.449867 16.789149 23.761176
1965 1 18.218828 1.360297 16.301053
1966 1 3.251543 32.511809 18.343681
1967 1 5.603144 17.490097 16.393227
1968 1 3.144347 33.263428 11.398878
1969 1 1.243016 6.288512 4.857657
1970 1 25.300355 32.126660 7.973073
1971 1 29.136128 1.631769 9.621153
1972 1 23.122661 16.557537 10.890481
1973 1 15.480456 0.730801 29.934572
1974 1 30.796009 32.576987 0.255024
1975 1 31.767391 7.336888 30.333505
1976 1 33.167898 30.763554 11.848513
1977 1 32.028960 16.658075 8.697434
1978 1 15.200124 27.429795 17.128876
1979 1 24.844039 1.707460 18.017760
1980 1 14.017145 21.165772 6.006981
1981 1 5.212562 2.470032 26.990143
1982 1 25.332145 0.417203 4.457541
1983 1 9.297912 32.163126 26.782023
1984 1 25.528108 32.561234 17.561620
1985 1 21.031510 8.893695 31.640591
1986 1 26.713655 16.327119 19.424777
1987 1 28.342301 6.936803 22.005246
1988 1 7.888905 32.226607 9.677663
1989 1 19.562278 22.332849 13.290222
1990 1 15.481482 28.195364 27.967570
1991 1 25.957305 14.318907 21.385183
1992 1 14.074559 4.522650 21.737680
1993 1 24.450410 1.529632 15.360997
1994 1 13.635486 24.680498 4.447055
1995 1 7.686426 28.311579 8.278443
1996 1 9.196447 4.977110 17.195761
1997 1 29.750405 7.769074 23.936782
1998 1 19.090179 29.061643 7.268271
1999 1 18.303336 16.298585 7.969335
2000 1 26.937390 19.578578 13.864876
2001 1 27.705462 17.409953 27.842358
2002 1 3.988632 29.280993 3.180236
2003 1 29.436233 12.102370 30.316587
2004 1 16.440399 21.230055 6.981767
2005 1 11.443667 30.170372 5.966506
2006 1 28.165449 4.916562 7.137312
2007 1 1.028290 22.966707 9.886900
2008 1 24.408460 4.267461 15.316906
2009 1 0.089589 33.057814 10.384442
2010 1 22.048153 22.054198 31.108259
2011 1 29.275683 18.836512 33.317676
2012 1 1.671185 23.240015 30.372244
2013 1 33.027403 14.601604 7.030886
2014 1 1.241862 28.483183 4.908151
2015 1 25.552048 16.381391 14.505852
2016 1 31.094008 25.565688 26.544062
2017 1 32.680890 26.846285 22.214381
2018 1 6.347658 0.754439 13.610741
2019 1 14.985139 24.479868 2.241785
2020 1 6.035121 29.783268 1.555475
2021 1 17.153896 12.472240 27.099646
2022 1 5.867774 11.637314 9.237118
2023 1 15.017710 28.731392 20.161170
2024 1 21.563770 24.783838 16.858782
2025 1 11.240715 7.434499 8.480979
2026 1 14.269132 0.249624 17.390155
2027 1 10.773940 28.251475 20.081645
2028 1 25.600303 8.864908 31.670854
2029 1 10.240778 13.803185 19.133155
2030 1 32.052458 22.076454 8.987070
2031 1 32.553337 3.373466 22.739741
2032 1 8.794281 13.037059 1.168897
2033 1 12.090656 30.355353 13.891112
2034 1 5.392368 21.702810 24.411740
2035 1 13.197921 28.261531 22.016974
2036 1 25.148631 0.159064 20.264029
2037 1 27.266623 11.303047 32.029030
2038 1 14.689423 9.773307 14.720790
2039 1 11.746229 1.839327 10.583150
2040 1 16.222281 14.097520 13.940049
2041 1 30.456278 16.154176 12.371061
2042 1 10.397461 7.766408 15.148839
2043 1 3.150832 31.125214 28.415107
2044 1 20.906440 19.384720 27.341092
2045 1 16.815726 30.213377 18.805022
2046 1 18.313800 20.400353 18.852349
2047 1 1.190142 25.510909 17.482682
2048 1 8.775902 25.277921 17.320554
