LAMMPS (10 Sep 2025)
  using 1 OpenMP thread(s) per MPI task
# Al3Nb D0_22 (I4/mmm), fcc Al and bcc Nb at 0 K: lattice and formation energy, Al-Nb MEAM 2022.
units metal
atom_style atomic
boundary p p p
variable ea equal 0
# --- fcc Al
lattice fcc 4.0447
Lattice spacing in x,y,z = 4.0447 4.0447 4.0447
region b block 0 4 0 4 0 4
create_box 2 b
Created orthogonal box = (0 0 0) to (16.1788 16.1788 16.1788)
  1 by 1 by 1 MPI processor grid
create_atoms 1 box
Created 256 atoms
  using lattice units in orthogonal box = (0 0 0) to (16.1788 16.1788 16.1788)
  create_atoms CPU = 0.003 seconds
mass 1 26.982
mass 2 92.906
pair_style meam
pair_coeff * * ../../potentials/AlNb_Fereidonnejad2022/library.meam Al Nb ../../potentials/AlNb_Fereidonnejad2022/AlNb.meam Al Nb
fix r all box/relax iso 0.0
minimize 0 1e-10 10000 100000
Neighbor list info ...
  update: every = 1 steps, delay = 0 steps, check = yes
  max neighbors/atom: 2000, page size: 100000
  master list distance cutoff = 7
  ghost atom cutoff = 7
  binsize = 3.5, bins = 5 5 5
  2 neighbor lists, perpetual/occasional/extra = 2 0 0
  (1) pair meam, perpetual
      attributes: full, newton on
      pair build: full/bin/atomonly
      stencil: full/bin/3d
      bin: standard
  (2) pair meam, perpetual, half/full from (1)
      attributes: half, newton on
      pair build: halffull/newton
      stencil: none
      bin: none
WARNING: Energy due to 1 extra global DOFs will be included in minimizer energies
 (src/lammps-10Sep2025/src/min.cpp:222)
Per MPI rank memory allocation (min/avg/max) = 10.31 | 10.31 | 10.31 Mbytes
   Step          Temp          E_pair         E_mol          TotEng         Press          Volume    
         0   0             -860.16         0             -860.16        -28.975008      4234.8586    
         3   0             -860.16         0             -860.16         3.1856209e-10  4234.7041    
Loop time of 0.0776613 on 1 procs for 3 steps with 256 atoms

92.3% CPU use with 1 MPI tasks x 1 OpenMP threads

Minimization stats:
  Stopping criterion = force tolerance
  Energy initial, next-to-last, final = 
     -860.159998602159  -860.160000000002  -860.159999999992
  Force two-norm initial, final = 0.22975945 2.5524609e-12
  Force max component initial, final = 0.22975945 2.5259999e-12
  Final line search alpha, max atom move = 1 2.5259999e-12
  Iterations, force evaluations = 3 6

MPI task timing breakdown:
Section |  min time  |  avg time  |  max time  |%varavg| %total
---------------------------------------------------------------
Pair    | 0.076506   | 0.076506   | 0.076506   |   0.0 | 98.51
Neigh   | 0          | 0          | 0          |   0.0 |  0.00
Comm    | 0.00011889 | 0.00011889 | 0.00011889 |   0.0 |  0.15
Output  | 0          | 0          | 0          |   0.0 |  0.00
Modify  | 0          | 0          | 0          |   0.0 |  0.00
Other   |            | 0.001037   |            |       |  1.33

Nlocal:            256 ave         256 max         256 min
Histogram: 1 0 0 0 0 0 0 0 0 0
Nghost:           1431 ave        1431 max        1431 min
Histogram: 1 0 0 0 0 0 0 0 0 0
Neighs:           9984 ave        9984 max        9984 min
Histogram: 1 0 0 0 0 0 0 0 0 0
FullNghs:        19968 ave       19968 max       19968 min
Histogram: 1 0 0 0 0 0 0 0 0 0

Total # of neighbors = 19968
Ave neighs/atom = 78
Neighbor list builds = 0
Dangerous builds = 0
variable eAl equal pe/atoms
variable aAl equal lx/4
print "RESULT fcc_Al a=${aAl} E=${eAl}"
RESULT fcc_Al a=4.04465078722182 E=-3.35999999999997
clear
  using 1 OpenMP thread(s) per MPI task
# --- bcc Nb
units metal
atom_style atomic
boundary p p p
lattice bcc 3.30
Lattice spacing in x,y,z = 3.3 3.3 3.3
region b block 0 4 0 4 0 4
create_box 2 b
Created orthogonal box = (0 0 0) to (13.2 13.2 13.2)
  1 by 1 by 1 MPI processor grid
create_atoms 2 box
Created 128 atoms
  using lattice units in orthogonal box = (0 0 0) to (13.2 13.2 13.2)
  create_atoms CPU = 0.003 seconds
mass 1 26.982
mass 2 92.906
pair_style meam
pair_coeff * * ../../potentials/AlNb_Fereidonnejad2022/library.meam Al Nb ../../potentials/AlNb_Fereidonnejad2022/AlNb.meam Al Nb
fix r all box/relax iso 0.0
minimize 0 1e-10 10000 100000
Neighbor list info ...
  update: every = 1 steps, delay = 0 steps, check = yes
  max neighbors/atom: 2000, page size: 100000
  master list distance cutoff = 7
  ghost atom cutoff = 7
  binsize = 3.5, bins = 4 4 4
  2 neighbor lists, perpetual/occasional/extra = 2 0 0
  (1) pair meam, perpetual
      attributes: full, newton on
      pair build: full/bin/atomonly
      stencil: full/bin/3d
      bin: standard
  (2) pair meam, perpetual, half/full from (1)
      attributes: half, newton on
      pair build: halffull/newton
      stencil: none
      bin: none
WARNING: Energy due to 1 extra global DOFs will be included in minimizer energies
 (src/lammps-10Sep2025/src/min.cpp:222)
Per MPI rank memory allocation (min/avg/max) = 10.1 | 10.1 | 10.1 Mbytes
   Step          Temp          E_pair         E_mol          TotEng         Press          Volume    
         0   0             -956.19449      0             -956.19449      3833.3594      2299.968     
        10   0             -956.20055      0             -956.20055     -3.7260044e-10  2305.0462    
Loop time of 0.151153 on 1 procs for 10 steps with 128 atoms

92.3% CPU use with 1 MPI tasks x 1 OpenMP threads

Minimization stats:
  Stopping criterion = force tolerance
  Energy initial, next-to-last, final = 
     -956.194486161638  -956.200549512593  -956.200549512578
  Force two-norm initial, final = 16.508675 1.6161796e-12
  Force max component initial, final = 16.508675 1.6069953e-12
  Final line search alpha, max atom move = 1 1.6069953e-12
  Iterations, force evaluations = 10 13

MPI task timing breakdown:
Section |  min time  |  avg time  |  max time  |%varavg| %total
---------------------------------------------------------------
Pair    | 0.14979    | 0.14979    | 0.14979    |   0.0 | 99.10
Neigh   | 0          | 0          | 0          |   0.0 |  0.00
Comm    | 0.00022384 | 0.00022384 | 0.00022384 |   0.0 |  0.15
Output  | 0          | 0          | 0          |   0.0 |  0.00
Modify  | 0          | 0          | 0          |   0.0 |  0.00
Other   |            | 0.001144   |            |       |  0.76

Nlocal:            128 ave         128 max         128 min
Histogram: 1 0 0 0 0 0 0 0 0 0
Nghost:           1113 ave        1113 max        1113 min
Histogram: 1 0 0 0 0 0 0 0 0 0
Neighs:           4096 ave        4096 max        4096 min
Histogram: 1 0 0 0 0 0 0 0 0 0
FullNghs:         8192 ave        8192 max        8192 min
Histogram: 1 0 0 0 0 0 0 0 0 0

Total # of neighbors = 8192
Ave neighs/atom = 64
Neighbor list builds = 0
Dangerous builds = 0
variable eNb equal pe/atoms
variable aNb equal lx/4
print "RESULT bcc_Nb a=${aNb} E=${eNb}"
RESULT bcc_Nb a=3.30242693873951 E=-7.47031679306701
clear
  using 1 OpenMP thread(s) per MPI task
# --- Al3Nb D0_22: a = 3.841, c = 8.609 Å (experiment)
units metal
atom_style atomic
boundary p p p
lattice custom 1.0 a1 3.841 0 0 a2 0 3.841 0 a3 0 0 8.609         basis 0 0 0 basis 0.5 0.5 0.5         basis 0 0 0.5 basis 0.5 0.5 0 basis 0 0.5 0.25 basis 0.5 0 0.25 basis 0 0.5 0.75 basis 0.5 0 0.75
Lattice spacing in x,y,z = 3.841 3.841 8.609
region b block 0 4 0 4 0 2
create_box 2 b
Created orthogonal box = (0 0 0) to (15.364 15.364 17.218)
  1 by 1 by 1 MPI processor grid
create_atoms 1 box basis 1 2 basis 2 2 basis 3 1 basis 4 1 basis 5 1 basis 6 1 basis 7 1 basis 8 1
Created 256 atoms
  using lattice units in orthogonal box = (0 0 0) to (15.364 15.364 17.218)
  create_atoms CPU = 0.000 seconds
mass 1 26.982
mass 2 92.906
pair_style meam
pair_coeff * * ../../potentials/AlNb_Fereidonnejad2022/library.meam Al Nb ../../potentials/AlNb_Fereidonnejad2022/AlNb.meam Al Nb
fix r all box/relax aniso 0.0
minimize 0 1e-10 10000 100000
Neighbor list info ...
  update: every = 1 steps, delay = 0 steps, check = yes
  max neighbors/atom: 2000, page size: 100000
  master list distance cutoff = 7
  ghost atom cutoff = 7
  binsize = 3.5, bins = 5 5 5
  2 neighbor lists, perpetual/occasional/extra = 2 0 0
  (1) pair meam, perpetual
      attributes: full, newton on
      pair build: full/bin/atomonly
      stencil: full/bin/3d
      bin: standard
  (2) pair meam, perpetual, half/full from (1)
      attributes: half, newton on
      pair build: halffull/newton
      stencil: none
      bin: none
WARNING: Energy due to 3 extra global DOFs will be included in minimizer energies
 (src/lammps-10Sep2025/src/min.cpp:222)
Per MPI rank memory allocation (min/avg/max) = 10.33 | 10.33 | 10.33 Mbytes
   Step          Temp          E_pair         E_mol          TotEng         Press          Volume    
         0   0             -1103.1496      0             -1103.1496      101240.89      4064.3519    
       850   0             -1118.4039      0             -1118.4039     -1.055367e-10   4440.746     
Loop time of 8.46381 on 1 procs for 850 steps with 256 atoms

92.2% CPU use with 1 MPI tasks x 1 OpenMP threads

Minimization stats:
  Stopping criterion = force tolerance
  Energy initial, next-to-last, final = 
     -1103.14956585109  -1118.40388004884  -1118.40388004884
  Force two-norm initial, final = 457.55509 4.3156324e-12
  Force max component initial, final = 300.56604 3.8091579e-13
  Final line search alpha, max atom move = 1 3.8091579e-13
  Iterations, force evaluations = 850 854

MPI task timing breakdown:
Section |  min time  |  avg time  |  max time  |%varavg| %total
---------------------------------------------------------------
Pair    | 8.3486     | 8.3486     | 8.3486     |   0.0 | 98.64
Neigh   | 0.0047893  | 0.0047893  | 0.0047893  |   0.0 |  0.06
Comm    | 0.016859   | 0.016859   | 0.016859   |   0.0 |  0.20
Output  | 0          | 0          | 0          |   0.0 |  0.00
Modify  | 0          | 0          | 0          |   0.0 |  0.00
Other   |            | 0.09354    |            |       |  1.11

Nlocal:            256 ave         256 max         256 min
Histogram: 1 0 0 0 0 0 0 0 0 0
Nghost:           1431 ave        1431 max        1431 min
Histogram: 1 0 0 0 0 0 0 0 0 0
Neighs:           9984 ave        9984 max        9984 min
Histogram: 1 0 0 0 0 0 0 0 0 0
FullNghs:        19968 ave       19968 max       19968 min
Histogram: 1 0 0 0 0 0 0 0 0 0

Total # of neighbors = 19968
Ave neighs/atom = 78
Neighbor list builds = 1
Dangerous builds = 0
variable eD equal pe/atoms
variable a equal lx/4
variable c equal lz/2
group al type 1
192 atoms in group al
group nb type 2
64 atoms in group nb
print "RESULT Al3Nb_D022 a=${a} c=${c} E=${eD} nAl=$(count(al)) nNb=$(count(nb))"
RESULT Al3Nb_D022 a=4.0970981015621 c=8.26710078354003 E=-4.36876515644078 nAl=192 nNb=64
Total wall time: 0:00:09
