LAMMPS (10 Sep 2025)
  using 1 OpenMP thread(s) per MPI task
# Al3Nb energies: D0_22 at the experimental lattice (no relaxation, positions relaxed only), and L1_2.
variable s index d022fixed
units metal
atom_style atomic
boundary p p p
if "${s} == l12" then "lattice custom 1.0 a1 4.0 0 0 a2 0 4.0 0 a3 0 0 4.0 basis 0 0 0 basis 0.5 0.5 0 basis 0.5 0 0.5 basis 0 0.5 0.5" else    "lattice custom 1.0 a1 3.841 0 0 a2 0 3.841 0 a3 0 0 8.609 basis 0 0 0 basis 0.5 0.5 0.5 basis 0 0 0.5 basis 0.5 0.5 0 basis 0 0.5 0.25 basis 0.5 0 0.25 basis 0 0.5 0.75 basis 0.5 0 0.75"
lattice custom 1.0 a1 3.841 0 0 a2 0 3.841 0 a3 0 0 8.609 basis 0 0 0 basis 0.5 0.5 0.5 basis 0 0 0.5 basis 0.5 0.5 0 basis 0 0.5 0.25 basis 0.5 0 0.25 basis 0 0.5 0.75 basis 0.5 0 0.75
Lattice spacing in x,y,z = 3.841 3.841 8.609
region b block 0 4 0 4 0 4
create_box 2 b
Created orthogonal box = (0 0 0) to (15.364 15.364 34.436)
  1 by 1 by 1 MPI processor grid
if "${s} == l12" then "create_atoms 1 box basis 1 2 basis 2 1 basis 3 1 basis 4 1" else "create_atoms 1 box basis 1 2 basis 2 2 basis 3 1 basis 4 1 basis 5 1 basis 6 1 basis 7 1 basis 8 1"
create_atoms 1 box basis 1 2 basis 2 2 basis 3 1 basis 4 1 basis 5 1 basis 6 1 basis 7 1 basis 8 1
Created 512 atoms
  using lattice units in orthogonal box = (0 0 0) to (15.364 15.364 34.436)
  create_atoms CPU = 0.006 seconds
mass 1 26.982
mass 2 92.906
pair_style meam
pair_coeff * * ../../potentials/AlNb_Fereidonnejad2022/library.meam Al Nb ../../potentials/AlNb_Fereidonnejad2022/AlNb.meam Al Nb
group nb type 2
128 atoms in group nb
run 0
WARNING: No fixes with time integration, atoms won't move
For more information see https://docs.lammps.org/err0028 (src/lammps-10Sep2025/src/verlet.cpp:60)
Neighbor list info ...
  update: every = 1 steps, delay = 0 steps, check = yes
  max neighbors/atom: 2000, page size: 100000
  master list distance cutoff = 7
  ghost atom cutoff = 7
  binsize = 3.5, bins = 5 5 10
  2 neighbor lists, perpetual/occasional/extra = 2 0 0
  (1) pair meam, perpetual
      attributes: full, newton on
      pair build: full/bin/atomonly
      stencil: full/bin/3d
      bin: standard
  (2) pair meam, perpetual, half/full from (1)
      attributes: half, newton on
      pair build: halffull/newton
      stencil: none
      bin: none
Per MPI rank memory allocation (min/avg/max) = 9.494 | 9.494 | 9.494 Mbytes
   Step          Temp          E_pair         E_mol          TotEng         Press     
         0   0             -2206.2991      0             -2206.2991      101240.89    
Loop time of 5.045e-06 on 1 procs for 0 steps with 512 atoms

79.3% CPU use with 1 MPI tasks x 1 OpenMP threads

MPI task timing breakdown:
Section |  min time  |  avg time  |  max time  |%varavg| %total
---------------------------------------------------------------
Pair    | 0          | 0          | 0          |   0.0 |  0.00
Neigh   | 0          | 0          | 0          |   0.0 |  0.00
Comm    | 0          | 0          | 0          |   0.0 |  0.00
Output  | 0          | 0          | 0          |   0.0 |  0.00
Modify  | 0          | 0          | 0          |   0.0 |  0.00
Other   |            | 5.045e-06  |            |       |100.00

Nlocal:            512 ave         512 max         512 min
Histogram: 1 0 0 0 0 0 0 0 0 0
Nghost:           2075 ave        2075 max        2075 min
Histogram: 1 0 0 0 0 0 0 0 0 0
Neighs:          22016 ave       22016 max       22016 min
Histogram: 1 0 0 0 0 0 0 0 0 0
FullNghs:        44032 ave       44032 max       44032 min
Histogram: 1 0 0 0 0 0 0 0 0 0

Total # of neighbors = 44032
Ave neighs/atom = 86
Neighbor list builds = 0
Dangerous builds = 0
variable e0 equal pe/atoms
print "RESULT ${s} unrelaxed E=${e0} xNb=$(count(nb)/atoms)"
RESULT d022fixed unrelaxed E=-4.30917799160571 xNb=0.25
if "${s} == l12" then "fix r all box/relax iso 0.0"
minimize 0 1e-10 10000 100000
Per MPI rank memory allocation (min/avg/max) = 10.62 | 10.62 | 10.62 Mbytes
   Step          Temp          E_pair         E_mol          TotEng         Press     
         0   0             -2206.2991      0             -2206.2991      101240.89    
         1   0             -2206.2991      0             -2206.2991      101240.89    
Loop time of 0.19955 on 1 procs for 1 steps with 512 atoms

84.3% CPU use with 1 MPI tasks x 1 OpenMP threads

Minimization stats:
  Stopping criterion = force tolerance
  Energy initial, next-to-last, final = 
     -2206.29913170212  -2206.29913170212  -2206.29913170212
  Force two-norm initial, final = 2.0238379e-13 1.9913483e-13
  Force max component initial, final = 1.6486812e-14 1.624742e-14
  Final line search alpha, max atom move = 1 1.624742e-14
  Iterations, force evaluations = 1 2

MPI task timing breakdown:
Section |  min time  |  avg time  |  max time  |%varavg| %total
---------------------------------------------------------------
Pair    | 0.19554    | 0.19554    | 0.19554    |   0.0 | 97.99
Neigh   | 0          | 0          | 0          |   0.0 |  0.00
Comm    | 0.00010622 | 0.00010622 | 0.00010622 |   0.0 |  0.05
Output  | 0          | 0          | 0          |   0.0 |  0.00
Modify  | 0          | 0          | 0          |   0.0 |  0.00
Other   |            | 0.003905   |            |       |  1.96

Nlocal:            512 ave         512 max         512 min
Histogram: 1 0 0 0 0 0 0 0 0 0
Nghost:           2075 ave        2075 max        2075 min
Histogram: 1 0 0 0 0 0 0 0 0 0
Neighs:          22016 ave       22016 max       22016 min
Histogram: 1 0 0 0 0 0 0 0 0 0
FullNghs:        44032 ave       44032 max       44032 min
Histogram: 1 0 0 0 0 0 0 0 0 0

Total # of neighbors = 44032
Ave neighs/atom = 86
Neighbor list builds = 0
Dangerous builds = 0
variable e1 equal pe/atoms
print "RESULT ${s} relaxed E=$(pe/atoms) a=$(lx/4) c=$(lz/4)"
RESULT d022fixed relaxed E=-4.3091779916057060262 a=3.8410000000000001918 c=8.6089999999999999858
Total wall time: 0:00:00
