LAMMPS (10 Sep 2025)
  using 1 OpenMP thread(s) per MPI task
# Al3Nb energies: D0_22 at the experimental lattice (no relaxation, positions relaxed only), and L1_2.
variable s index d022fixed
units metal
atom_style atomic
boundary p p p
if "${s} == l12" then "lattice custom 1.0 a1 4.0 0 0 a2 0 4.0 0 a3 0 0 4.0 basis 0 0 0 basis 0.5 0.5 0 basis 0.5 0 0.5 basis 0 0.5 0.5" else    "lattice custom 1.0 a1 3.841 0 0 a2 0 3.841 0 a3 0 0 8.609 basis 0 0 0 basis 0.5 0.5 0.5 basis 0 0 0.5 basis 0.5 0.5 0 basis 0 0.5 0.25 basis 0.5 0 0.25 basis 0 0.5 0.75 basis 0.5 0 0.75"
lattice custom 1.0 a1 4.0 0 0 a2 0 4.0 0 a3 0 0 4.0 basis 0 0 0 basis 0.5 0.5 0 basis 0.5 0 0.5 basis 0 0.5 0.5
Lattice spacing in x,y,z = 4 4 4
region b block 0 4 0 4 0 4
create_box 2 b
Created orthogonal box = (0 0 0) to (16 16 16)
  1 by 1 by 1 MPI processor grid
if "${s} == l12" then "create_atoms 1 box basis 1 2 basis 2 1 basis 3 1 basis 4 1" else "create_atoms 1 box basis 1 2 basis 2 2 basis 3 1 basis 4 1 basis 5 1 basis 6 1 basis 7 1 basis 8 1"
create_atoms 1 box basis 1 2 basis 2 1 basis 3 1 basis 4 1
Created 256 atoms
  using lattice units in orthogonal box = (0 0 0) to (16 16 16)
  create_atoms CPU = 0.001 seconds
mass 1 26.982
mass 2 92.906
pair_style eam/fs
pair_coeff * * ../../potentials/NiAlNb_Borovikov2024/Ni-Al-Nb.eam.fs Al Nb
group nb type 2
64 atoms in group nb
run 0
WARNING: No fixes with time integration, atoms won't move
For more information see https://docs.lammps.org/err0028 (src/lammps-10Sep2025/src/verlet.cpp:60)
Neighbor list info ...
  update: every = 1 steps, delay = 0 steps, check = yes
  max neighbors/atom: 2000, page size: 100000
  master list distance cutoff = 8.9
  ghost atom cutoff = 8.9
  binsize = 4.45, bins = 4 4 4
  1 neighbor lists, perpetual/occasional/extra = 1 0 0
  (1) pair eam/fs, perpetual
      attributes: half, newton on
      pair build: half/bin/atomonly/newton
      stencil: half/bin/3d
      bin: standard
Per MPI rank memory allocation (min/avg/max) = 3.411 | 3.411 | 3.411 Mbytes
   Step          Temp          E_pair         E_mol          TotEng         Press     
         0   0             -1277.5906      0             -1277.5906      71.844672    
Loop time of 5.093e-06 on 1 procs for 0 steps with 256 atoms

58.9% CPU use with 1 MPI tasks x 1 OpenMP threads

MPI task timing breakdown:
Section |  min time  |  avg time  |  max time  |%varavg| %total
---------------------------------------------------------------
Pair    | 0          | 0          | 0          |   0.0 |  0.00
Neigh   | 0          | 0          | 0          |   0.0 |  0.00
Comm    | 0          | 0          | 0          |   0.0 |  0.00
Output  | 0          | 0          | 0          |   0.0 |  0.00
Modify  | 0          | 0          | 0          |   0.0 |  0.00
Other   |            | 5.093e-06  |            |       |100.00

Nlocal:            256 ave         256 max         256 min
Histogram: 1 0 0 0 0 0 0 0 0 0
Nghost:           2201 ave        2201 max        2201 min
Histogram: 1 0 0 0 0 0 0 0 0 0
Neighs:          22528 ave       22528 max       22528 min
Histogram: 1 0 0 0 0 0 0 0 0 0

Total # of neighbors = 22528
Ave neighs/atom = 88
Neighbor list builds = 0
Dangerous builds = 0
variable e0 equal pe/atoms
print "RESULT ${s} unrelaxed E=${e0} xNb=$(count(nb)/atoms)"
RESULT l12 unrelaxed E=-4.99058836392795 xNb=0.25
if "${s} == l12" then "fix r all box/relax iso 0.0"
fix r all box/relax iso 0.0
minimize 0 1e-10 10000 100000
WARNING: Energy due to 1 extra global DOFs will be included in minimizer energies
 (src/lammps-10Sep2025/src/min.cpp:222)
Per MPI rank memory allocation (min/avg/max) = 4.536 | 4.536 | 4.536 Mbytes
   Step          Temp          E_pair         E_mol          TotEng         Press          Volume    
         0   0             -1277.5906      0             -1277.5906      71.844672      4096         
         3   0             -1277.5906      0             -1277.5906     -8.812138e-10   4096.2751    
Loop time of 0.0122979 on 1 procs for 3 steps with 256 atoms

93.3% CPU use with 1 MPI tasks x 1 OpenMP threads

Minimization stats:
  Stopping criterion = force tolerance
  Energy initial, next-to-last, final = 
     -1277.59062116555  -1277.59062733397  -1277.59062733378
  Force two-norm initial, final = 0.55101752 6.7622693e-12
  Force max component initial, final = 0.55101752 6.7588309e-12
  Final line search alpha, max atom move = 1 6.7588309e-12
  Iterations, force evaluations = 3 6

MPI task timing breakdown:
Section |  min time  |  avg time  |  max time  |%varavg| %total
---------------------------------------------------------------
Pair    | 0.011567   | 0.011567   | 0.011567   |   0.0 | 94.05
Neigh   | 0          | 0          | 0          |   0.0 |  0.00
Comm    | 0.00019112 | 0.00019112 | 0.00019112 |   0.0 |  1.55
Output  | 0          | 0          | 0          |   0.0 |  0.00
Modify  | 0          | 0          | 0          |   0.0 |  0.00
Other   |            | 0.0005401  |            |       |  4.39

Nlocal:            256 ave         256 max         256 min
Histogram: 1 0 0 0 0 0 0 0 0 0
Nghost:           2201 ave        2201 max        2201 min
Histogram: 1 0 0 0 0 0 0 0 0 0
Neighs:          22528 ave       22528 max       22528 min
Histogram: 1 0 0 0 0 0 0 0 0 0

Total # of neighbors = 22528
Ave neighs/atom = 88
Neighbor list builds = 0
Dangerous builds = 0
variable e1 equal pe/atoms
print "RESULT ${s} relaxed E=$(pe/atoms) a=$(lx/4) c=$(lz/4)"
RESULT l12 relaxed E=-4.9905883880225845317 a=4.0000895597762866629 c=4.0000895597762866629
Total wall time: 0:00:05
