LAMMPS (10 Sep 2025)
  using 1 OpenMP thread(s) per MPI task
# fcc fraction of GPUMD frames with the same CNA as md/e2_melting (cna/atom, cutoff 0.854 a0).
#   lmp -in in.cna_rerun -var d coexist_900
variable a0 equal 3.9899
units      metal
atom_style atomic
boundary   p p p
read_data  ${d}/frame0.data
read_data  coexist_910/frame0.data
Reading data file ...
  orthogonal box = (0 0 0) to (32.672906 32.632632 134.54077)
  1 by 1 by 1 MPI processor grid
  reading atoms ...
  8192 atoms
  read_data CPU = 0.145 seconds
pair_style zero 6.0
pair_coeff * *
compute    c all cna/atom $(0.854*v_a0)
compute    c all cna/atom 3.4073745999999998091
variable   isfcc atom c_c==1
compute    nf all reduce sum v_isfcc
variable   ffcc equal c_nf/atoms
thermo_style custom step v_ffcc
thermo_modify format float %.5f
thermo     1
rerun      ${d}/prod.dump dump x y z box yes
rerun      coexist_910/prod.dump dump x y z box yes
WARNING: No fixes with time integration, atoms won't move
For more information see https://docs.lammps.org/err0028 (src/lammps-10Sep2025/src/verlet.cpp:60)
Generated 0 of 0 mixed pair_coeff terms from geometric mixing rule
Neighbor list info ...
  update: every = 1 steps, delay = 0 steps, check = yes
  max neighbors/atom: 2000, page size: 100000
  master list distance cutoff = 8
  ghost atom cutoff = 8
  binsize = 4, bins = 9 9 34
  2 neighbor lists, perpetual/occasional/extra = 1 1 0
  (1) pair zero, perpetual
      attributes: half, newton on
      pair build: half/bin/atomonly/newton
      stencil: half/bin/3d
      bin: standard
  (2) compute cna/atom, occasional
      attributes: full, newton on
      pair build: full/bin/atomonly
      stencil: full/bin/3d
      bin: standard
Per MPI rank memory allocation (min/avg/max) = 8.334 | 8.334 | 8.334 Mbytes
   Step         v_ffcc    
         0  0.30115
         1  0.28979
         2  0.27661
         3  0.26135
         4  0.26782
         5  0.26501
         6  0.24963
         7  0.20227
         8  0.22937
         9  0.24023
        10  0.22437
        11  0.22009
        12  0.25952
        13  0.22034
        14  0.22375
        15  0.21436
        16  0.23608
        17  0.21826
        18  0.21777
        19  0.25171
        20  0.22754
        21  0.22998
        22  0.23303
        23  0.23755
        24  0.22083
        25  0.24561
        26  0.23499
        27  0.21082
        28  0.23181
        29  0.25903
        30  0.23413
        31  0.23718
        32  0.22583
        33  0.23535
        34  0.25049
        35  0.25208
        36  0.24231
        37  0.26270
        38  0.26831
        39  0.25354
        40  0.27161
        41  0.23450
        42  0.23901
        43  0.25989
        44  0.24023
        45  0.25525
        46  0.25146
        47  0.27148
        48  0.29932
        49  0.27783
Loop time of 9.87053 on 1 procs for 50 steps with 8192 atoms

Total wall time: 0:00:10
