LAMMPS (10 Sep 2025)
  using 1 OpenMP thread(s) per MPI task
package gpu 1
# Capillary fluctuation method (Hoyt, Asta, Karma 2001): quasi-2D solid-liquid ribbon at T_m.
# Interface normal z, fluctuation direction x, thin y.  orient: 100 | 110 | 111 (interface plane)
#   mpirun -np 4 lmp -in in.cfm -var pot borovikov -var Tm 930 -var orient 100
variable pot    index borovikov
variable Tm     index 930
variable orient index 100
variable ny     index 3   # y cells (thickness); E2 used 3 | 2 | 3
variable dump   index cfm_${pot}_${orient}.dump
variable dump   index cfm_borovikov_${orient}.dump
variable dump   index cfm_borovikov_100.dump
variable seed   index 3301
variable neq    index 25000
variable nprod  index 200000
variable nstage index 10000
variable ndump  index 2000
variable a0 equal 4.05
if "${pot} == borovikov" then "variable a0 equal 4.016"
variable a0 equal 4.016
if "${pot} == mendelev" then "variable a0 equal 4.045"
units        metal
atom_style   atomic
boundary     p p p
# (x, y, z) = (fluctuation, thin, interface normal)
if "${orient} == 100" then "lattice fcc ${a0} orient x 1 0 0 orient y 0 1 0 orient z 0 0 1" "region box block 0 60 0 ${ny} 0 30"
lattice fcc ${a0} orient x 1 0 0 orient y 0 1 0 orient z 0 0 1
lattice fcc 4.016 orient x 1 0 0 orient y 0 1 0 orient z 0 0 1
Lattice spacing in x,y,z = 4.016 4.016 4.016
region box block 0 60 0 ${ny} 0 30
region box block 0 60 0 8 0 30
if "${orient} == 110" then "lattice fcc ${a0} orient x 0 0 1 orient y 1 -1 0 orient z 1 1 0" "region box block 0 60 0 ${ny} 0 21"
if "${orient} == 111" then "lattice fcc ${a0} orient x 1 -1 0 orient y 1 1 -2 orient z 1 1 1" "region box block 0 42 0 ${ny} 0 17"
create_box   1 box
Created orthogonal box = (0 0 0) to (240.96 32.128 120.48)
  1 by 1 by 1 MPI processor grid
create_atoms 1 box
Created 57600 atoms
  using lattice units in orthogonal box = (0 0 0) to (240.96 32.128 120.48)
  create_atoms CPU = 0.005 seconds
mass         1 26.982
include      ../e2_melting/pot_${pot}.lmp
include      ../e2_melting/pot_borovikov.lmp
# Borovikov, Mendelev, Zarkevich, Smith, Lawson, Int. J. Plast. 178 (2024) 104004 — EAM/FS Ni-Al-Nb (NIST IPR)
pair_style eam/fs
pair_coeff * * ../../potentials/NiAlNb_Borovikov2024/Ni-Al-Nb.eam.fs Al
timestep     0.002
thermo       1000
# solid at Tm, lateral lattice fixed afterwards
velocity     all create ${Tm} ${seed} mom yes rot yes dist gaussian
velocity     all create 936 ${seed} mom yes rot yes dist gaussian
velocity     all create 936 3301 mom yes rot yes dist gaussian
fix          eq all npt temp ${Tm} ${Tm} 0.2 aniso 0 0 2.0
fix          eq all npt temp 936 ${Tm} 0.2 aniso 0 0 2.0
fix          eq all npt temp 936 936 0.2 aniso 0 0 2.0
run          ${nstage}
run          10000

CITE-CITE-CITE-CITE-CITE-CITE-CITE-CITE-CITE-CITE-CITE-CITE-CITE

Your simulation uses code contributions which should be cited:

- GPU package (short-range, long-range and three-body potentials): doi:10.1016/j.cpc.2010.12.021, doi:10.1016/j.cpc.2011.10.012, doi:10.1016/j.cpc.2013.08.002, doi:10.1016/j.commatsci.2014.10.068, doi:10.1016/j.cpc.2016.10.020, doi:10.3233/APC200086

@Article{Brown11,
 author = {W. M. Brown and P. Wang and S. J. Plimpton and A. N. Tharrington},
 title = {Implementing Molecular Dynamics on Hybrid High Performance Computers---Short Range Forces},
 journal = {Comput.\ Phys.\ Commun.},
 year =    2011,
 volume =  182,
 pages =   {898--911},
 doi =     {10.1016/j.cpc.2010.12.021}
}

@Article{Brown12,
 author = {W. M. Brown and A. Kohlmeyer and S. J. Plimpton and A. N. Tharrington},
 title = {Implementing Molecular Dynamics on Hybrid High Performance Computers - Particle-Particle Particle-Mesh},
 journal = {Comput.\ Phys.\ Commun.},
 year =    2012,
 volume =  183,
 doi =     {10.1016/j.cpc.2011.10.012},
 pages =   {449--459}
}

@Article{Brown13,
 author = {W. M. Brown and Y. Masako},
 title = {Implementing Molecular Dynamics on Hybrid High Performance Computers---Three-Body Potentials},
 journal = {Comput.\ Phys.\ Commun.},
 year =    2013,
 volume =  184,
 pages =   {2785--2793},
 doi =     {10.1016/j.cpc.2013.08.002},
}

@Article{Trung15,
 author = {T. D. Nguyen and S. J. Plimpton},
 title = {Accelerating Dissipative Particle Dynamics Simulations for Soft Matter Systems},
 journal = {Comput.\ Mater.\ Sci.},
 year =    2015,
 doi =     {10.1016/j.commatsci.2014.10.068},
 volume =  100,
 pages =   {173--180}
}

@Article{Trung17,
 author = {T. D. Nguyen},
 title = {{GPU}-Accelerated {T}ersoff Potentials for Massively Parallel
    Molecular Dynamics Simulations},
 journal = {Comput.\ Phys.\ Commun.},
 year =    2017,
 doi =     {10.1016/j.cpc.2016.10.020},
 volume =  212,
 pages =   {113--122}
}

@inproceedings{Nikolskiy19,
 author = {V. Nikolskiy and V. Stegailov},
 title = {{GPU} Acceleration of Four-Site Water Models in {LAMMPS}},
 booktitle = {Proceedings of the International Conference on Parallel
    Computing (ParCo 2019), Prague, Czech Republic},
 doi =     {10.3233/APC200086},
 year =    2019
}

CITE-CITE-CITE-CITE-CITE-CITE-CITE-CITE-CITE-CITE-CITE-CITE-CITE

Per MPI rank memory allocation (min/avg/max) = 22.65 | 22.65 | 22.65 Mbytes
   Step          Temp          E_pair         E_mol          TotEng         Press          Volume    
         0   936           -205306.31      0             -198337.56      7973.6864      932703.5     
      1000   844.03894     -198765.21      0             -192481.12      1409.7834      999391.33    
      2000   930.56056     -197713.14      0             -190784.88      570.57571      1010869.7    
      3000   939.97903     -197638.65      0             -190640.26     -191.56032      1012449.9    
      4000   928.44089     -197726.68      0             -190814.2       455.58382      1010976.2    
      5000   941.27209     -197731.78      0             -190723.77     -203.75461      1011704.7    
      6000   942.84062     -197679.58      0             -190659.89     -120.26988      1012009.3    
      7000   934.7314      -197789.45      0             -190830.13      132.2722       1010674      
      8000   940.44126     -197686.68      0             -190684.85      141.40583      1011696.2    
      9000   938.22449     -197699.54      0             -190714.22      78.126319      1011529.7    
     10000   936.86745     -197753.9       0             -190778.68      315.131        1010837.8    
Loop time of 55.4216 on 1 procs for 10000 steps with 57600 atoms

Performance: 31.179 ns/day, 0.770 hours/ns, 180.435 timesteps/s, 10.393 Matom-step/s
98.8% CPU use with 1 MPI tasks x 1 OpenMP threads

MPI task timing breakdown:
Section |  min time  |  avg time  |  max time  |%varavg| %total
---------------------------------------------------------------
Pair    | 39.16      | 39.16      | 39.16      |   0.0 | 70.66
Neigh   | 0.057687   | 0.057687   | 0.057687   |   0.0 |  0.10
Comm    | 3.0078     | 3.0078     | 3.0078     |   0.0 |  5.43
Output  | 0.0022757  | 0.0022757  | 0.0022757  |   0.0 |  0.00
Modify  | 10.947     | 10.947     | 10.947     |   0.0 | 19.75
Other   |            | 2.247      |            |       |  4.05

Nlocal:          57600 ave       57600 max       57600 min
Histogram: 1 0 0 0 0 0 0 0 0 0
Nghost:          53618 ave       53618 max       53618 min
Histogram: 1 0 0 0 0 0 0 0 0 0
Neighs:              0 ave           0 max           0 min
Histogram: 1 0 0 0 0 0 0 0 0 0

Total # of neighbors = 0
Ave neighs/atom = 0
Neighbor list builds = 480
Dangerous builds = 0
unfix        eq
variable     zmid equal (zlo+zhi)/2
region       up block INF INF INF INF ${zmid} INF units box
region       up block INF INF INF INF 60.2400000000008 INF units box
group        liq region up
28762 atoms in group liq
group        sol subtract all liq
28838 atoms in group sol
velocity     sol set 0 0 0
fix          fr sol setforce 0 0 0
fix          m liq nvt temp 1500 1500 0.2
run          ${nstage}
run          10000
Per MPI rank memory allocation (min/avg/max) = 22.68 | 22.68 | 22.68 Mbytes
   Step          Temp          E_pair         E_mol          TotEng         Press     
     10000   468.02276     -197753.9       0             -194269.35     -3373.3387    
     11000   760.40542     -195454.29      0             -189792.88      16363.16     
     12000   742.63912     -195598.55      0             -190069.41      15242.586    
     13000   749.3583      -195466.39      0             -189887.22      16375.605    
     14000   748.12951     -195433.58      0             -189863.57      16674.439    
     15000   748.54882     -195216.67      0             -189643.54      18590.211    
     16000   746.47515     -194807.64      0             -189249.94      21947.578    
     17000   751.45862     -194370.3       0             -188775.5       25588.059    
     18000   748.5927      -193886.12      0             -188312.66      29234.221    
     19000   744.1384      -193715.24      0             -188174.94      30583.057    
     20000   754.42708     -193630.83      0             -188013.93      31259.927    
Loop time of 32.431 on 1 procs for 10000 steps with 57600 atoms

Performance: 53.282 ns/day, 0.450 hours/ns, 308.347 timesteps/s, 17.761 Matom-step/s
98.0% CPU use with 1 MPI tasks x 1 OpenMP threads

MPI task timing breakdown:
Section |  min time  |  avg time  |  max time  |%varavg| %total
---------------------------------------------------------------
Pair    | 20.911     | 20.911     | 20.911     |   0.0 | 64.48
Neigh   | 0.058793   | 0.058793   | 0.058793   |   0.0 |  0.18
Comm    | 2.7539     | 2.7539     | 2.7539     |   0.0 |  8.49
Output  | 0.0066004  | 0.0066004  | 0.0066004  |   0.0 |  0.02
Modify  | 6.5608     | 6.5608     | 6.5608     |   0.0 | 20.23
Other   |            | 2.14       |            |       |  6.60

Nlocal:          57600 ave       57600 max       57600 min
Histogram: 1 0 0 0 0 0 0 0 0 0
Nghost:          52680 ave       52680 max       52680 min
Histogram: 1 0 0 0 0 0 0 0 0 0
Neighs:              0 ave           0 max           0 min
Histogram: 1 0 0 0 0 0 0 0 0 0

Total # of neighbors = 0
Ave neighs/atom = 0
Neighbor list builds = 602
Dangerous builds = 0
unfix        m
fix          c liq nvt temp ${Tm} ${Tm} 0.2
fix          c liq nvt temp 936 ${Tm} 0.2
fix          c liq nvt temp 936 936 0.2
run          ${nstage}
run          10000
Per MPI rank memory allocation (min/avg/max) = 22.68 | 22.68 | 22.68 Mbytes
   Step          Temp          E_pair         E_mol          TotEng         Press     
     20000   754.42708     -193630.83      0             -188013.93      31259.927    
     21000   460.10425     -196206.98      0             -192781.39      13299.839    
     22000   474.40757     -196273.24      0             -192741.15      12517.227    
     23000   468.38398     -196455.61      0             -192968.38      10905.818    
     24000   466.55816     -196541.1       0             -193067.46      9856.0542    
     25000   469.02812     -196635.33      0             -193143.3       8918.4312    
     26000   466.27549     -196743.48      0             -193271.94      7917.5631    
     27000   472.84672     -196831.25      0             -193310.79      7024.611     
     28000   466.2903      -196902.29      0             -193430.64      6307.936     
     29000   468.22293     -196969.82      0             -193483.78      5462.5012    
     30000   466.59943     -197075.19      0             -193601.23      4383.8853    
Loop time of 32.0093 on 1 procs for 10000 steps with 57600 atoms

Performance: 53.984 ns/day, 0.445 hours/ns, 312.409 timesteps/s, 17.995 Matom-step/s
98.1% CPU use with 1 MPI tasks x 1 OpenMP threads

MPI task timing breakdown:
Section |  min time  |  avg time  |  max time  |%varavg| %total
---------------------------------------------------------------
Pair    | 20.731     | 20.731     | 20.731     |   0.0 | 64.77
Neigh   | 0.044312   | 0.044312   | 0.044312   |   0.0 |  0.14
Comm    | 2.6193     | 2.6193     | 2.6193     |   0.0 |  8.18
Output  | 0.0024129  | 0.0024129  | 0.0024129  |   0.0 |  0.01
Modify  | 6.5066     | 6.5066     | 6.5066     |   0.0 | 20.33
Other   |            | 2.106      |            |       |  6.58

Nlocal:          57600 ave       57600 max       57600 min
Histogram: 1 0 0 0 0 0 0 0 0 0
Nghost:          53352 ave       53352 max       53352 min
Histogram: 1 0 0 0 0 0 0 0 0 0
Neighs:              0 ave           0 max           0 min
Histogram: 1 0 0 0 0 0 0 0 0 0

Total # of neighbors = 0
Ave neighs/atom = 0
Neighbor list builds = 468
Dangerous builds = 0
unfix        c
unfix        fr
velocity     sol create ${Tm} $(v_seed+1) mom yes rot yes dist gaussian
velocity     sol create 936 $(v_seed+1) mom yes rot yes dist gaussian
velocity     sol create 936 3302 mom yes rot yes dist gaussian
fix          rel all npt temp ${Tm} ${Tm} 0.2 z 0 0 2.0
fix          rel all npt temp 936 ${Tm} 0.2 z 0 0 2.0
fix          rel all npt temp 936 936 0.2 z 0 0 2.0
run          ${neq}
run          25000
Per MPI rank memory allocation (min/avg/max) = 22.68 | 22.68 | 22.68 Mbytes
   Step          Temp          E_pair         E_mol          TotEng         Press          Volume    
     30000   935.20881     -197075.19      0             -190112.32      8070.5038      1010837.8    
     31000   936.68741     -196652.11      0             -189678.23     -2.2150325      1024486.9    
     32000   939.38678     -196640.55      0             -189646.57      213.22323      1024529.9    
     33000   940.211       -196678.58      0             -189678.47     -311.76891      1024794.9    
     34000   935.94383     -196658.95      0             -189690.61     -166.432        1024852.8    
     35000   933.72032     -196680.63      0             -189728.85      407.76795      1023995.9    
     36000   933.41429     -196645.73      0             -189696.22      390.45017      1024399.9    
     37000   933.6418      -196687.62      0             -189736.42      367.13942      1023910.4    
     38000   933.14202     -196674.41      0             -189726.93      405.66505      1023874.8    
     39000   938.56489     -196635.19      0             -189647.34      18.574418      1024877.1    
     40000   940.45653     -196632.69      0             -189630.75      427.72884      1024186.3    
     41000   937.81064     -196669.22      0             -189686.98      441.87114      1023943.8    
     42000   939.74409     -196676.41      0             -189679.77      216.78798      1024308.1    
     43000   931.15751     -196572.54      0             -189639.84      513.5962       1024865.7    
     44000   938.12275     -196562.47      0             -189577.9       628.73436      1024939.4    
     45000   940.07559     -196608.85      0             -189609.74      303.30074      1024884.2    
     46000   936.63282     -196558.62      0             -189585.15      64.83157       1025638.1    
     47000   935.02515     -196653.84      0             -189692.33      461.20743      1024265.9    
     48000   937.88383     -196618.7       0             -189635.92     -31.390096      1025001.1    
     49000   935.41844     -196636.86      0             -189672.44     -628.52274      1025424.3    
     50000   932.99062     -196634.96      0             -189688.61      93.51518       1024831.5    
     51000   937.27531     -196593.43      0             -189615.18     -206.44687      1025685.2    
     52000   933.24446     -196621.27      0             -189673.03     -612.79227      1025745.2    
     53000   938.73824     -196601.2       0             -189612.05     -272.5214       1025823.9    
     54000   932.72735     -196568.04      0             -189623.65      342.78661      1025240.4    
     55000   934.61086     -196532.53      0             -189574.11      434.92188      1025490.7    
Loop time of 142.267 on 1 procs for 25000 steps with 57600 atoms

Performance: 30.366 ns/day, 0.790 hours/ns, 175.727 timesteps/s, 10.122 Matom-step/s
98.6% CPU use with 1 MPI tasks x 1 OpenMP threads

MPI task timing breakdown:
Section |  min time  |  avg time  |  max time  |%varavg| %total
---------------------------------------------------------------
Pair    | 99.274     | 99.274     | 99.274     |   0.0 | 69.78
Neigh   | 0.15706    | 0.15706    | 0.15706    |   0.0 |  0.11
Comm    | 7.9992     | 7.9992     | 7.9992     |   0.0 |  5.62
Output  | 0.0055686  | 0.0055686  | 0.0055686  |   0.0 |  0.00
Modify  | 28.763     | 28.763     | 28.763     |   0.0 | 20.22
Other   |            | 6.068      |            |       |  4.27

Nlocal:          57600 ave       57600 max       57600 min
Histogram: 1 0 0 0 0 0 0 0 0 0
Nghost:          53011 ave       53011 max       53011 min
Histogram: 1 0 0 0 0 0 0 0 0 0
Neighs:              0 ave           0 max           0 min
Histogram: 1 0 0 0 0 0 0 0 0 0

Total # of neighbors = 0
Ave neighs/atom = 0
Neighbor list builds = 1216
Dangerous builds = 0
unfix        rel
# production: NPH along z (interface position drifts slowly if T != T_m)
compute      cna all cna/atom $(0.854*v_a0)
compute      cna all cna/atom 3.4296639999999998238
variable     issol atom c_cna==1
compute      ns all reduce sum v_issol
variable     fsol equal c_ns/atoms
fix          prod all nph z 0 0 2.0
thermo_style custom step temp press pzz pe lz v_fsol
dump         d all custom ${ndump} ${dump} id x y z c_cna
dump         d all custom 4000 ${dump} id x y z c_cna
dump         d all custom 4000 /home/ileao/runs/cfm_thick/cfm_borovikov_100.dump id x y z c_cna
dump_modify  d sort id
run          ${nprod}
run          500000
Neighbor list info ...
  update: every = 1 steps, delay = 0 steps, check = yes
  max neighbors/atom: 2000, page size: 100000
  master list distance cutoff = 8.9
  ghost atom cutoff = 8.9
  binsize = 4.45, bins = 56 8 29
  1 neighbor lists, perpetual/occasional/extra = 0 1 0
  (1) compute cna/atom, occasional
      attributes: full, newton on
      pair build: full/bin/atomonly
      stencil: full/bin/3d
      bin: standard
Per MPI rank memory allocation (min/avg/max) = 24.19 | 24.19 | 24.19 Mbytes
   Step          Temp          Press           Pzz           PotEng           Lz           v_fsol    
     55000   934.61086      434.92199      245.67584     -196532.53      125.57719      0.19819444   
     56000   937.22974      469.70137      555.96111     -196552.03      125.56655      0.20505208   
     57000   934.34656      798.20578      744.62566     -196530.44      125.55397      0.19810764   
     58000   934.50416     -130.33089     -424.59252     -196531.68      125.69554      0.19583333   
     59000   934.53989     -599.60309     -777.36766     -196531.95      125.74267      0.20440972   
     60000   931.27122      298.48496      214.83278     -196507.61      125.62179      0.20932292   
     61000   933.1572       232.47342      183.82024     -196521.71      125.64394      0.20196181   
     62000   932.91539     -264.03047     -319.5916      -196519.9       125.73833      0.20722222   
     63000   932.43944      4.4301988     -95.187726     -196516.45      125.72141      0.20279514   
     64000   931.09262      144.77906     -32.307402     -196506.39      125.70282      0.20394097   
     65000   931.46327      456.85752      299.79804     -196509.2       125.6653       0.20079861   
     66000   928.02692      347.41573      124.42        -196483.63      125.673        0.19928819   
     67000   925.47447      205.31702      282.74223     -196464.61      125.7396       0.19925347   
     68000   924.53221      403.7759       139.26671     -196457.61      125.72215      0.20130208   
     69000   925.94418     -158.83173     -239.43639     -196468.1       125.80202      0.19940972   
     70000   923.72059     -85.007772     -309.96103     -196451.65      125.79587      0.193125     
     71000   929.7953      -263.41607     -324.0705      -196496.87      125.75779      0.20364583   
     72000   924.84758      15.318362     -91.583556     -196460.01      125.77048      0.20223958   
     73000   921.38621      403.54054      499.54843     -196434.14      125.72414      0.19836806   
     74000   924.54507     -251.10336     -651.47777     -196457.6       125.82353      0.19522569   
     75000   927.41053     -454.31283     -689.35777     -196478.98      125.80823      0.20024306   
     76000   925.29858      175.34398     -62.987661     -196463.42      125.74667      0.20098958   
     77000   925.09017      66.426539     -19.252495     -196461.86      125.7671       0.19868056   
     78000   924.75819      107.47045      17.916281     -196459.38      125.76399      0.19916667   
     79000   928.49226     -545.78298     -756.40884     -196487.18      125.82951      0.19607639   
     80000   927.02059      102.35829      31.874224     -196476.33      125.7396       0.20453125   
     81000   930.9973       83.976126      268.64634     -196505.9       125.70073      0.20522569   
     82000   928.12626     -53.688994      45.829618     -196484.6       125.7591       0.20171875   
     83000   930.89272     -129.47413     -220.70698     -196505.2       125.75594      0.20352431   
     84000   930.381        188.56742     -42.688463     -196501.36      125.70118      0.20597222   
     85000   928.19721     -3.6821627      210.80568     -196485.18      125.72729      0.20414931   
     86000   921.06416     -177.97053     -272.70487     -196431.94      125.83479      0.20015625   
     87000   930.06993     -164.40891     -299.07503     -196499.17      125.7726       0.20340278   
     88000   923.97955      401.77729      650.10227     -196453.6       125.72101      0.21149306   
     89000   925.601        113.72188     -97.957976     -196465.78      125.77417      0.20557292   
     90000   922.56769     -93.631232     -279.36527     -196443.19      125.82653      0.20020833   
     91000   928.8486      -179.64802      226.29419     -196489.98      125.81053      0.19539931   
     92000   931.3042       373.68789      628.18157     -196508.33      125.69893      0.20805556   
     93000   924.31585      10.210169      18.814664     -196456.28      125.78437      0.20387153   
     94000   923.98063     -119.96698     -147.29554     -196453.71      125.81888      0.20387153   
     95000   923.43269      71.886784      213.21837     -196449.75      125.78933      0.20296875   
     96000   927.56668      797.29183      904.62066     -196480.46      125.65736      0.20515625   
     97000   930.52311     -284.04628     -482.57974     -196502.61      125.7769       0.208125     
     98000   925.68657      195.61385      112.5387      -196466.61      125.75708      0.20486111   
     99000   928.27695      331.02557      188.57265     -196485.89      125.7132       0.20717014   
    100000   924.18655     -510.07001     -652.43951     -196455.44      125.87835      0.19848958   
    101000   926.13329     -284.59845     -354.34613     -196470         125.83957      0.20159722   
    102000   927.62314     -10.574233     -81.647599     -196481.24      125.74995      0.20322917   
    103000   927.45012      254.8129       473.57716     -196480.01      125.73333      0.20182292   
    104000   925.65851      152.17833      278.38083     -196466.73      125.74783      0.19751736   
    105000   928.16401     -214.94168     -92.679479     -196485.39      125.75956      0.20354167   
    106000   929.82819      210.70297      171.76177     -196497.66      125.70033      0.20435764   
    107000   926.12216      534.2856       741.82377     -196470.19      125.67746      0.20128472   
    108000   929.72985     -405.50292     -446.70308     -196497.08      125.80245      0.20508681   
    109000   925.14359     -76.036633     -56.301108     -196462.86      125.79355      0.19883681   
    110000   927.39465     -97.535711     -33.8346       -196479.58      125.78702      0.19875      
    111000   925.24013      322.30323      372.7427      -196463.61      125.73228      0.20008681   
    112000   932.38962      330.68936      537.58075     -196516.6       125.67467      0.20892361   
    113000   927.34207     -171.61189     -413.2531      -196479.07      125.77906      0.19616319   
    114000   928.75451      181.55676      308.0252      -196489.67      125.70466      0.20178819   
    115000   936.07979      754.08522      717.42647     -196544.22      125.56374      0.20272569   
    116000   929.57432     -250.11843     -457.43438     -196496.21      125.73409      0.20086806   
    117000   933.22093     -171.66936      122.44392     -196523.39      125.70684      0.19597222   
    118000   934.7128       25.700998     -17.994081     -196534.52      125.65314      0.20168403   
    119000   937.42418      664.8759       689.34211     -196554.67      125.54543      0.20519097   
    120000   929.08948     -110.48398     -68.98502      -196492.6       125.74099      0.19243056   
    121000   930.04887      314.91165      497.4568      -196499.68      125.66666      0.20543403   
    122000   930.13884     -329.93667     -527.24906     -196500.32      125.74079      0.20583333   
    123000   932.66816      36.17374      -39.165039     -196519.34      125.68803      0.20522569   
    124000   923.02761      494.50227      649.51744     -196447.43      125.69395      0.19822917   
    125000   929.23776      154.58482     -114.94465     -196493.84      125.68252      0.20519097   
    126000   927.23702      18.224261     -20.236202     -196478.95      125.75573      0.19902778   
    127000   927.58085     -77.322444     -415.3731      -196481.5       125.73954      0.20227431   
    128000   933.08685      281.49821      238.67868     -196522.5       125.63961      0.20295139   
    129000   928.5302       56.480443      8.0834408     -196488.54      125.71507      0.20637153   
    130000   927.60871     -154.26367     -313.56455     -196481.47      125.77093      0.19522569   
    131000   929.76728      391.99668      319.88952     -196497.5       125.63602      0.20567708   
    132000   923.84515      568.54262      396.47581     -196453.35      125.68103      0.196875     
    133000   928.61986      39.803369     -3.5392055     -196488.86      125.71225      0.19743056   
    134000   929.71204      378.416        377.61001     -196497         125.66994      0.20678819   
    135000   931.37898     -248.34287     -341.35415     -196509.52      125.76703      0.20116319   
    136000   930.55568     -108.28058     -272.06961     -196503.38      125.72752      0.19873264   
    137000   931.84678      70.439984      19.091205     -196512.99      125.7119       0.20465278   
    138000   933.94004      480.37682      511.54182     -196528.61      125.59396      0.19829861   
    139000   935.26217     -117.38482     -50.029775     -196538.42      125.65318      0.20210069   
    140000   931.81214      65.446994      0.066926022   -196512.76      125.6796       0.20020833   
    141000   931.99285      38.979552      413.30441     -196514.06      125.67664      0.19795139   
    142000   933.48133     -31.888336     -201.62525     -196525.19      125.66498      0.20541667   
    143000   931.09132      5.6832814     -206.4926      -196507.35      125.69371      0.20385417   
    144000   928.90516      20.734031     -114.58862     -196490.97      125.73833      0.20512153   
    145000   930.39875      114.13952      128.49266     -196502.19      125.69295      0.20168403   
    146000   934.06103      249.49318      456.57813     -196529.36      125.63196      0.20854167   
    147000   931.15655     -543.91692     -707.55878     -196507.82      125.79383      0.19791667   
    148000   931.39926      254.33453     -25.190483     -196509.71      125.63626      0.20706597   
    149000   930.87743      197.27303      38.293029     -196505.78      125.66526      0.19623264   
    150000   936.42441      348.8779       421.22042     -196547.09      125.59519      0.20178819   
    151000   935.26458      229.78152      152.76863     -196538.57      125.59174      0.21         
    152000   928.28565      250.19912      158.31874     -196486.48      125.69839      0.20078125   
    153000   933.89123      65.407716      33.823792     -196528.28      125.67326      0.19835069   
    154000   929.05273      193.35414     -203.5208      -196492.19      125.68311      0.20434028   
    155000   932.44244     -190.70877     -180.34118     -196517.5       125.72638      0.20199653   
    156000   931.92076      246.70381      233.26115     -196513.61      125.66711      0.19789931   
    157000   934.16954      292.38197      280.24939     -196530.22      125.62858      0.20331597   
    158000   928.45607      17.808528     -212.95441     -196487.75      125.70604      0.19980903   
    159000   931.49161      45.479237      85.319537     -196510.34      125.70027      0.20637153   
    160000   928.81091      326.87353      564.50231     -196490.43      125.68148      0.20192708   
    161000   927.52102      521.67559      663.06552     -196480.93      125.66432      0.19694444   
    162000   933.81307     -513.0429      -573.96587     -196527.83      125.73807      0.21052083   
    163000   931.28629     -151.31839     -266.18406     -196509.07      125.72986      0.20434028   
    164000   928.48946      227.37664     -120.76383     -196488.39      125.68123      0.20730903   
    165000   934.75515     -112.13932     -156.91546     -196535.12      125.7015       0.20536458   
    166000   936.78035      246.57778      405.282       -196550.21      125.63617      0.20737847   
    167000   931.04431      193.40181     -101.68286     -196507.49      125.668        0.20487847   
    168000   933.01023     -130.38679     -42.279983     -196522.21      125.71545      0.20802083   
    169000   928.08007     -7.6941799      97.567773     -196485.39      125.72679      0.20423611   
    170000   927.45401     -336.64325     -505.00043     -196480.67      125.77457      0.19881944   
    171000   929.99993     -42.9593       -41.824155     -196499.68      125.70924      0.20375      
    172000   926.16503      583.98892      413.99737     -196470.9       125.66478      0.19986111   
    173000   931.16005     -154.02299     -86.918105     -196508.19      125.73692      0.20321181   
    174000   927.28976     -51.256958     -172.61075     -196479.34      125.76206      0.201875     
    175000   929.79144     -270.87443     -546.1228      -196497.92      125.75297      0.20385417   
    176000   930.62594      418.74895      483.5904      -196504.03      125.65263      0.20571181   
    177000   925.57818      47.080691      419.90275     -196466.34      125.78113      0.20583333   
    178000   928.19736      335.13155      356.57778     -196485.86      125.70864      0.20397569   
    179000   931.50944      59.044094      219.32525     -196510.41      125.70677      0.21361111   
    180000   927.17575     -669.24437     -663.71165     -196478.06      125.83572      0.20414931   
    181000   927.28996     -336.84973     -332.52119     -196478.82      125.78392      0.20487847   
    182000   930.64434     -2.8129995     -75.033715     -196503.81      125.72543      0.19892361   
    183000   930.17081      523.83869      522.43541     -196500.25      125.65739      0.20364583   
    184000   934.66939     -386.46139     -468.35697     -196533.7       125.73388      0.20732639   
    185000   929.30563     -128.56551     -74.010298     -196493.68      125.76674      0.20614583   
    186000   925.43218      233.37005      265.95176     -196464.76      125.71756      0.19623264   
    187000   924.43398     -157.94607     -328.26835     -196457.32      125.77694      0.19753472   
    188000   925.28895     -68.40077      -116.54413     -196463.67      125.77071      0.20446181   
    189000   929.13225      13.144973      118.75469     -196492.29      125.73477      0.21100694   
    190000   928.46519     -50.137408     -82.798454     -196487.35      125.72429      0.20152778   
    191000   925.97811     -12.352552      22.398673     -196468.78      125.75698      0.20100694   
    192000   928.8866       224.10712      66.134857     -196490.39      125.69718      0.20133681   
    193000   929.01804     -360.19211     -622.82262     -196491.37      125.80112      0.20375      
    194000   924.44166     -10.020388     -140.31667     -196457.25      125.7844       0.20008681   
    195000   924.64848      378.24053      438.0734      -196458.65      125.6883       0.20645833   
    196000   927.50205      264.40196      213.73303     -196479.93      125.72178      0.20354167   
    197000   927.48145      185.2532       493.13398     -196479.65      125.73481      0.20913194   
    198000   926.04237      151.66653      228.17291     -196469.02      125.73981      0.20315972   
    199000   923.13519     -278.35725     -320.90266     -196447.19      125.84256      0.19743056   
    200000   930.10051     -254.4046      -347.39606     -196499.31      125.77316      0.20258681   
    201000   925.91782      487.43079      542.78583     -196468.09      125.72221      0.20256944   
    202000   925.55299      338.96735      141.64995     -196465.48      125.75767      0.19921875   
    203000   928.32273     -0.62494443    -196.06698     -196486.07      125.75207      0.20461806   
    204000   929.73049     -93.85511      -272.46575     -196496.61      125.72826      0.19951389   
    205000   926.64956     -360.12714     -255.27092     -196473.66      125.83105      0.19822917   
    206000   925.86424      429.18532      364.61052     -196467.56      125.70852      0.20890625   
    207000   927.84605      434.25182      538.28473     -196482.47      125.72607      0.19979167   
    208000   925.36784      21.169755     -48.859929     -196463.83      125.77645      0.20111111   
    209000   926.90011     -211.54929     -341.88055     -196475.32      125.82036      0.19416667   
    210000   921.88622     -26.925399      93.547467     -196437.92      125.80783      0.19819444   
    211000   924.21084      383.96349      434.59562     -196455.15      125.73991      0.20310764   
    212000   926.0008       376.32378      337.19311     -196468.44      125.71661      0.19970486   
    213000   925.78342      727.30908      721.9108      -196466.78      125.68374      0.20131944   
    214000   923.21891      397.28201      522.15533     -196447.69      125.75382      0.19782986   
    215000   930.16777     -149.98651     -432.68255     -196499.51      125.77813      0.21291667   
    216000   926.60667     -1066.8867     -1315.5468     -196473         125.92193      0.20666667   
    217000   925.38258      82.70071       82.109675     -196464.13      125.77608      0.20583333   
    218000   926.98564      276.13551      502.73887     -196476.04      125.75007      0.20307292   
    219000   928.62656      371.26975      578.83361     -196488.28      125.70171      0.2071875    
    220000   925.42047      553.33037      655.25596     -196464.49      125.72478      0.19741319   
    221000   922.76371     -16.090119     -291.00022     -196444.76      125.8029       0.20232639   
    222000   927.44735     -87.658362     -195.97279     -196479.81      125.79244      0.19845486   
    223000   928.21423      36.626068      61.719705     -196485.47      125.73808      0.20265625   
    224000   924.36219      270.59294      196.16028     -196456.68      125.73386      0.19071181   
    225000   929.31663     -224.09923     -177.16336     -196493.66      125.74179      0.20276042   
    226000   927.98345      237.76956      101.00322     -196483.64      125.70181      0.20246528   
    227000   925.20885     -83.375103     -67.023335     -196463.08      125.79708      0.20027778   
    228000   925.99185     -268.73117     -287.24505     -196468.75      125.83219      0.20295139   
    229000   934.6016       135.36261      316.81634     -196533.09      125.69759      0.20755208   
    230000   929.08         226.51494      261.14172     -196492         125.69114      0.20392361   
    231000   926.21151     -91.307125     -289.70156     -196470.58      125.77626      0.19588542   
    232000   928.6941      -785.72699     -921.42538     -196489.21      125.82805      0.199375     
    233000   929.47596      298.69001      352.94607     -196495.04      125.69792      0.20345486   
    234000   928.25165      151.63457      359.17799     -196485.98      125.74293      0.20284722   
    235000   923.92073      361.35899      330.93911     -196453.8       125.73445      0.19715278   
    236000   927.38724     -448.53155     -806.52413     -196479.54      125.81584      0.20210069   
    237000   926.41997     -347.56519     -447.49623     -196472.43      125.8119       0.19892361   
    238000   926.37917      16.591774     -171.87919     -196472.17      125.76274      0.19954861   
    239000   923.65149      216.57258      26.463131     -196451.89      125.76827      0.20229167   
    240000   928.92174      457.92084      497.43569     -196491.03      125.66709      0.20465278   
    241000   929.48173      149.81314      48.376003     -196495.17      125.70197      0.20583333   
    242000   925.38934     -569.50353     -860.48839     -196464.48      125.85819      0.19866319   
    243000   921.53436     -12.527201     -106.1344      -196435.76      125.81347      0.19819444   
    244000   922.58607      217.72991     -0.19830746    -196443.6       125.77093      0.20501736   
    245000   927.71492      181.16262      42.928642     -196481.8       125.76036      0.20251736   
    246000   926.01577      666.13016      715.06297     -196469.02      125.68253      0.20149306   
    247000   929.23319      614.54581      833.14233     -196493         125.65835      0.20319444   
    248000   925.59895      66.478373     -113.71185     -196465.98      125.76202      0.19506944   
    249000   929.73768     -154.61114     -201.23331     -196496.82      125.73875      0.20473958   
    250000   929.41084     -158.33933     -113.97477     -196494.36      125.74307      0.19519097   
    251000   929.66624      119.5607      -109.47281     -196496.4       125.71346      0.19994792   
    252000   932.94562      571.6644       725.44349     -196520.61      125.61592      0.20470486   
    253000   927.98179      357.51153      504.40217     -196483.59      125.681        0.20243056   
    254000   930.85443     -37.333271     -159.44719     -196504.95      125.712        0.20265625   
    255000   926.46393      562.06159      473.87827     -196472.17      125.66968      0.20744792   
    256000   932.37322      253.53421      271.96224     -196516.15      125.67613      0.19868056   
    257000   929.12257     -93.30224      -288.39681     -196492.06      125.73511      0.20171875   
    258000   928.50138     -441.20079     -348.76922     -196487.43      125.79984      0.19953125   
    259000   930.668        351.83326      123.39484     -196503.55      125.66316      0.20041667   
    260000   928.77251     -47.356239     -7.1134499     -196489.46      125.73007      0.19807292   
    261000   928.09973     -93.632939     -156.24173     -196484.44      125.75114      0.20097222   
    262000   928.46003      23.937377      32.902423     -196487.13      125.74682      0.20539931   
    263000   930.32888      811.27889      609.912       -196500.9       125.57994      0.20138889   
    264000   929.84256     -64.695221     -34.532431     -196497.44      125.73362      0.20315972   
    265000   930.17242     -189.33912     -370.48015     -196499.89      125.74838      0.205        
    266000   928.94154      4.9629157     -92.906254     -196490.8       125.77132      0.20288194   
    267000   927.8914      -134.49708     -92.130127     -196483         125.80415      0.20032986   
    268000   929.14353     -189.31863     -246.2067      -196492.27      125.78962      0.20180556   
    269000   924.56114     -388.47668     -341.64286     -196458.01      125.86304      0.20456597   
    270000   924.9134       459.72844      438.78739     -196460.67      125.73956      0.20336806   
    271000   924.54463      351.85191      509.413       -196457.95      125.75132      0.20005208   
    272000   921.95293     -52.868644     -129.18269     -196438.72      125.83162      0.20199653   
    273000   925.91322      105.67642      232.30154     -196468.29      125.77497      0.19859375   
    274000   925.53632      448.55201      207.37963     -196465.46      125.7213       0.20293403   
    275000   923.74817     -452.28406     -479.2555      -196452.21      125.8757       0.19972222   
    276000   924.78804     -141.27279     -227.05591     -196459.94      125.82105      0.20211806   
    277000   922.84594     -74.645945     -69.380786     -196445.44      125.83477      0.20381944   
    278000   924.77686      76.506219     -54.08444      -196459.82      125.79727      0.20361111   
    279000   927.7853       208.06286      260.41955     -196482.33      125.76608      0.20154514   
    280000   920.73247     -150.88344     -14.051174     -196429.77      125.85803      0.20123264   
    281000   919.07341     -136.63231     -97.183369     -196417.12      125.86182      0.19480903   
    282000   920.93733     -223.91983     -308.49766     -196431.05      125.86875      0.20123264   
    283000   921.82696     -679.30342     -799.524       -196437.48      125.9252       0.20116319   
    284000   925.13446     -206.61531     -175.69387     -196462.2       125.83367      0.20225694   
    285000   927.28963     -160.29011      15.014219     -196478.14      125.77979      0.20913194   
    286000   926.70149      173.75506      480.72024     -196473.88      125.74929      0.2025       
    287000   929.27894      95.237651      306.26884     -196493.12      125.73418      0.20241319   
    288000   928.47113     -201.55402     -260.15756     -196487.1       125.79156      0.19743056   
    289000   924.95896     -121.35703     -403.42536     -196460.95      125.80005      0.20288194   
    290000   928.05792     -357.97116     -720.92631     -196484.12      125.81721      0.20376736   
    291000   927.82024     -496.8006      -645.57713     -196482.4       125.81789      0.20493056   
    292000   930.39032      416.84497      515.96635     -196501.5       125.65233      0.20605903   
    293000   927.84175      71.823155     -68.658819     -196482.61      125.75681      0.20043403   
    294000   923.37481     -163.21671     -32.295484     -196449.36      125.80611      0.19652778   
    295000   927.79403      9.55902       -7.7231065     -196482.26      125.7257       0.20128472   
    296000   926.03116      514.40872      764.05577     -196469.22      125.70493      0.19944444   
    297000   932.43618      284.41773      546.1466      -196516.96      125.6767       0.20644097   
    298000   927.33031      135.73032      106.96783     -196478.88      125.74181      0.20355903   
    299000   927.80247     -110.71585     -97.759795     -196482.44      125.76978      0.20524306   
    300000   929.11559     -303.18952     -407.51603     -196492.28      125.7813       0.20470486   
    301000   928.9086       444.84601      414.85558     -196490.69      125.67231      0.20621528   
    302000   929.45775      487.37061      590.27949     -196494.71      125.68101      0.20378472   
    303000   928.02908      75.919412      24.571425     -196484.24      125.73191      0.20059028   
    304000   927.20974     -56.396141     -392.3519      -196478.15      125.75051      0.20876736   
    305000   921.411       -52.942494     -87.365584     -196434.89      125.79629      0.19803819   
    306000   928.56022     -585.8348      -714.27915     -196488.25      125.80665      0.20005208   
    307000   927.17938      244.97723      342.4         -196478.04      125.73142      0.20008681   
    308000   928.58629     -29.61933      -2.7706723     -196488.67      125.7761       0.20979167   
    309000   927.06579      525.48883      293.89217     -196477.21      125.68283      0.20545139   
    310000   927.13321      231.11946      429.17792     -196478.03      125.7049       0.20407986   
    311000   931.3991       1.0526416      30.085022     -196509.81      125.71375      0.20614583   
    312000   925.30915      10.351926      114.28938     -196464.43      125.76802      0.20015625   
    313000   926.11274      11.509327     -97.959712     -196470.46      125.77788      0.20442708   
    314000   933.10108      427.54045      569.28176     -196522.7       125.64753      0.20881944   
    315000   926.40766      348.25692      168.43378     -196473.01      125.72031      0.19723958   
    316000   931.7526       1.9780545     -61.538602     -196512.77      125.68469      0.20282986   
    317000   930.03471      158.75794      135.90149     -196500.19      125.71521      0.19730903   
    318000   934.0155      -228.44676     -395.85435     -196529.7       125.72313      0.19723958   
    319000   930.46307     -65.676404     -549.82696     -196503.31      125.73718      0.19237847   
    320000   929.19975     -36.465138     -159.84261     -196493.86      125.70643      0.20194444   
    321000   933.11366      355.5862       519.23282     -196523.2       125.62833      0.20505208   
    322000   928.89763      396.98383      300.07465     -196491.69      125.64365      0.20184028   
    323000   935.38171      22.191712      214.46085     -196540.06      125.69074      0.20550347   
    324000   931.20085      393.25989      393.33996     -196508.93      125.66031      0.20324653   
    325000   934.30852      59.711095     -95.474444     -196532.05      125.66033      0.20114583   
    326000   926.86088      204.86345      143.39867     -196476.58      125.7158       0.20083333   
    327000   933.40432      462.63031      676.89973     -196525.38      125.60467      0.20119792   
    328000   928.37957     -185.94992     -308.89952     -196487.79      125.74855      0.2015625    
    329000   931.83108     -367.45601     -279.54811     -196513.63      125.77415      0.19963542   
    330000   935.73587      157.97867      31.193446     -196542.71      125.65835      0.20873264   
    331000   929.00581     -441.16116     -497.68262     -196492.59      125.79497      0.20859375   
    332000   928.56298      509.16278      503.92113     -196489.21      125.66384      0.2025       
    333000   929.59708     -467.72341     -440.86198     -196496.91      125.7914       0.19756944   
    334000   936.13306      211.14092      47.495686     -196545.58      125.6445       0.20619792   
    335000   929.59985     -137.31386     -414.44778     -196496.86      125.72105      0.20364583   
    336000   931.37273      315.90154      314.70927     -196510.17      125.67926      0.20095486   
    337000   937.46457      340.4228       434.52619     -196555.37      125.6164       0.206875     
    338000   936.35275     -4.8151742     -55.687923     -196547.51      125.64064      0.20949653   
    339000   927.54947     -137.46765     -62.639462     -196481.95      125.74726      0.19904514   
    340000   932.64537      59.656311     -197.91569     -196519.96      125.69104      0.19774306   
    341000   933.79206      64.89236      -218.38237     -196528.48      125.67179      0.19972222   
    342000   930.22218     -165.16841     -371.38001     -196502         125.74053      0.19885417   
    343000   930.1376      -261.03898     -485.9546      -196501.38      125.7465       0.19625      
    344000   932.48379      33.757938     -21.903482     -196518.93      125.67635      0.20201389   
    345000   928.8115       300.26581      199.56414     -196491.55      125.6913       0.19866319   
    346000   930.62028     -162.43468     -510.88517     -196505.07      125.74666      0.20364583   
    347000   928.28925     -34.412869     -221.41109     -196487.53      125.75475      0.20128472   
    348000   928.96004      258.67832      129.40786     -196492.52      125.66649      0.20078125   
    349000   932.30467      807.95863      495.05497     -196517.43      125.5827       0.1996875    
    350000   929.51193      505.37194      268.71245     -196496.61      125.62147      0.19961806   
    351000   933.2349       39.720375     -39.662461     -196524.4       125.70555      0.19524306   
    352000   932.8426      -70.187196      4.5612476     -196521.51      125.70185      0.19883681   
    353000   932.92445      84.854944      137.29499     -196522.19      125.6559       0.19901042   
    354000   931.33403      55.921769      71.127649     -196510.26      125.65127      0.20385417   
    355000   930.91841      371.61847      464.87656     -196507.35      125.63533      0.20175347   
    356000   936.49645      334.59429      357.41305     -196548.7       125.59996      0.20921875   
    357000   930.04782      34.175078     -168.96083     -196500.72      125.72463      0.19777778   
    358000   933.34233     -17.903518     -115.36113     -196525.4       125.69362      0.20076389   
    359000   934.40419      313.74341      289.6955      -196533.31      125.61494      0.20552083   
    360000   933.239        125.65302      79.976258     -196524.68      125.63971      0.20213542   
    361000   930.60748      469.17188      674.89208     -196505.08      125.62353      0.20449653   
    362000   929.46045      315.74525      347.83812     -196496.58      125.64765      0.19489583   
    363000   931.22348      450.184        345.57458     -196509.68      125.63512      0.20177083   
    364000   932.69057      292.5914       203.64841     -196520.69      125.6581       0.19892361   
    365000   928.68576      40.926363      35.794272     -196490.71      125.72633      0.19569444   
    366000   931.03552     -198.48034     -359.91022     -196508.19      125.74332      0.1965625    
    367000   935.9149       69.406816     -48.843586     -196544.55      125.64321      0.20416667   
    368000   929.25564      47.793025      234.14306     -196494.95      125.75152      0.19645833   
    369000   932.77766     -166.17529     -376.91629     -196521.16      125.70955      0.20677083   
    370000   931.15753     -621.73836     -679.44084     -196508.97      125.79834      0.20008681   
    371000   924.78619      206.77221     -44.103523     -196461.67      125.74945      0.19824653   
    372000   930.16835      286.25617      382.11232     -196501.61      125.69609      0.20487847   
    373000   927.51043      144.48187      311.3552      -196481.88      125.73095      0.20484375   
    374000   930.50788      153.95354      120.31451     -196504.3       125.71338      0.20171875   
    375000   928.87464     -28.270273      53.954963     -196492.09      125.74211      0.20588542   
    376000   923.72489     -488.08071     -624.39959     -196453.76      125.84772      0.19986111   
    377000   925.71952      71.276887      44.244294     -196468.7       125.76004      0.20223958   
    378000   928.61902      94.640304      356.06158     -196490.31      125.72723      0.20661458   
    379000   930.33049      89.904227     -17.996979     -196503.03      125.71943      0.20880208   
    380000   928.41279      283.35455      421.7277      -196488.64      125.71694      0.20619792   
    381000   929.40257     -554.60708     -571.23006     -196495.98      125.8314       0.20513889   
    382000   928.58306      659.45444      864.68391     -196489.95      125.67194      0.20178819   
    383000   927.98405      258.71769      311.09433     -196485.54      125.72073      0.204375     
    384000   929.46079     -34.06224      -141.04106     -196496.55      125.75107      0.21112847   
    385000   922.81476     -17.285531     -310.38918     -196447.08      125.81683      0.19855903   
    386000   931.17984     -189.31592     -6.0072704     -196509.37      125.74898      0.21078125   
    387000   929.17195      250.48901      303.87639     -196494.18      125.69815      0.20994792   
    388000   927.7916      -132.74175      180.18328     -196483.81      125.7734       0.20277778   
    389000   923.80868     -251.68951     -329.74085     -196454.11      125.82019      0.20430556   
    390000   922.26695     -148.85745     -108.89021     -196442.58      125.83273      0.19916667   
    391000   921.54777      380.9665       243.84483     -196437.15      125.75394      0.20668403   
    392000   921.07022     -108.45303     -127.28915     -196433.71      125.84393      0.19984375   
    393000   921.5456       506.59965      649.05222     -196437.18      125.73665      0.20048611   
    394000   924.58842      782.17188      930.50306     -196459.57      125.68145      0.20432292   
    395000   926.12351     -429.17567     -605.02815     -196471.01      125.86601      0.20159722   
    396000   923.70315     -114.15961      68.866892     -196452.96      125.82725      0.20234375   
    397000   922.1603       72.578911      214.10125     -196441.43      125.79496      0.19425347   
    398000   924.94572      96.16406       266.19112     -196462.21      125.79158      0.20538194   
    399000   922.32596     -481.39757     -570.21243     -196442.66      125.88207      0.20345486   
    400000   918.03826     -73.438801      121.20591     -196411         125.85214      0.20359375   
    401000   923.02962     -133.35109     -282.45053     -196448.31      125.82182      0.20041667   
    402000   924.90586      721.05224      688.86796     -196462.17      125.71232      0.20473958   
    403000   926.16953      110.93402      148.37495     -196471.84      125.77449      0.19989583   
    404000   924.99608     -379.53239     -290.00925     -196463.02      125.85001      0.20152778   
    405000   924.6461      -174.0318       43.579334     -196460.54      125.79487      0.20230903   
    406000   920.71852     -18.854065     -33.541122     -196431.14      125.81284      0.19869792   
    407000   927.49341     -158.22484     -162.8445      -196481.63      125.77673      0.19772569   
    408000   927.20522      350.95431      204.51166     -196479.55      125.69623      0.19623264   
    409000   923.46842     -177.33783     -87.27601      -196451.57      125.81699      0.19654514   
    410000   929.23979      481.32647      564.54061     -196494.66      125.666        0.20177083   
    411000   926.77138     -181.38487     -192.86928     -196476.53      125.78347      0.20331597   
    412000   928.19919     -227.83005     -408.23538     -196487.1       125.77048      0.20053819   
    413000   928.06519      275.756        321.25908     -196486.08      125.70807      0.20572917   
    414000   927.03846      822.57351      798.61272     -196478.38      125.62904      0.20303819   
    415000   928.375        370.06476      437.41709     -196488.55      125.69039      0.206875     
    416000   923.11909     -114.24447     -87.57367      -196449.44      125.82075      0.19739583   
    417000   928.02617      575.71789      515.11747     -196486         125.66425      0.20548611   
    418000   926.55133      66.424006      254.55188     -196475.03      125.77166      0.20140625   
    419000   932.98297      368.49254      250.2206      -196522.99      125.66127      0.20815972   
    420000   926.19292     -347.53231     -475.81447     -196472.53      125.81756      0.20604167   
    421000   930.28236     -19.94882       112.54619     -196502.98      125.7379       0.20704861   
    422000   927.96414      307.03471      364.40866     -196485.74      125.71961      0.20086806   
    423000   924.50641     -147.15587     -371.5541      -196459.98      125.78891      0.19852431   
    424000   924.16962     -65.439291     -333.15242     -196457.33      125.78944      0.20083333   
    425000   926.92206     -283.09251     -376.46508     -196477.97      125.8103       0.20210069   
    426000   927.44104      775.5763       942.34889     -196481.55      125.65741      0.20661458   
    427000   927.06826      73.772532      122.62785     -196478.85      125.74958      0.20055556   
    428000   925.94575      194.74281      103.6855      -196470.51      125.73466      0.19881944   
    429000   927.63901      466.41579      409.75468     -196483.16      125.66791      0.19800347   
    430000   927.49485      257.45885      635.57399     -196482.08      125.709        0.20409722   
    431000   926.06162     -921.93561     -1037.957      -196471.01      125.90068      0.19829861   
    432000   924.64491      137.22723      50.234173     -196460.56      125.75707      0.19809028   
    433000   931.97445     -132.36167     -193.57173     -196515.32      125.74423      0.20170139   
    434000   928.25638     -193.10149     -339.1552      -196487.58      125.77728      0.20078125   
    435000   924.89428      95.042871     -27.105635     -196462.44      125.78542      0.19940972   
    436000   927.92356      296.22867      203.92632     -196484.97      125.70397      0.20288194   
    437000   923.31398      279.13449      418.55202     -196450.51      125.74985      0.19934028   
    438000   925.01454      345.55743      203.68313     -196463.23      125.7287       0.19848958   
    439000   928.53446      593.96966      730.14225     -196489.35      125.67848      0.2028125    
    440000   929.40576     -279.64026     -251.47381     -196495.77      125.79935      0.19678819   
    441000   927.13418      599.24886      749.16808     -196478.75      125.67367      0.20387153   
    442000   926.16976      250.09121      335.21324     -196471.49      125.73985      0.20635417   
    443000   926.95656     -548.16609     -642.25099     -196477.31      125.85664      0.20100694   
    444000   923.3759       180.2905       59.291356     -196450.58      125.76803      0.20144097   
    445000   927.49055      201.70205      362.60431     -196481.23      125.73921      0.19973958   
    446000   927.28058     -104.74306      32.892722     -196479.64      125.78027      0.20288194   
    447000   928.86461      592.90209      877.83664     -196491.3       125.67888      0.20543403   
    448000   923.06854      221.49338      154.74751     -196448.62      125.79586      0.20482639   
    449000   924.28319     -144.07133     -143.57457     -196457.67      125.84589      0.19755208   
    450000   928.45148      81.891079      40.767575     -196488.76      125.72319      0.20637153   
    451000   925.08355     -35.437463     -18.256181     -196463.68      125.79343      0.20930556   
    452000   926.18775     -530.68586     -597.00882     -196471.69      125.83008      0.20732639   
    453000   924.22052     -192.96798     -139.87269     -196457.15      125.78838      0.20729167   
    454000   926.78152     -33.834915     -90.815132     -196476.19      125.75883      0.20045139   
    455000   927.2368      -321.08704     -543.52779     -196479.54      125.7859       0.20064236   
    456000   927.5446      -305.20411     -334.68593     -196481.79      125.78526      0.20388889   
    457000   928.79473      49.538679      127.06185     -196491.08      125.74758      0.2046875    
    458000   923.89908      925.1512       822.98333     -196454.48      125.65237      0.19671875   
    459000   922.08049      179.78691      153.39785     -196441.11      125.78637      0.19776042   
    460000   926.39868     -88.810456     -54.999887     -196473.32      125.80522      0.20717014   
    461000   930.39585     -241.62867     -271.90965     -196503.16      125.75808      0.20828125   
    462000   924.82407      581.59895      673.23749     -196461.53      125.68907      0.20157986   
    463000   922.27547      99.03084       74.68358      -196442.48      125.78855      0.19383681   
    464000   927.91672     -335.70305     -538.21749     -196484.45      125.79738      0.21064236   
    465000   920.89666     -275.49765     -253.82023     -196432.16      125.87695      0.19769097   
    466000   928.41186     -197.01181     -321.86397     -196488.21      125.80579      0.20649306   
    467000   921.6608       251.80212      96.03013      -196437.79      125.79111      0.20022569   
    468000   922.87108     -129.45859     -99.167726     -196446.83      125.81939      0.20194444   
    469000   925.31632     -73.465413     -259.35988     -196465.02      125.80242      0.20520833   
    470000   923.02557      365.57038      343.7298      -196447.87      125.75345      0.20347222   
    471000   931.48948     -380.92336     -431.81123     -196511.02      125.78884      0.20182292   
    472000   929.54756     -557.41904     -703.2089      -196496.42      125.82649      0.19748264   
    473000   931.2383      -101.73123     -179.36532     -196509.08      125.73248      0.20045139   
    474000   928.06176      901.49424      1014.7054     -196485.32      125.62023      0.20125      
    475000   929.88709     -132.54889     -312.64802     -196499.11      125.7427       0.2009375    
    476000   927.22998     -404.6048      -174.30696     -196479.25      125.80197      0.20487847   
    477000   929.05006     -14.302281     -156.81667     -196492.73      125.72078      0.20131944   
    478000   930.04072      34.287495     -313.03665     -196500.25      125.71888      0.20404514   
    479000   926.32445      568.66674      696.3138      -196472.27      125.67878      0.20432292   
    480000   926.8316      -406.575       -560.22349     -196476.14      125.8347       0.19996528   
    481000   922.83702     -48.910315     -245.33169     -196446.4       125.79469      0.19899306   
    482000   923.06301      469.51864      259.24233     -196448.1       125.73977      0.20486111   
    483000   925.44932     -439.02904     -158.67096     -196465.95      125.85551      0.19861111   
    484000   925.39909      717.3945       524.91156     -196465.43      125.70035      0.19958333   
    485000   928.77198      3.4430851      9.5206701     -196490.55      125.74938      0.19918403   
    486000   925.95469      81.947423      54.849376     -196469.56      125.76349      0.20277778   
    487000   924.3729      -179.25325     -449.48365     -196457.76      125.81651      0.19628472   
    488000   926.93023     -254.17637     -388.55874     -196476.83      125.79844      0.20322917   
    489000   919.83066     -181.1993      -301.59458     -196423.82      125.84387      0.19904514   
    490000   929.28397      23.908925      391.52321     -196494.34      125.7738       0.20192708   
    491000   932.19894      600.86081      912.89111     -196515.8       125.62154      0.21251736   
    492000   926.32855     -33.561436     -295.49382     -196472.45      125.77824      0.19755208   
    493000   926.97533     -495.6308      -505.57855     -196477.34      125.84378      0.20288194   
    494000   923.04143     -416.32611     -741.66252     -196448.26      125.86613      0.19625      
    495000   932.28377     -102.72042     -86.635906     -196517.29      125.71924      0.20510417   
    496000   926.53129     -299.12852     -425.0852      -196474.41      125.78784      0.20838542   
    497000   931.0356       396.54928      248.96291     -196507.94      125.66466      0.19907986   
    498000   929.04188      666.29953      698.80062     -196492.96      125.63102      0.20326389   
    499000   933.60599     -486.46191     -418.13529     -196527.03      125.75317      0.20984375   
    500000   931.72414     -183.97941     -133.71179     -196512.95      125.7375       0.19484375   
    501000   931.27557      132.58864      20.959997     -196509.57      125.7042       0.20161458   
    502000   935.83431      633.40265      788.72804     -196543.41      125.58874      0.20753472   
    503000   931.47629      211.31489      138.77286     -196511.17      125.68528      0.2021875    
    504000   931.61879     -364.10145     -507.2309      -196512.16      125.76678      0.205        
    505000   926.84762      220.14364      124.47573     -196476.54      125.69461      0.20553819   
    506000   927.86073     -163.83773     -185.49624     -196484.16      125.75516      0.20036458   
    507000   925.23378     -32.578408     -13.034966     -196464.47      125.7694       0.20295139   
    508000   924.72753     -87.400714     -98.690167     -196460.72      125.78079      0.20102431   
    509000   927.10636     -518.42565     -525.90832     -196478.4       125.80589      0.20467014   
    510000   926.97288      92.747375      146.88134     -196477.37      125.74282      0.20076389   
    511000   930.90659      270.02985      248.51196     -196506.64      125.68084      0.20857639   
    512000   920.72961      73.3742        318.2814      -196430.51      125.826        0.19838542   
    513000   928.33278     -207.46361     -373.35748     -196487.17      125.80515      0.201875     
    514000   924.91804     -114.79574     -100.04628     -196461.75      125.79581      0.20503472   
    515000   921.25219      354.33143     -11.382578     -196434.44      125.74626      0.19651042   
    516000   921.03907     -39.727843      151.47299     -196432.88      125.84066      0.18949653   
    517000   924.63664     -791.94431     -939.13934     -196459.61      125.90575      0.19923611   
    518000   922.16657     -131.37698     -138.07077     -196441.4       125.84086      0.19883681   
    519000   925.40382      68.803087     -211.34107     -196465.49      125.77832      0.20310764   
    520000   922.54918     -433.47848     -465.39306     -196444.36      125.88775      0.20185764   
    521000   925.13457      494.52524      857.51612     -196463.73      125.71743      0.20236111   
    522000   924.42901      281.54028      216.48086     -196458.53      125.72117      0.20024306   
    523000   924.13085      82.349601      0.78941406    -196456.32      125.80169      0.19475694   
    524000   925.32483      49.215639     -193.34322     -196465.17      125.78703      0.19717014   
    525000   921.14771      568.49854      385.9337      -196433.97      125.75477      0.19241319   
    526000   925.51368     -300.10158     -428.79732     -196466.54      125.82085      0.20102431   
    527000   925.87842      406.01906      499.28505     -196469.4       125.72578      0.2009375    
    528000   927.53751      425.92139      398.5724      -196481.71      125.69846      0.20121528   
    529000   927.07201      35.684919     -74.463869     -196478.26      125.7695       0.19637153   
    530000   927.31208      219.99991      280.38086     -196480.04      125.73178      0.206875     
    531000   929.09209      673.54594      457.56708     -196493.32      125.62651      0.2059375    
    532000   927.86548      450.32175      398.53424     -196484.26      125.69143      0.19894097   
    533000   926.97906     -230.02158     -176.96098     -196477.65      125.78071      0.20451389   
    534000   924.00277     -389.19481     -574.71739     -196455.47      125.83136      0.19664931   
    535000   923.58419      236.19809      137.55169     -196452.57      125.76786      0.19961806   
    536000   929.59241      370.37602      276.3249      -196497.08      125.69531      0.20154514   
    537000   929.43872      130.76082      107.29804     -196496.04      125.72347      0.20763889   
    538000   925.59602     -76.670006     -369.10442     -196467.43      125.82365      0.19847222   
    539000   923.94945     -51.392821     -17.460055     -196455.15      125.80198      0.19777778   
    540000   923.6224      -26.42863      -196.00264     -196452.72      125.80473      0.19854167   
    541000   927.90114      868.42794      1120.0258     -196484.59      125.66121      0.20463542   
    542000   923.13321      368.73562      497.8715      -196449.35      125.75089      0.19904514   
    543000   922.24868      67.236019      51.585741     -196442.79      125.80868      0.19916667   
    544000   922.67        -396.47728     -471.81126     -196445.83      125.85467      0.19961806   
    545000   927.45408      116.48787      34.822415     -196481.65      125.76964      0.20144097   
    546000   927.08301     -202.46302     -202.04427     -196478.86      125.78681      0.200625     
    547000   927.58043     -205.22989     -181.31665     -196482.56      125.78098      0.20206597   
    548000   927.75775     -11.550909     -127.62139     -196483.9       125.77018      0.20883681   
    549000   928.01235      57.092619     -53.641526     -196485.81      125.76235      0.19871528   
    550000   929.61558      230.87039      403.59543     -196497.74      125.70673      0.20539931   
    551000   931.84339      200.86785      204.32968     -196514.31      125.69813      0.20772569   
    552000   930.60337     -300.10536     -452.81564     -196504.86      125.76589      0.20416667   
    553000   929.62265      233.92351      90.917121     -196497.57      125.71784      0.19659722   
    554000   928.32668      41.573384     -164.57685     -196487.8       125.75927      0.19548611   
    555000   929.78669     -449.78641     -710.26681     -196498.7       125.78752      0.20463542   
Loop time of 3158.59 on 1 procs for 500000 steps with 57600 atoms

Performance: 27.354 ns/day, 0.877 hours/ns, 158.298 timesteps/s, 9.118 Matom-step/s
90.6% CPU use with 1 MPI tasks x 1 OpenMP threads

MPI task timing breakdown:
Section |  min time  |  avg time  |  max time  |%varavg| %total
---------------------------------------------------------------
Pair    | 2128.4     | 2128.4     | 2128.4     |   0.0 | 67.38
Neigh   | 16.438     | 16.438     | 16.438     |   0.0 |  0.52
Comm    | 143.96     | 143.96     | 143.96     |   0.0 |  4.56
Output  | 150.24     | 150.24     | 150.24     |   0.0 |  4.76
Modify  | 600.71     | 600.71     | 600.71     |   0.0 | 19.02
Other   |            | 118.9      |            |       |  3.76

Nlocal:          57600 ave       57600 max       57600 min
Histogram: 1 0 0 0 0 0 0 0 0 0
Nghost:          52480 ave       52480 max       52480 min
Histogram: 1 0 0 0 0 0 0 0 0 0
Neighs:              0 ave           0 max           0 min
Histogram: 1 0 0 0 0 0 0 0 0 0
FullNghs:  9.48979e+06 ave 9.48979e+06 max 9.48979e+06 min
Histogram: 1 0 0 0 0 0 0 0 0 0

Total # of neighbors = 9489788
Ave neighs/atom = 164.75326
Neighbor list builds = 24227
Dangerous builds = 0
Total wall time: 0:57:03
