LAMMPS (10 Sep 2025)
  using 1 OpenMP thread(s) per MPI task
package gpu 1
# Capillary fluctuation method (Hoyt, Asta, Karma 2001): quasi-2D solid-liquid ribbon at T_m.
# Interface normal z, fluctuation direction x, thin y.  orient: 100 | 110 | 111 (interface plane)
#   mpirun -np 4 lmp -in in.cfm -var pot borovikov -var Tm 930 -var orient 100
variable pot    index borovikov
variable Tm     index 930
variable orient index 100
variable ny     index 3   # y cells (thickness); E2 used 3 | 2 | 3
variable dump   index cfm_${pot}_${orient}.dump
variable dump   index cfm_borovikov_${orient}.dump
variable dump   index cfm_borovikov_110.dump
variable seed   index 3301
variable neq    index 25000
variable nprod  index 200000
variable nstage index 10000
variable ndump  index 2000
variable a0 equal 4.05
if "${pot} == borovikov" then "variable a0 equal 4.016"
variable a0 equal 4.016
if "${pot} == mendelev" then "variable a0 equal 4.045"
units        metal
atom_style   atomic
boundary     p p p
# (x, y, z) = (fluctuation, thin, interface normal)
if "${orient} == 100" then "lattice fcc ${a0} orient x 1 0 0 orient y 0 1 0 orient z 0 0 1" "region box block 0 60 0 ${ny} 0 30"
if "${orient} == 110" then "lattice fcc ${a0} orient x 0 0 1 orient y 1 -1 0 orient z 1 1 0" "region box block 0 60 0 ${ny} 0 21"
lattice fcc ${a0} orient x 0 0 1 orient y 1 -1 0 orient z 1 1 0
lattice fcc 4.016 orient x 0 0 1 orient y 1 -1 0 orient z 1 1 0
Lattice spacing in x,y,z = 4.016 5.6794817 5.6794817
region box block 0 60 0 ${ny} 0 21
region box block 0 60 0 5 0 21
if "${orient} == 111" then "lattice fcc ${a0} orient x 1 -1 0 orient y 1 1 -2 orient z 1 1 1" "region box block 0 42 0 ${ny} 0 17"
create_box   1 box
Created orthogonal box = (0 0 0) to (240.96 28.397408 119.26911)
  1 by 1 by 1 MPI processor grid
create_atoms 1 box
Created 50400 atoms
  using lattice units in orthogonal box = (0 0 0) to (240.96 28.397408 119.26911)
  create_atoms CPU = 0.017 seconds
mass         1 26.982
include      ../e2_melting/pot_${pot}.lmp
include      ../e2_melting/pot_borovikov.lmp
# Borovikov, Mendelev, Zarkevich, Smith, Lawson, Int. J. Plast. 178 (2024) 104004 — EAM/FS Ni-Al-Nb (NIST IPR)
pair_style eam/fs
pair_coeff * * ../../potentials/NiAlNb_Borovikov2024/Ni-Al-Nb.eam.fs Al
timestep     0.002
thermo       1000
# solid at Tm, lateral lattice fixed afterwards
velocity     all create ${Tm} ${seed} mom yes rot yes dist gaussian
velocity     all create 936 ${seed} mom yes rot yes dist gaussian
velocity     all create 936 3301 mom yes rot yes dist gaussian
fix          eq all npt temp ${Tm} ${Tm} 0.2 aniso 0 0 2.0
fix          eq all npt temp 936 ${Tm} 0.2 aniso 0 0 2.0
fix          eq all npt temp 936 936 0.2 aniso 0 0 2.0
run          ${nstage}
run          10000

CITE-CITE-CITE-CITE-CITE-CITE-CITE-CITE-CITE-CITE-CITE-CITE-CITE

Your simulation uses code contributions which should be cited:

- GPU package (short-range, long-range and three-body potentials): doi:10.1016/j.cpc.2010.12.021, doi:10.1016/j.cpc.2011.10.012, doi:10.1016/j.cpc.2013.08.002, doi:10.1016/j.commatsci.2014.10.068, doi:10.1016/j.cpc.2016.10.020, doi:10.3233/APC200086

@Article{Brown11,
 author = {W. M. Brown and P. Wang and S. J. Plimpton and A. N. Tharrington},
 title = {Implementing Molecular Dynamics on Hybrid High Performance Computers---Short Range Forces},
 journal = {Comput.\ Phys.\ Commun.},
 year =    2011,
 volume =  182,
 pages =   {898--911},
 doi =     {10.1016/j.cpc.2010.12.021}
}

@Article{Brown12,
 author = {W. M. Brown and A. Kohlmeyer and S. J. Plimpton and A. N. Tharrington},
 title = {Implementing Molecular Dynamics on Hybrid High Performance Computers - Particle-Particle Particle-Mesh},
 journal = {Comput.\ Phys.\ Commun.},
 year =    2012,
 volume =  183,
 doi =     {10.1016/j.cpc.2011.10.012},
 pages =   {449--459}
}

@Article{Brown13,
 author = {W. M. Brown and Y. Masako},
 title = {Implementing Molecular Dynamics on Hybrid High Performance Computers---Three-Body Potentials},
 journal = {Comput.\ Phys.\ Commun.},
 year =    2013,
 volume =  184,
 pages =   {2785--2793},
 doi =     {10.1016/j.cpc.2013.08.002},
}

@Article{Trung15,
 author = {T. D. Nguyen and S. J. Plimpton},
 title = {Accelerating Dissipative Particle Dynamics Simulations for Soft Matter Systems},
 journal = {Comput.\ Mater.\ Sci.},
 year =    2015,
 doi =     {10.1016/j.commatsci.2014.10.068},
 volume =  100,
 pages =   {173--180}
}

@Article{Trung17,
 author = {T. D. Nguyen},
 title = {{GPU}-Accelerated {T}ersoff Potentials for Massively Parallel
    Molecular Dynamics Simulations},
 journal = {Comput.\ Phys.\ Commun.},
 year =    2017,
 doi =     {10.1016/j.cpc.2016.10.020},
 volume =  212,
 pages =   {113--122}
}

@inproceedings{Nikolskiy19,
 author = {V. Nikolskiy and V. Stegailov},
 title = {{GPU} Acceleration of Four-Site Water Models in {LAMMPS}},
 booktitle = {Proceedings of the International Conference on Parallel
    Computing (ParCo 2019), Prague, Czech Republic},
 doi =     {10.3233/APC200086},
 year =    2019
}

CITE-CITE-CITE-CITE-CITE-CITE-CITE-CITE-CITE-CITE-CITE-CITE-CITE

Per MPI rank memory allocation (min/avg/max) = 22.25 | 22.25 | 22.25 Mbytes
   Step          Temp          E_pair         E_mol          TotEng         Press          Volume    
         0   936           -179643.03      0             -173545.38      7973.6554      816115.56    
      1000   851.23442     -173836.71      0             -168291.27      1261.1676      875281.29    
      2000   936.93339     -173035.72      0             -166931.99      371.00644      884496.02    
      3000   942.02007     -172933.13      0             -166796.27     -436.63179      886061.58    
      4000   934.54469     -173055.84      0             -166967.67     -4.1667753      884539.1     
      5000   937.97402     -172978.16      0             -166867.65      21.656378      885230.84    
      6000   938.31226     -172994.13      0             -166881.42      104.1343       885031.67    
      7000   930.36352     -172995.46      0             -166934.53      360.00979      884752.42    
      8000   929.77798     -172904.88      0             -166847.77      66.976886      885713.46    
      9000   933.89761     -173011.26      0             -166927.31     -533.39986      885278.62    
     10000   929.75745     -172980.75      0             -166923.77     -685.09611      885912.3     
Loop time of 52.2995 on 1 procs for 10000 steps with 50400 atoms

Performance: 33.040 ns/day, 0.726 hours/ns, 191.207 timesteps/s, 9.637 Matom-step/s
89.8% CPU use with 1 MPI tasks x 1 OpenMP threads

MPI task timing breakdown:
Section |  min time  |  avg time  |  max time  |%varavg| %total
---------------------------------------------------------------
Pair    | 37.606     | 37.606     | 37.606     |   0.0 | 71.91
Neigh   | 0.048554   | 0.048554   | 0.048554   |   0.0 |  0.09
Comm    | 2.6925     | 2.6925     | 2.6925     |   0.0 |  5.15
Output  | 0.0032929  | 0.0032929  | 0.0032929  |   0.0 |  0.01
Modify  | 9.9933     | 9.9933     | 9.9933     |   0.0 | 19.11
Other   |            | 1.956      |            |       |  3.74

Nlocal:          50400 ave       50400 max       50400 min
Histogram: 1 0 0 0 0 0 0 0 0 0
Nghost:          50670 ave       50670 max       50670 min
Histogram: 1 0 0 0 0 0 0 0 0 0
Neighs:              0 ave           0 max           0 min
Histogram: 1 0 0 0 0 0 0 0 0 0

Total # of neighbors = 0
Ave neighs/atom = 0
Neighbor list builds = 478
Dangerous builds = 0
unfix        eq
variable     zmid equal (zlo+zhi)/2
region       up block INF INF INF INF ${zmid} INF units box
region       up block INF INF INF INF 59.634557498149 INF units box
group        liq region up
25188 atoms in group liq
group        sol subtract all liq
25212 atoms in group sol
velocity     sol set 0 0 0
fix          fr sol setforce 0 0 0
fix          m liq nvt temp 1500 1500 0.2
run          ${nstage}
run          10000
Per MPI rank memory allocation (min/avg/max) = 22.28 | 22.28 | 22.28 Mbytes
   Step          Temp          E_pair         E_mol          TotEng         Press     
     10000   462.73019     -172980.75      0             -169966.26     -4353.3311    
     11000   763.45157     -170977.91      0             -166004.34      15478.959    
     12000   744.08857     -171070.19      0             -166222.76      14742.627    
     13000   751.49662     -170879.31      0             -165983.62      16420.41     
     14000   749.0156      -170644.22      0             -165764.7       18782.286    
     15000   745.28929     -170097.5       0             -165242.25      23864.583    
     16000   747.33109     -169658.96      0             -164790.41      27821.029    
     17000   748.22401     -169432.35      0             -164557.98      29557.138    
     18000   751.6209      -169361.86      0             -164465.36      30294.062    
     19000   747.53069     -169394.71      0             -164524.86      29995.816    
     20000   749.20169     -169326.51      0             -164445.77      30479.428    
Loop time of 30.5056 on 1 procs for 10000 steps with 50400 atoms

Performance: 56.645 ns/day, 0.424 hours/ns, 327.808 timesteps/s, 16.522 Matom-step/s
88.9% CPU use with 1 MPI tasks x 1 OpenMP threads

MPI task timing breakdown:
Section |  min time  |  avg time  |  max time  |%varavg| %total
---------------------------------------------------------------
Pair    | 20.097     | 20.097     | 20.097     |   0.0 | 65.88
Neigh   | 0.050034   | 0.050034   | 0.050034   |   0.0 |  0.16
Comm    | 2.4917     | 2.4917     | 2.4917     |   0.0 |  8.17
Output  | 0.0023991  | 0.0023991  | 0.0023991  |   0.0 |  0.01
Modify  | 5.9754     | 5.9754     | 5.9754     |   0.0 | 19.59
Other   |            | 1.889      |            |       |  6.19

Nlocal:          50400 ave       50400 max       50400 min
Histogram: 1 0 0 0 0 0 0 0 0 0
Nghost:          50076 ave       50076 max       50076 min
Histogram: 1 0 0 0 0 0 0 0 0 0
Neighs:              0 ave           0 max           0 min
Histogram: 1 0 0 0 0 0 0 0 0 0

Total # of neighbors = 0
Ave neighs/atom = 0
Neighbor list builds = 595
Dangerous builds = 0
unfix        m
fix          c liq nvt temp ${Tm} ${Tm} 0.2
fix          c liq nvt temp 936 ${Tm} 0.2
fix          c liq nvt temp 936 936 0.2
run          ${nstage}
run          10000
Per MPI rank memory allocation (min/avg/max) = 22.28 | 22.28 | 22.28 Mbytes
   Step          Temp          E_pair         E_mol          TotEng         Press     
     20000   749.20169     -169326.51      0             -164445.77      30479.428    
     21000   462.7505      -171594.4       0             -168579.78      12641.392    
     22000   475.182       -171616.48      0             -168520.87      12220.803    
     23000   464.44141     -171693.33      0             -168667.69      11531.373    
     24000   468.26845     -171737.52      0             -168686.95      10916.767    
     25000   466.10533     -171798.68      0             -168762.2       10088.656    
     26000   469.55772     -171887.09      0             -168828.12      9314.1641    
     27000   470.5872      -171953.28      0             -168887.6       8649.8452    
     28000   468.14948     -172026.8       0             -168977         7746.4949    
     29000   469.23004     -172070.74      0             -169013.9       7152.8296    
     30000   468.59958     -172150.51      0             -169097.78      6367.2411    
Loop time of 30.16 on 1 procs for 10000 steps with 50400 atoms

Performance: 57.294 ns/day, 0.419 hours/ns, 331.565 timesteps/s, 16.711 Matom-step/s
89.1% CPU use with 1 MPI tasks x 1 OpenMP threads

MPI task timing breakdown:
Section |  min time  |  avg time  |  max time  |%varavg| %total
---------------------------------------------------------------
Pair    | 20.018     | 20.018     | 20.018     |   0.0 | 66.37
Neigh   | 0.038578   | 0.038578   | 0.038578   |   0.0 |  0.13
Comm    | 2.344      | 2.344      | 2.344      |   0.0 |  7.77
Output  | 0.0021053  | 0.0021053  | 0.0021053  |   0.0 |  0.01
Modify  | 5.9284     | 5.9284     | 5.9284     |   0.0 | 19.66
Other   |            | 1.829      |            |       |  6.07

Nlocal:          50400 ave       50400 max       50400 min
Histogram: 1 0 0 0 0 0 0 0 0 0
Nghost:          50599 ave       50599 max       50599 min
Histogram: 1 0 0 0 0 0 0 0 0 0
Neighs:              0 ave           0 max           0 min
Histogram: 1 0 0 0 0 0 0 0 0 0

Total # of neighbors = 0
Ave neighs/atom = 0
Neighbor list builds = 467
Dangerous builds = 0
unfix        c
unfix        fr
velocity     sol create ${Tm} $(v_seed+1) mom yes rot yes dist gaussian
velocity     sol create 936 $(v_seed+1) mom yes rot yes dist gaussian
velocity     sol create 936 3302 mom yes rot yes dist gaussian
fix          rel all npt temp ${Tm} ${Tm} 0.2 z 0 0 2.0
fix          rel all npt temp 936 ${Tm} 0.2 z 0 0 2.0
fix          rel all npt temp 936 936 0.2 z 0 0 2.0
run          ${neq}
run          25000
Per MPI rank memory allocation (min/avg/max) = 22.28 | 22.28 | 22.28 Mbytes
   Step          Temp          E_pair         E_mol          TotEng         Press          Volume    
     30000   936.81316     -172150.51      0             -166047.56      10044.794      885912.3     
     31000   935.64018     -171722.26      0             -165626.95      205.79659      900158.38    
     32000   939.2199      -171738.39      0             -165619.76     -181.64936      900651.87    
     33000   936.55321     -171748.69      0             -165647.44     -755.74257      901217.24    
     34000   934.89903     -171732.86      0             -165642.39     -586.98001      901368.66    
     35000   936.85979     -171716.96      0             -165613.71      85.456187      900828.93    
     36000   935.94024     -171754.97      0             -165657.71      280.67062      900094.54    
     37000   935.73462     -171753.92      0             -165658         166.8124       900338.6     
     38000   932.48214     -171688.29      0             -165613.56      201.77718      900830.11    
     39000   932.13948     -171730.72      0             -165658.22     -393.88315      901046.23    
     40000   927.52781     -171693.2       0             -165650.75     -78.576572      901079.4     
     41000   933.82435     -171651.78      0             -165568.31      22.711516      901389.37    
     42000   932.95474     -171673.58      0             -165595.77     -166.37872      901511.92    
     43000   934.84543     -171699.68      0             -165609.56     -259.42596      901147.87    
     44000   937.05057     -171729.85      0             -165625.36     -101.5044       900941.28    
     45000   932.25397     -171674.11      0             -165600.86      411.95329      901071.33    
     46000   939.30475     -171637.39      0             -165518.21     -923.79968      902681.87    
     47000   935.67396     -171644.73      0             -165549.2      -209.40889      901909.92    
     48000   928.08255     -171687.1       0             -165641.03     -336.50626      901547.27    
     49000   937.56648     -171645.23      0             -165537.38     -154.29733      901937.46    
     50000   930.06902     -171637.47      0             -165578.45      386.86948      901443.23    
     51000   937.73434     -171655.61      0             -165546.66     -594.35548      902421.89    
     52000   935.46155     -171643.78      0             -165549.64     -420.25536      902270.61    
     53000   937.92111     -171604.21      0             -165494.05     -421.62136      902810.89    
     54000   934.50814     -171628.94      0             -165541.01     -180.53016      902083.04    
     55000   941.41846     -171567.35      0             -165434.4      -357.61203      902911.99    
Loop time of 130.187 on 1 procs for 25000 steps with 50400 atoms

Performance: 33.183 ns/day, 0.723 hours/ns, 192.031 timesteps/s, 9.678 Matom-step/s
89.6% CPU use with 1 MPI tasks x 1 OpenMP threads

MPI task timing breakdown:
Section |  min time  |  avg time  |  max time  |%varavg| %total
---------------------------------------------------------------
Pair    | 93.071     | 93.071     | 93.071     |   0.0 | 71.49
Neigh   | 0.12479    | 0.12479    | 0.12479    |   0.0 |  0.10
Comm    | 6.6778     | 6.6778     | 6.6778     |   0.0 |  5.13
Output  | 0.0058654  | 0.0058654  | 0.0058654  |   0.0 |  0.00
Modify  | 25.358     | 25.358     | 25.358     |   0.0 | 19.48
Other   |            | 4.95       |            |       |  3.80

Nlocal:          50400 ave       50400 max       50400 min
Histogram: 1 0 0 0 0 0 0 0 0 0
Nghost:          49707 ave       49707 max       49707 min
Histogram: 1 0 0 0 0 0 0 0 0 0
Neighs:              0 ave           0 max           0 min
Histogram: 1 0 0 0 0 0 0 0 0 0

Total # of neighbors = 0
Ave neighs/atom = 0
Neighbor list builds = 1209
Dangerous builds = 0
unfix        rel
# production: NPH along z (interface position drifts slowly if T != T_m)
compute      cna all cna/atom $(0.854*v_a0)
compute      cna all cna/atom 3.4296639999999998238
variable     issol atom c_cna==1
compute      ns all reduce sum v_issol
variable     fsol equal c_ns/atoms
fix          prod all nph z 0 0 2.0
thermo_style custom step temp press pzz pe lz v_fsol
dump         d all custom ${ndump} ${dump} id x y z c_cna
dump         d all custom 4000 ${dump} id x y z c_cna
dump         d all custom 4000 /home/ileao/runs/cfm_thick/cfm_borovikov_110.dump id x y z c_cna
dump_modify  d sort id
run          ${nprod}
run          500000
Neighbor list info ...
  update: every = 1 steps, delay = 0 steps, check = yes
  max neighbors/atom: 2000, page size: 100000
  master list distance cutoff = 8.9
  ghost atom cutoff = 8.9
  binsize = 4.45, bins = 56 7 29
  1 neighbor lists, perpetual/occasional/extra = 0 1 0
  (1) compute cna/atom, occasional
      attributes: full, newton on
      pair build: full/bin/atomonly
      stencil: full/bin/3d
      bin: standard
Per MPI rank memory allocation (min/avg/max) = 23.89 | 23.89 | 23.89 Mbytes
   Step          Temp          Press           Pzz           PotEng           Lz           v_fsol    
     55000   941.41846     -357.61223     -699.28459     -171567.35      124.98778      0.17303571   
     56000   941.78812     -209.07398     -279.79664     -171569.9       124.95262      0.17065476   
     57000   940.94374      374.76254      538.23588     -171564.41      124.90137      0.16795635   
     58000   940.30566     -154.53831     -55.397839     -171560.25      124.98008      0.17373016   
     59000   935.30715      104.51497     -217.64435     -171527.66      124.9651       0.17269841   
     60000   942.56669      61.840342      411.14884     -171575.06      124.9528       0.17234127   
     61000   935.85295     -459.31473     -547.49041     -171531.19      125.08269      0.17555556   
     62000   935.14479     -611.84639     -517.88237     -171526.47      125.11112      0.17361111   
     63000   933.2341      -692.10685     -657.28461     -171514.01      125.13663      0.16775794   
     64000   931.91246     -197.8782      -159.62025     -171505.4       125.06469      0.17166667   
     65000   938.6792       161.42761      213.16199     -171549.52      124.9768       0.17013889   
     66000   936.8169      -363.0049      -183.04676     -171537.24      125.07173      0.17910714   
     67000   931.65246      204.81678     -44.677113     -171503.63      125.04061      0.17099206   
     68000   932.85133      630.91663      796.85968     -171511.34      124.9755       0.17474206   
     69000   930.91306     -121.67969     -94.812559     -171498.82      125.09307      0.17577381   
     70000   928.6581      -569.3761      -585.73109     -171484.11      125.21231      0.16470238   
     71000   935.8306      -267.81965     -149.7572      -171530.88      125.07454      0.17763889   
     72000   932.77314     -193.96163     -311.74469     -171510.99      125.1158       0.17549603   
     73000   933.23491     -418.21459     -100.13772     -171513.95      125.1247       0.17978175   
     74000   938.71907     -446.12689     -456.16832     -171549.68      125.07241      0.18085317   
     75000   930.42206     -938.93083     -879.35644     -171495.39      125.19991      0.17813492   
     76000   934.80489     -108.32859      135.45162     -171524.04      125.07108      0.17599206   
     77000   931.59437     -15.463707      294.37749     -171503.03      125.11377      0.17083333   
     78000   924.17445     -150.99774      13.417458     -171454.6       125.17843      0.16382937   
     79000   931.56531      309.37435      462.31607     -171502.4       125.04396      0.17069444   
     80000   931.11202     -264.69794     -236.32814     -171499.48      125.11697      0.17565476   
     81000   930.98368     -349.48854     -191.70529     -171498.65      125.12629      0.17285714   
     82000   932.51926     -521.38796     -353.44525     -171508.45      125.16552      0.16944444   
     83000   935.87225      239.75649      508.99438     -171530.34      125.02938      0.17404762   
     84000   932.07734      125.51897      146.4381      -171505.62      125.08744      0.17003968   
     85000   931.7567      -234.48203     -180.92658     -171503.53      125.14837      0.1753373    
     86000   931.0396      -491.22408     -360.56101     -171498.86      125.17991      0.17424603   
     87000   933.74675      251.06364      415.18115     -171516.52      125.03948      0.17029762   
     88000   932.91854     -117.10452      161.16707     -171511.1       125.09719      0.17359127   
     89000   928.9597      -629.82746     -687.01946     -171485.23      125.1948       0.17061508   
     90000   931.19425      404.59181      617.88474     -171499.82      125.01804      0.17029762   
     91000   929.29395      261.56306      739.21506     -171487.31      125.04832      0.16912698   
     92000   931.12828     -453.10118     -454.77232     -171499.25      125.14149      0.16670635   
     93000   931.09402     -856.03804     -851.23262     -171498.9       125.19706      0.17329365   
     94000   929.97557     -260.59959     -234.34421     -171491.58      125.13957      0.17236111   
     95000   927.06079     -232.21309     -108.93631     -171472.49      125.14209      0.17373016   
     96000   930.25204     -318.77194     -208.434       -171493.47      125.15304      0.17597222   
     97000   936.59403     -770.51702     -504.08334     -171534.85      125.16213      0.17857143   
     98000   927.63525     -673.64449     -506.61362     -171476.44      125.22242      0.17293651   
     99000   932.7243      -475.0735      -260.44944     -171509.87      125.18577      0.17434524   
    100000   923.22055     -179.31058     -251.51522     -171447.95      125.17248      0.17323413   
    101000   923.73775      54.818674      400.7345      -171451.3       125.1692       0.17569444   
    102000   925.59422      480.4574       827.405       -171463.41      125.09071      0.17525794   
    103000   929.96884     -408.12715     -13.184864     -171491.92      125.17787      0.1778373    
    104000   926.55457      305.51238      554.00109     -171469.67      125.09103      0.17087302   
    105000   931.00151     -206.66405      72.009087     -171498.47      125.11701      0.17021825   
    106000   923.66364     -236.13121     -241.79323     -171450.64      125.19931      0.16434524   
    107000   928.44591     -777.05947     -980.57299     -171481.71      125.22549      0.17513889   
    108000   928.79575     -379.59829     -640.54208     -171484.02      125.16397      0.16900794   
    109000   929.20485      143.05129      413.33116     -171486.64      125.09557      0.16900794   
    110000   928.9753      -428.46829     -251.56197     -171485.18      125.16781      0.1722619    
    111000   928.75296     -173.61348     -56.035111     -171483.65      125.14128      0.17480159   
    112000   926.39821      45.267401      203.74319     -171468.32      125.13493      0.16825397   
    113000   930.12809     -462.74415      98.107825     -171492.56      125.19014      0.1769246    
    114000   932.20236     -508.24173     -146.219       -171506.09      125.16031      0.17704365   
    115000   930.16224      13.644955     -115.61306     -171492.85      125.12626      0.17456349   
    116000   924.57075     -168.72661     -247.11954     -171456.37      125.17287      0.16329365   
    117000   928.43982     -646.47431     -351.40353     -171481.55      125.22081      0.17617063   
    118000   924.7489       323.52764      448.1914      -171457.52      125.12594      0.16809524   
    119000   925.91387     -260.29474     -20.555404     -171465.07      125.1986       0.17472222   
    120000   928.92622      277.24525      699.35837     -171484.71      125.11741      0.17125      
    121000   925.25564     -758.20199     -409.45673     -171460.68      125.25111      0.17378968   
    122000   923.3647      -238.99547     -261.38141     -171448.28      125.21381      0.17371032   
    123000   925.81647     -405.58089     -286.80118     -171464.29      125.22421      0.17305556   
    124000   926.66865      29.501103      195.42723     -171469.83      125.17646      0.17019841   
    125000   930.04107     -262.73111     -264.3669      -171491.78      125.18392      0.17547619   
    126000   928.82739      185.86193      581.30751     -171483.77      125.13155      0.17248016   
    127000   921.67586     -88.532267      148.07533     -171437.15      125.2371       0.16571429   
    128000   923.33072      0.83490917     249.05095     -171447.92      125.16533      0.17218254   
    129000   927.75008     -200.29339     -55.857363     -171476.66      125.18829      0.16603175   
    130000   930.51766     -511.76148     -214.83448     -171494.64      125.1915       0.17430556   
    131000   930.899       -425.52987     -60.211345     -171497.17      125.18261      0.17240079   
    132000   922.51732      303.59427      335.95921     -171442.35      125.12265      0.16815476   
    133000   925.6718      -163.61864      501.95536     -171462.91      125.17423      0.16902778   
    134000   923.38164     -159.41202     -9.2862443     -171447.95      125.20294      0.17402778   
    135000   923.03507     -60.169029     -231.92997     -171445.63      125.2125       0.17025794   
    136000   930.5061       57.229368      462.47042     -171494.29      125.13755      0.17220238   
    137000   930.67508     -166.66396      280.36932     -171495.38      125.13666      0.17714286   
    138000   922.24236     -125.44556     -76.448553     -171440.39      125.20322      0.17013889   
    139000   925.03915     -212.97621     -175.9175      -171458.61      125.19683      0.17400794   
    140000   927.58594     -112.50396      176.02347     -171475.23      125.16441      0.17075397   
    141000   929.71537      157.41002      297.87137     -171488.84      125.10701      0.17077381   
    142000   922.26807      141.17329      128.52192     -171440.31      125.15226      0.16746032   
    143000   923.31014     -230.7707       73.548986     -171447.13      125.19767      0.17285714   
    144000   926.97782     -46.516641      212.31154     -171471.07      125.15706      0.1730754    
    145000   928.19864     -361.19364     -307.38774     -171479         125.19318      0.17345238   
    146000   928.84448     -207.27285     -258.62229     -171483.2       125.14945      0.17329365   
    147000   923.7065      -578.92523     -410.12351     -171449.73      125.26279      0.16886905   
    148000   924.55429     -721.21305     -619.6015      -171455.04      125.30986      0.1665873    
    149000   927.94461      6.4750486      56.028505     -171477.03      125.15248      0.1753373    
    150000   926.62765     -127.74388      349.04085     -171468.46      125.17413      0.1734127    
    151000   923.10942      307.26105      1062.9649     -171445.37      125.17036      0.1710119    
    152000   928.40964     -234.1782      -187.64092     -171479.92      125.18347      0.16662698   
    153000   926.74355     -228.43187      36.964482     -171468.98      125.17433      0.16577381   
    154000   932.24996     -739.27916     -722.27237     -171504.87      125.21545      0.17511905   
    155000   926.64584     -57.213118      49.096835     -171468.27      125.16626      0.17382937   
    156000   922.2991       129.44245      137.87727     -171439.84      125.13229      0.16930556   
    157000   923.84396     -759.17877     -419.16668     -171449.79      125.26475      0.17494048   
    158000   924.55325      173.97248      359.4291      -171454.51      125.15849      0.16912698   
    159000   929.16435      81.37685       617.53515     -171484.44      125.14078      0.16882937   
    160000   923.55018     -206.68331     -236.26283     -171447.88      125.21677      0.17045635   
    161000   925.24899     -455.90729     -176.27569     -171458.91      125.2544       0.17589286   
    162000   924.18992     -121.06681      63.157181     -171452.04      125.22822      0.16906746   
    163000   922.09049     -375.57228     -214.51943     -171438.38      125.24178      0.17297619   
    164000   925.95894     -450.02623     -192.72141     -171463.6       125.216        0.17646825   
    165000   923.51687     -1196.3965     -944.65674     -171447.47      125.34198      0.1675       
    166000   924.17905     -244.15771     -26.703186     -171451.83      125.23777      0.16962302   
    167000   926.32684     -257.45065     -19.088494     -171465.83      125.21672      0.17170635   
    168000   926.79046     -377.35342      2.4164395     -171468.84      125.20855      0.1722619    
    169000   927.05        -615.91469     -294.01175     -171470.57      125.24991      0.17210317   
    170000   927.02233     -645.80836     -314.46617     -171470.38      125.26234      0.17170635   
    171000   927.85925     -514.49619     -175.93069     -171475.88      125.22147      0.17863095   
    172000   926.70634     -245.58751      18.989401     -171468.39      125.21575      0.17335317   
    173000   921.46842      83.316353      255.31448     -171434.26      125.20612      0.17194444   
    174000   926.59713     -234.75852     -397.99876     -171467.69      125.20367      0.17347222   
    175000   923.88044     -487.1937       26.73468      -171450.01      125.23052      0.17644841   
    176000   924.40617     -299.98266     -217.81734     -171453.36      125.21301      0.17208333   
    177000   930.13834      244.31105      877.06575     -171490.72      125.08262      0.17755952   
    178000   928.2012      -446.34316     -23.181078     -171478.15      125.2247       0.17103175   
    179000   920.94053     -466.88768     -164.45638     -171430.8       125.27555      0.17603175   
    180000   921.74832     -161.06027      136.81784     -171436.19      125.23482      0.1668254    
    181000   923.32673      122.32303      288.69381     -171446.46      125.1698       0.17011905   
    182000   924.40879      65.188219      300.49016     -171453.55      125.16119      0.17642857   
    183000   921.16534     -677.78431     -444.51244     -171432.65      125.30766      0.17021825   
    184000   928.14525     -1026.8317     -991.61042     -171478.09      125.31258      0.17210317   
    185000   924.08443     -702.29138     -593.75485     -171451.69      125.2717       0.17555556   
    186000   923.00523      5.3969972      118.78652     -171444.62      125.18625      0.17456349   
    187000   926.66701     -150.11001      167.20856     -171468.48      125.17062      0.17498016   
    188000   924.05781     -473.98056      52.981841     -171451.54      125.25856      0.17313492   
    189000   925.32957     -293.29435     -77.682682     -171459.69      125.20714      0.16769841   
    190000   928.0213      -178.79104     -29.467314     -171477.27      125.18147      0.1753373    
    191000   919.94591     -453.29514     -359.81881     -171424.59      125.26119      0.16962302   
    192000   927.81948     -399.18719     -138.52065     -171476.17      125.18413      0.17089286   
    193000   930.59245     -126.1157      -327.21426     -171494.21      125.14625      0.16811508   
    194000   926.42141     -525.18896     -472.71254     -171467.08      125.26147      0.17160714   
    195000   926.52433     -468.07828     -123.16909     -171467.82      125.20806      0.17         
    196000   929.78234      37.684396      642.47179     -171489.24      125.09084      0.17359127   
    197000   928.46217      340.43221      478.37172     -171480.64      125.07762      0.17275794   
    198000   928.62977     -400.68657     -348.01656     -171481.89      125.15774      0.17656746   
    199000   930.30676      171.70882      421.90224     -171492.75      125.10054      0.16630952   
    200000   929.09552     -431.83819     -307.61879     -171484.79      125.18651      0.17434524   
    201000   931.9627      -60.386002      433.3731      -171503.47      125.11419      0.17315476   
    202000   928.48869      43.057251      529.62449     -171480.64      125.10789      0.17589286   
    203000   928.1083      -200.37056      126.77878     -171478.18      125.1573       0.17609127   
    204000   927.67389     -561.80093     -559.49013     -171475.3       125.21041      0.17234127   
    205000   930.69263     -594.52686     -579.74785     -171495.02      125.19237      0.17811508   
    206000   935.14539      34.473922      544.57572     -171523.92      125.06308      0.17440476   
    207000   934.90314      172.83538      362.06503     -171522.48      125.04312      0.17555556   
    208000   934.47934      307.63811      612.70004     -171519.69      125.00824      0.17910714   
    209000   933.80914     -485.01821     -482.64108     -171515.48      125.13823      0.17888889   
    210000   927.55005     -356.24737     -167.87356     -171474.71      125.1855       0.1719246    
    211000   929.37399     -254.19332     -12.722032     -171486.68      125.13792      0.17696429   
    212000   928.23762     -450.4837      -212.59395     -171479.28      125.19801      0.16805556   
    213000   933.1316       220.48928      393.4275      -171511.17      125.02613      0.1756746    
    214000   941.53507      330.27672      353.14286     -171565.87      124.95809      0.18281746   
    215000   932.00263     -276.22567     -242.56545     -171503.75      125.1115       0.17775794   
    216000   932.25151     -374.10326      38.88688      -171505.29      125.13653      0.17771825   
    217000   928.91035      129.1612       645.31378     -171483.57      125.11721      0.17436508   
    218000   930.38903     -229.87491     -2.6504827     -171493.24      125.13793      0.17621032   
    219000   930.91762     -256.69448     -193.16047     -171496.68      125.12866      0.17113095   
    220000   927.2628       118.6701       242.45819     -171472.93      125.11899      0.16914683   
    221000   929.18437     -87.760292      107.22862     -171485.53      125.11274      0.17327381   
    222000   932.36801     -332.18959      210.93498     -171506.36      125.16513      0.17212302   
    223000   929.45113      61.461042      640.76347     -171487.24      125.06456      0.17684524   
    224000   933.87703      192.00189      456.83238     -171516.08      125.02325      0.1739881    
    225000   926.96795     -30.246591      179.33696     -171471.25      125.15534      0.17327381   
    226000   928.64216     -550.63875     -249.75892     -171482.1       125.20237      0.16859127   
    227000   931.84625      22.444808      462.50232     -171503.09      125.08994      0.18037698   
    228000   927.71102     -73.455795      227.85783     -171476.1       125.15685      0.16938492   
    229000   931.77241     -488.11495     -59.296847     -171502.57      125.18043      0.17345238   
    230000   925.85031      173.23805      460.78302     -171463.9       125.10903      0.17289683   
    231000   929.14805     -591.0908      -289.18015     -171485.47      125.2266       0.17164683   
    232000   925.82818     -680.63457     -739.60197     -171463.63      125.24543      0.16757937   
    233000   925.43968      84.264024      229.12207     -171461.1       125.1384       0.16690476   
    234000   925.47479      303.88497      505.39544     -171461.32      125.10182      0.16857143   
    235000   928.46151     -282.29378      90.879419     -171480.77      125.17292      0.17333333   
    236000   926.22063     -181.88527     -137.54966     -171466.13      125.18322      0.16632937   
    237000   930.05671      179.69819      304.19718     -171491.11      125.10024      0.17656746   
    238000   931.71729      5.5250794      400.44749     -171502         125.11108      0.17652778   
    239000   932.37226     -248.62335     -39.438931     -171506.17      125.12638      0.17809524   
    240000   923.39216     -383.86227     -444.05974     -171447.71      125.20811      0.1728373    
    241000   928.16838     -334.75372     -655.95341     -171478.94      125.17522      0.17452381   
    242000   931.61402     -568.87172     -327.34461     -171501.36      125.16718      0.17335317   
    243000   930.08514     -130.32395     -239.52468     -171491.32      125.1274       0.17299603   
    244000   927.60001      378.88179      1005.5122     -171475.08      125.09296      0.17011905   
    245000   927.26775      146.52405      281.90833     -171473.1       125.11847      0.16914683   
    246000   925.7375      -505.76266     -97.217996     -171462.99      125.21982      0.17861111   
    247000   929.61509     -618.02606     -341.79824     -171488.5       125.20756      0.17797619   
    248000   927.49652      360.84952      789.27665     -171474.67      125.09697      0.16482143   
    249000   928.78636      336.10255      502.29508     -171483.13      125.08693      0.16900794   
    250000   931.44093     -60.475628      270.83538     -171500.47      125.10569      0.16410714   
    251000   924.92747     -723.79853     -740.12893     -171458.03      125.28153      0.16363095   
    252000   923.7966      -295.25073     -200.55329     -171450.82      125.217        0.16718254   
    253000   928.89032     -262.81138      296.60842     -171484.01      125.13975      0.17236111   
    254000   928.63231     -499.82014     -391.50794     -171482.39      125.19493      0.17299603   
    255000   925.0257      -333.57792      151.54649     -171458.81      125.2251       0.16912698   
    256000   928.10746     -49.948818      150.05932     -171479.11      125.15006      0.17085317   
    257000   924.44374      104.40801      477.12929     -171454.96      125.15357      0.17109127   
    258000   929.55509     -273.36574     -56.14371      -171488.27      125.1575       0.17611111   
    259000   923.36197     -40.764275      405.35906     -171447.84      125.16855      0.17238095   
    260000   928.06129      193.99147      340.25375     -171478.65      125.10983      0.1702381    
    261000   925.338        159.23777      401.72594     -171460.78      125.13884      0.16910714   
    262000   927.85379     -269.13778      74.688973     -171477.17      125.17861      0.17694444   
    263000   920.63192      2.6268255      15.50625      -171430.07      125.1796       0.17097222   
    264000   925.49769     -48.894043      457.14586     -171461.82      125.17789      0.1660119    
    265000   927.67861      225.7391       777.48587     -171475.96      125.11087      0.1672619    
    266000   924.30495      163.62455      383.36343     -171454.01      125.13884      0.17210317   
    267000   923.49477     -416.13215     -158.63755     -171448.68      125.24851      0.16537698   
    268000   927.31717     -16.588754     -30.337433     -171473.71      125.13594      0.1727381    
    269000   925.73982     -89.436087      36.050014     -171463.34      125.16843      0.1693254    
    270000   928.55492     -588.96526     -279.2717      -171481.76      125.22493      0.17178571   
    271000   920.55088     -687.3613      -730.15164     -171429.45      125.28734      0.16835317   
    272000   928.50612     -207.2696       75.112549     -171481.34      125.17245      0.16646825   
    273000   925.71664      126.67688      269.01268     -171463.23      125.14439      0.16668651   
    274000   926.64221     -82.771735      119.95415     -171469.23      125.17385      0.1644246    
    275000   923.43188     -532.53375     -437.72965     -171448.32      125.23919      0.17049603   
    276000   919.39562     -99.548938     -38.38828      -171422         125.19961      0.16396825   
    277000   926.88505      25.1983        274.83182     -171470.85      125.15943      0.17164683   
    278000   925.31116      28.753056      196.10849     -171460.59      125.13744      0.16958333   
    279000   925.61873     -634.27275     -432.22382     -171462.48      125.24487      0.16722222   
    280000   923.79133     -150.678       -132.98037     -171450.47      125.17185      0.16994048   
    281000   932.59526     -296.36002     -275.28198     -171507.88      125.13398      0.17343254   
    282000   921.51164     -246.52409      277.42673     -171435.66      125.20824      0.16386905   
    283000   927.43905      14.983228      311.17068     -171474.18      125.13153      0.1719246    
    284000   929.80326      475.19589      624.5076      -171489.56      125.04366      0.17652778   
    285000   927.5459      -258.87648     -45.83559      -171474.77      125.1642       0.17498016   
    286000   933.28679     -476.4083      -198.98941     -171512.21      125.19094      0.17321429   
    287000   928.87587     -621.69565     -472.62535     -171483.37      125.19744      0.17327381   
    288000   929.32547      41.596751      548.59051     -171486.29      125.09785      0.18043651   
    289000   928.32461     -75.864694      179.97117     -171479.89      125.14066      0.17319444   
    290000   930.98123     -117.24253     -53.314413     -171497.24      125.13672      0.1764881    
    291000   923.76357     -62.762447     -108.78565     -171450.18      125.17528      0.16998016   
    292000   924.46421     -54.943976      32.920531     -171454.76      125.16643      0.17214286   
    293000   928.94851     -380.10161     -453.33814     -171483.98      125.1893       0.17081349   
    294000   925.19731     -837.02186     -731.08211     -171459.41      125.27752      0.17400794   
    295000   924.29332     -188.36163      198.16389     -171453.56      125.20146      0.17291667   
    296000   924.46242     -538.88039     -544.72207     -171454.56      125.24296      0.1775       
    297000   924.90335     -36.884409      349.65056     -171457.39      125.14961      0.17513889   
    298000   931.78044     -136.89393      259.72412     -171502.03      125.12128      0.17968254   
    299000   932.35666     -647.30857     -746.15704     -171505.88      125.18618      0.1743254    
    300000   928.63958     -459.92949     -128.19186     -171481.58      125.19283      0.17353175   
    301000   931.96755     -85.087602      323.2811      -171503.25      125.1042       0.17488095   
    302000   933.23652      91.883462      253.57833     -171511.32      125.06499      0.17636905   
    303000   929.65993     -342.64826     -126.56492     -171488.12      125.20151      0.17335317   
    304000   927.11479     -727.26057     -265.17454     -171471.56      125.22037      0.18117063   
    305000   927.8632      -221.12129      64.718205     -171476.4       125.14457      0.17311508   
    306000   926.24262      124.75964     -163.41367     -171465.89      125.1369       0.16972222   
    307000   922.38604     -324.21501     -290.01939     -171440.69      125.20084      0.16986111   
    308000   930.08926     -354.9722      -107.93187     -171490.97      125.17426      0.17375      
    309000   928.06658     -364.14927      33.841384     -171477.65      125.15573      0.17321429   
    310000   928.22345      64.635634      416.56978     -171478.67      125.12154      0.17168651   
    311000   925.06477     -696.07023     -673.67757     -171458.08      125.24789      0.16640873   
    312000   924.42688     -614.302       -573.28885     -171454.04      125.25463      0.16952381   
    313000   928.21439      181.16273      646.98555     -171478.87      125.11011      0.17371032   
    314000   930.51436     -256.54514     -73.672045     -171493.93      125.15569      0.17390873   
    315000   928.95237     -628.14252     -338.85878     -171483.66      125.20362      0.17126984   
    316000   931.74378      72.689942      258.07543     -171501.84      125.08933      0.17944444   
    317000   930.16917      143.11151      789.76878     -171491.56      125.09263      0.17672619   
    318000   928.66632     -231.63646      44.586354     -171481.79      125.14141      0.17553571   
    319000   928.92101     -257.76745     -72.546876     -171483.49      125.19689      0.16732143   
    320000   929.52113     -268.30648     -103.3735      -171487.38      125.14668      0.16831349   
    321000   929.30321     -190.43541     -40.862201     -171485.79      125.12768      0.17166667   
    322000   929.32585      355.27651      592.64908     -171485.95      125.07032      0.16708333   
    323000   927.66387     -94.914885      182.48532     -171475.06      125.16092      0.17228175   
    324000   925.54077     -624.76826     -398.70173     -171461.25      125.20765      0.17172619   
    325000   926.71101     -76.689117      79.545074     -171468.84      125.171        0.16930556   
    326000   923.86455     -473.07418     -330.42068     -171450.23      125.23058      0.1689881    
    327000   931.61177     -68.483397      215.24258     -171500.79      125.12892      0.16904762   
    328000   929.97238     -103.94065     -138.57786     -171490.12      125.11457      0.16668651   
    329000   922.76749     -103.43189      346.89626     -171443.04      125.18667      0.17065476   
    330000   927.06511      21.282175     -141.80439     -171471.12      125.14061      0.1681746    
    331000   928.91322     -306.44868      86.966003     -171483.16      125.14493      0.17103175   
    332000   931.4372      -729.53957     -529.22657     -171499.52      125.20015      0.17446429   
    333000   928.24121      228.59272      493.82208     -171478.72      125.1072       0.16734127   
    334000   927.80137      522.84693      490.99211     -171475.85      125.04726      0.1756746    
    335000   930.23497     -296.00156      80.622393     -171491.8       125.14978      0.17271825   
    336000   931.01848     -662.18623     -423.03287     -171496.85      125.20137      0.16712302   
    337000   928.37617      54.798294      365.86437     -171479.68      125.14647      0.16914683   
    338000   927.51689     -290.85426     -57.657599     -171474.13      125.17233      0.17581349   
    339000   929.8263      -22.677113      262.51804     -171489.1       125.12341      0.17214286   
    340000   926.52026      195.91665      307.54191     -171467.56      125.12101      0.16880952   
    341000   923.71827     -233.9039      -212.88658     -171449.31      125.18402      0.1678373    
    342000   926.87172     -626.09597     -285.58265     -171469.71      125.23364      0.16565476   
    343000   933.50449     -987.47786     -746.09811     -171512.92      125.23588      0.16958333   
    344000   928.83367      170.54053      462.37048     -171482.42      125.09364      0.1715873    
    345000   930.43671     -188.87575      142.31287     -171492.85      125.12376      0.17188492   
    346000   928.50299     -582.53438     -492.10256     -171480.21      125.22078      0.17234127   
    347000   932.74875     -232.79378      266.69133     -171507.75      125.12647      0.1739881    
    348000   930.41638      309.89231      896.46247     -171492.51      125.04265      0.17452381   
    349000   926.86303     -355.88321     -108.30817     -171469.51      125.19144      0.17795635   
    350000   924.86788     -80.018106      101.50651     -171456.49      125.15731      0.17240079   
    351000   927.32552     -171.69639      415.72825     -171472.55      125.17127      0.17376984   
    352000   925.09026      42.735975      365.91732     -171457.99      125.16879      0.16928571   
    353000   927.56475     -438.00085     -57.798574     -171474.12      125.21066      0.1694246    
    354000   926.16058     -373.34467      16.500578     -171465.05      125.21871      0.17244048   
    355000   926.3476       54.854688      162.12805     -171466.21      125.15177      0.16843254   
    356000   930.05583     -686.64673     -505.97027     -171490.41      125.21347      0.17416667   
    357000   929.963        150.4087       557.34203     -171489.96      125.11766      0.16704365   
    358000   928.17149      17.691902     -78.968185     -171478.33      125.12936      0.17501984   
    359000   927.73297     -297.66681      6.9209822     -171475.38      125.18396      0.17257937   
    360000   932.17418     -183.5002      -9.1085135     -171504.44      125.12504      0.17259921   
    361000   929.09128     -201.22353     -128.73571     -171484.36      125.14467      0.17327381   
    362000   927.39112     -226.47436      47.461792     -171473.21      125.14374      0.1743254    
    363000   927.66399     -30.320111      399.11083     -171475.01      125.17072      0.17039683   
    364000   930.36164     -112.07221      212.31625     -171492.73      125.1608       0.17537698   
    365000   926.37719     -420.07545     -440.13589     -171466.72      125.23627      0.1759127    
    366000   931.03993     -55.232224      344.38443     -171496.99      125.15198      0.17668651   
    367000   919.65592     -784.6956      -371.998       -171422.55      125.32136      0.1665873    
    368000   923.51495     -243.81949      50.814105     -171447.79      125.19935      0.1746627    
    369000   925.89349      108.81448      200.94078     -171463.39      125.1523       0.17138889   
    370000   929.60384     -120.63469     -43.68759      -171487.59      125.17016      0.1703373    
    371000   923.07486     -161.51511      2.6882462     -171445.01      125.22347      0.16847222   
    372000   922.26023     -203.99775     -122.79668     -171439.75      125.21989      0.16722222   
    373000   923.94016     -348.9972       68.21363      -171450.76      125.25084      0.1714881    
    374000   922.73907      65.213065      531.27274     -171442.9       125.16025      0.17206349   
    375000   919.11552     -42.321798      454.72505     -171419.13      125.22058      0.17446429   
    376000   921.12515     -511.88793     -438.51862     -171432.21      125.28687      0.17418651   
    377000   929.9834      -41.694175      289.78855     -171490.09      125.14842      0.17337302   
    378000   918.6164      -101.70867     -111.70453     -171415.92      125.21498      0.16525794   
    379000   925.70777      191.32913      633.12185     -171462.18      125.13417      0.17597222   
    380000   922.36092     -127.59262      326.69719     -171440.38      125.23213      0.16801587   
    381000   925.57079     -508.9422      -648.04552     -171461.33      125.2596       0.1721627    
    382000   931.95203     -603.67615     -422.16852     -171503.05      125.2373       0.18001984   
    383000   924.73946     -267.6781       56.422366     -171456         125.18987      0.17426587   
    384000   928.98372     -315.85954     -159.14238     -171483.67      125.18925      0.17073413   
    385000   931.53559     -667.43026     -570.19932     -171500.26      125.20163      0.17823413   
    386000   927.95674     -175.36622      227.06463     -171476.87      125.16154      0.17628968   
    387000   926.1684       12.347452      524.26041     -171465.11      125.17912      0.17202381   
    388000   923.84275     -686.89026     -582.62959     -171449.91      125.29992      0.16906746   
    389000   925.28829     -545.44037     -475.64349     -171459.25      125.23722      0.17428571   
    390000   930.15569      12.083512      518.84628     -171491.12      125.1301       0.17724206   
    391000   924.67133     -138.29023      396.49195     -171455.57      125.20548      0.17009921   
    392000   921.67571     -393.26401     -333.34176     -171436.07      125.24447      0.16857143   
    393000   924.24175      345.00687      298.56099     -171452.81      125.11374      0.16809524   
    394000   926.01706      415.94025      456.14647     -171464.38      125.10086      0.17210317   
    395000   925.98748     -430.0098       8.9696661     -171464.25      125.18648      0.17257937   
    396000   923.78834      132.03726      253.90471     -171449.99      125.15833      0.17029762   
    397000   929.13832     -28.334287      522.60926     -171484.96      125.15084      0.16748016   
    398000   928.10387     -648.03722     -385.10688     -171478.08      125.22815      0.17553571   
    399000   926.68601     -56.623365      69.704477     -171468.77      125.14172      0.17458333   
    400000   930.60201      73.588698      615.47259     -171494.35      125.11582      0.17855159   
    401000   927.72967      85.593555      206.14507     -171475.47      125.13045      0.17162698   
    402000   931.78546     -452.48419     -38.105774     -171502.09      125.15847      0.17063492   
    403000   931.27889      197.99336      398.18906     -171498.61      125.05878      0.1689881    
    404000   928.96071      72.716963      451.51195     -171483.49      125.13956      0.17007937   
    405000   924.34748     -193.38775      129.1683      -171453.41      125.20688      0.17093254   
    406000   926.77947      509.85369      896.39788     -171468.99      125.1023       0.17630952   
    407000   931.40929     -168.88951      155.01167     -171499.25      125.1536       0.1794246    
    408000   924.28526     -79.15815       106.64178     -171452.79      125.20847      0.17303571   
    409000   929.36731     -468.16443     -264.73471     -171485.94      125.20126      0.17825397   
    410000   927.89785     -922.98944     -805.97174     -171476.39      125.26507      0.17621032   
    411000   927.11025     -289.24283      93.319035     -171471.28      125.19744      0.17309524   
    412000   928.09738      376.64496      357.49999     -171477.77      125.0756       0.17515873   
    413000   926.14258     -336.5289       72.273528     -171465.1       125.16748      0.17200397   
    414000   928.31252     -366.4528      -343.62509     -171479.3       125.18081      0.17285714   
    415000   929.59814     -189.78959      567.16884     -171487.71      125.16799      0.17355159   
    416000   930.78503     -357.2823       125.80857     -171495.52      125.18192      0.16865079   
    417000   927.36333     -303.17102     -175.46996     -171473.16      125.21323      0.1672619    
    418000   926.4859      -274.23133     -57.493859     -171467.31      125.19353      0.16801587   
    419000   929.9763      -284.41563     -588.88235     -171489.89      125.16773      0.17089286   
    420000   924.58043     -305.07024     -227.51734     -171454.83      125.21406      0.17242063   
    421000   928.70294     -71.735687      52.217537     -171481.68      125.15454      0.16938492   
    422000   929.25262     -294.24964     -247.5011      -171485.33      125.17279      0.17125      
    423000   930.56578     -340.98081      59.720425     -171493.82      125.13551      0.17482143   
    424000   930.01397     -778.76138     -681.3028      -171490.33      125.20689      0.17125      
    425000   929.08146      124.07254      192.58875     -171484.26      125.08967      0.16732143   
    426000   930.12264     -29.706304      603.05728     -171491.12      125.12819      0.17744048   
    427000   926.59964     -209.88393      320.57652     -171468.2       125.19368      0.16152778   
    428000   926.85372      55.015057      563.51428     -171469.87      125.15038      0.17501984   
    429000   927.65462      233.04735      545.14216     -171474.89      125.08062      0.1781746    
    430000   926.50174     -95.439683      38.225669     -171467.38      125.15802      0.17029762   
    431000   931.95216     -171.85181     -59.861934     -171502.88      125.13114      0.17279762   
    432000   929.9674      -43.116733      75.256326     -171489.97      125.14548      0.17136905   
    433000   931.14868      285.1614       712.67247     -171497.56      125.0793       0.17170635   
    434000   932.87232     -555.61537     -459.32164     -171508.79      125.15633      0.17138889   
    435000   927.66106      546.39152      680.49422     -171474.78      125.06236      0.16855159   
    436000   930.293        229.09514      823.34433     -171491.9       125.08435      0.17882937   
    437000   934.31725      59.661185     -122.87947     -171518.13      125.09334      0.17311508   
    438000   933.23126     -172.4233       71.438247     -171511.07      125.10471      0.17494048   
    439000   927.6134      -436.01604      60.376592     -171474.32      125.16452      0.17355159   
    440000   929.35694     -195.21099     -24.274369     -171485.69      125.0966       0.16640873   
    441000   926.25708     -141.76758      449.34373     -171465.43      125.136        0.16769841   
    442000   935.44627      29.940662      109.6433      -171525.32      125.02915      0.17730159   
    443000   931.74583     -128.20611      156.13482     -171501.17      125.07922      0.1697619    
    444000   936.34315     -434.23942     -497.0266      -171531.2       125.10606      0.17194444   
    445000   935.5635      -9.423966       450.70675     -171526.18      125.07104      0.17097222   
    446000   934.77032     -409.81764     -207.98884     -171520.88      125.10708      0.1789881    
    447000   934.3292      -237.53135      7.517724      -171518.02      125.05504      0.17202381   
    448000   935.01214      235.10109      652.04243     -171522.48      125.01772      0.17146825   
    449000   934.12556      470.40142      646.97346     -171516.68      124.95592      0.1753373    
    450000   935.86376     -503.26507     -486.18024     -171528         125.10325      0.17426587   
    451000   934.81308     -834.02911     -783.16615     -171521.13      125.16445      0.1727381    
    452000   936.64643     -161.14002      240.13326     -171533.1       125.05861      0.17785714   
    453000   933.64436     -148.32057     -270.03336     -171513.57      125.07327      0.17678571   
    454000   929.76372     -103.04597      187.60606     -171488.23      125.12169      0.16994048   
    455000   927.09902     -195.61303     -332.11284     -171470.74      125.1697       0.16474206   
    456000   935.45599     -766.52117     -865.40381     -171525.28      125.15123      0.17335317   
    457000   932.89981     -75.491216      237.38531     -171508.64      125.07273      0.17515873   
    458000   934.41807      29.811115      289.10777     -171518.53      125.04373      0.17414683   
    459000   936.86743     -222.78952      36.411453     -171534.5       125.0588       0.17718254   
    460000   933.96508     -216.57671     -138.70922     -171515.58      125.08948      0.17061508   
    461000   935.78176     -123.80575     -165.57333     -171527.42      125.0575       0.17746032   
    462000   928.72854     -375.87098     -78.399477     -171481.34      125.16704      0.17154762   
    463000   933.34402     -638.16741     -720.55955     -171511.37      125.15238      0.17255952   
    464000   935.2916      -477.18008     -409.74564     -171524.03      125.09706      0.17454365   
    465000   935.88811     -253.81568     -129.36252     -171527.97      125.08511      0.17706349   
    466000   935.91896     -512.45004     -302.37305     -171528.14      125.11151      0.17569444   
    467000   929.6928      -259.59205     -405.16501     -171487.67      125.14037      0.1718254    
    468000   930.95752     -329.59203     -195.41324     -171495.83      125.10016      0.17799603   
    469000   932.38393     -350.30473      90.21953      -171505.23      125.14462      0.16595238   
    470000   935.73813      166.32921      622.1314      -171526.99      125.01222      0.17271825   
    471000   928.58809     -360.86599     -2.1917454     -171480.34      125.15224      0.1719246    
    472000   931.61014     -316.56457     -230.4144      -171500         125.14076      0.16771825   
    473000   935.72816      276.01508      674.57219     -171526.89      125.02096      0.17531746   
    474000   932.04402     -10.198011      184.49904     -171502.76      125.05165      0.17375      
    475000   931.85381     -626.03472     -619.28243     -171501.6       125.16625      0.17434524   
    476000   929.19017      231.27189      301.62791     -171484.23      125.05739      0.16472222   
    477000   927.45876     -264.87248     -289.03284     -171473         125.15367      0.17208333   
    478000   931.88763     -473.28468     -122.25212     -171502.08      125.18753      0.16940476   
    479000   925.22972      227.16772      345.85868     -171458.71      125.099        0.17438492   
    480000   928.16948     -649.45531     -64.394156     -171477.97      125.20156      0.1730754    
    481000   927.70722      252.92892      488.13103     -171474.94      125.09583      0.17097222   
    482000   931.24647     -343.49177     -103.62577     -171497.98      125.15026      0.17325397   
    483000   931.96008      292.6744       722.43211     -171502.52      125.06396      0.17571429   
    484000   925.79003     -366.96246     -53.389159     -171462.2       125.18432      0.17309524   
    485000   929.0244      -747.89556     -307.94133     -171483.35      125.25263      0.16660714   
    486000   924.59054     -363.11592     -65.288267     -171454.47      125.1963       0.16900794   
    487000   929.17198     -484.93978     -564.1482      -171484.42      125.16523      0.17210317   
    488000   926.31373     -165.98206     -104.53452     -171465.76      125.18883      0.16686508   
    489000   926.00256     -16.093239      524.16941     -171463.71      125.16477      0.17670635   
    490000   927.43183      69.501987      393.89023     -171473.13      125.11087      0.17394841   
    491000   925.37611     -63.73409      -219.16413     -171459.86      125.15028      0.16746032   
    492000   930.9304      -260.71987     -97.181393     -171496.03      125.14055      0.17007937   
    493000   930.08697     -139.12346      187.47924     -171490.61      125.12023      0.17478175   
    494000   933.00822     -180.00885      388.28106     -171509.82      125.10576      0.17017857   
    495000   931.18297     -419.94181     -318.02776     -171497.97      125.16257      0.17363095   
    496000   927.25028     -235.65162     -8.416601      -171472.24      125.15735      0.17345238   
    497000   929.10326     -299.98515     -181.55658     -171484.4       125.18291      0.17585317   
    498000   924.76289     -337.58413     -38.970604     -171456.04      125.20297      0.17396825   
    499000   929.93998     -402.13412     -242.34099     -171489.95      125.18132      0.17236111   
    500000   935.55987      80.280574      554.52148     -171526.7       125.08258      0.17599206   
    501000   928.49241      162.65831      666.13094     -171480.61      125.11517      0.17402778   
    502000   929.55789     -263.8512      -281.94959     -171487.57      125.16451      0.17934524   
    503000   931.52506      53.404349      182.39189     -171500.46      125.08442      0.17172619   
    504000   926.07871     -556.73869     -556.0045      -171464.69      125.20217      0.17005952   
    505000   926.57843     -445.47391     -128.65773     -171467.76      125.17995      0.17501984   
    506000   924.51662      171.44093      392.8672      -171454.32      125.14217      0.17464286   
    507000   928.1428      -859.77778     -914.23159     -171477.96      125.28902      0.16486111   
    508000   925.66972     -461.13466     -25.348552     -171461.76      125.1808       0.17376984   
    509000   930.28524      286.86375      435.38129     -171491.87      125.06834      0.17212302   
    510000   930.16522     -393.64802     -95.671488     -171491.24      125.18639      0.16837302   
    511000   933.81466      52.083992      155.82155     -171515.18      125.07074      0.17829365   
    512000   932.56854      116.32726      562.66951     -171507.02      125.06931      0.17708333   
    513000   928.86209     -118.7957       304.98846     -171482.91      125.14652      0.16746032   
    514000   925.27968     -248.11907     -270.96831     -171459.69      125.16909      0.16555556   
    515000   929.96024     -50.847712      304.79121     -171490.16      125.11789      0.17180556   
    516000   927.03152      13.255808     -35.660013     -171471.08      125.14532      0.16373016   
    517000   929.13804      191.16915      257.3528      -171484.85      125.13039      0.17013889   
    518000   922.01842     -524.53128     -370.2814      -171438.4       125.23971      0.16585317   
    519000   928.20842      81.380158      74.61234      -171478.73      125.12651      0.16759921   
    520000   924.26918     -90.394627      106.63886     -171452.77      125.18547      0.16309524   
    521000   929.30041      36.850451      391.20662     -171485.64      125.11635      0.17763889   
    522000   933.30578     -214.72819     -69.455892     -171511.91      125.12917      0.1660119    
    523000   929.91271     -124.57031      358.11624     -171489.74      125.14436      0.17117063   
    524000   924.9581       24.832001      393.09508     -171457.44      125.1641       0.16974206   
    525000   928.3279       126.71137      332.72846     -171479.43      125.10113      0.17400794   
    526000   925.51253      197.85616      642.53327     -171460.94      125.13474      0.16978175   
    527000   927.12362     -549.75319     -503.49152     -171471.39      125.22532      0.17390873   
    528000   932.25017     -844.97897     -628.93008     -171504.74      125.23027      0.17396825   
    529000   929.62561     -327.22487     -245.75711     -171487.78      125.18432      0.1746627    
    530000   933.46256     -125.19763      96.944134     -171512.56      125.12797      0.175        
    531000   926.87674     -355.67125     -115.4642      -171469.62      125.19013      0.17331349   
    532000   925.16022     -784.589       -693.33006     -171458.46      125.26878      0.17174603   
    533000   920.88956     -245.39027     -266.4041      -171430.65      125.25224      0.16454365   
    534000   921.93723      209.78314      259.92725     -171437.54      125.1892       0.16573413   
    535000   922.56547     -267.82001      161.57478     -171441.63      125.20574      0.17521825   
    536000   928.73374     -694.13675     -498.27903     -171481.98      125.24318      0.1744246    
    537000   926.13291     -227.75526     -140.01716     -171465.03      125.20054      0.17160714   
    538000   930.55616     -145.21418      220.59763     -171493.84      125.12176      0.17642857   
    539000   927.17464      259.73454      408.03525     -171471.73      125.09195      0.16984127   
    540000   923.44716     -166.67508     -45.685525     -171447.47      125.21088      0.17190476   
    541000   925.40466     -188.12422      253.94644     -171460.21      125.17734      0.1671627    
    542000   931.78264     -433.33007      34.33254      -171501.83      125.17986      0.17200397   
    543000   929.03264      2.5390147      327.74829     -171483.91      125.13431      0.17125      
    544000   932.94424      452.89734      890.45976     -171509.13      125.0369       0.17454365   
    545000   927.3791       90.388398      361.07791     -171472.77      125.09661      0.17331349   
    546000   928.3293      -518.16331     -327.97299     -171479.03      125.21321      0.17097222   
    547000   928.56777     -377.16646     -255.93434     -171480.56      125.17218      0.17168651   
    548000   932.19995     -114.7766       246.18276     -171504.34      125.11515      0.17083333   
    549000   924.23392     -509.99754     -296.81016     -171452.37      125.26998      0.16537698   
    550000   926.41128     -436.22067      148.79252     -171466.45      125.20342      0.17123016   
    551000   930.96844     -386.45807     -162.9857      -171496.15      125.18003      0.17382937   
    552000   930.67055     -466.48483     -524.72429     -171494.13      125.17435      0.17654762   
    553000   930.70232     -599.06216     -206.54212     -171494.34      125.21788      0.17220238   
    554000   927.76468      22.539574      164.19397     -171475.27      125.13766      0.17505952   
    555000   923.26575     -145.79172      90.576096     -171445.78      125.19516      0.1743254    
Loop time of 2916.98 on 1 procs for 500000 steps with 50400 atoms

Performance: 29.620 ns/day, 0.810 hours/ns, 171.410 timesteps/s, 8.639 Matom-step/s
89.6% CPU use with 1 MPI tasks x 1 OpenMP threads

MPI task timing breakdown:
Section |  min time  |  avg time  |  max time  |%varavg| %total
---------------------------------------------------------------
Pair    | 1954.6     | 1954.6     | 1954.6     |   0.0 | 67.01
Neigh   | 15.602     | 15.602     | 15.602     |   0.0 |  0.53
Comm    | 145.24     | 145.24     | 145.24     |   0.0 |  4.98
Output  | 136.61     | 136.61     | 136.61     |   0.0 |  4.68
Modify  | 551.88     | 551.88     | 551.88     |   0.0 | 18.92
Other   |            | 113.1      |            |       |  3.88

Nlocal:          50400 ave       50400 max       50400 min
Histogram: 1 0 0 0 0 0 0 0 0 0
Nghost:          49537 ave       49537 max       49537 min
Histogram: 1 0 0 0 0 0 0 0 0 0
Neighs:              0 ave           0 max           0 min
Histogram: 1 0 0 0 0 0 0 0 0 0
FullNghs:  8.24504e+06 ave 8.24504e+06 max 8.24504e+06 min
Histogram: 1 0 0 0 0 0 0 0 0 0

Total # of neighbors = 8245044
Ave neighs/atom = 163.59214
Neighbor list builds = 24132
Dangerous builds = 0
Total wall time: 0:52:43
