LAMMPS (10 Sep 2025)
  using 1 OpenMP thread(s) per MPI task
package gpu 1
# Capillary fluctuation method (Hoyt, Asta, Karma 2001): quasi-2D solid-liquid ribbon at T_m.
# Interface normal z, fluctuation direction x, thin y.  orient: 100 | 110 | 111 (interface plane)
#   mpirun -np 4 lmp -in in.cfm -var pot borovikov -var Tm 930 -var orient 100
variable pot    index borovikov
variable Tm     index 930
variable orient index 100
variable ny     index 3   # y cells (thickness); E2 used 3 | 2 | 3
variable dump   index cfm_${pot}_${orient}.dump
variable dump   index cfm_borovikov_${orient}.dump
variable dump   index cfm_borovikov_111.dump
variable seed   index 3301
variable neq    index 25000
variable nprod  index 200000
variable nstage index 10000
variable ndump  index 2000
variable a0 equal 4.05
if "${pot} == borovikov" then "variable a0 equal 4.016"
variable a0 equal 4.016
if "${pot} == mendelev" then "variable a0 equal 4.045"
units        metal
atom_style   atomic
boundary     p p p
# (x, y, z) = (fluctuation, thin, interface normal)
if "${orient} == 100" then "lattice fcc ${a0} orient x 1 0 0 orient y 0 1 0 orient z 0 0 1" "region box block 0 60 0 ${ny} 0 30"
if "${orient} == 110" then "lattice fcc ${a0} orient x 0 0 1 orient y 1 -1 0 orient z 1 1 0" "region box block 0 60 0 ${ny} 0 21"
if "${orient} == 111" then "lattice fcc ${a0} orient x 1 -1 0 orient y 1 1 -2 orient z 1 1 1" "region box block 0 42 0 ${ny} 0 17"
lattice fcc ${a0} orient x 1 -1 0 orient y 1 1 -2 orient z 1 1 1
lattice fcc 4.016 orient x 1 -1 0 orient y 1 1 -2 orient z 1 1 1
Lattice spacing in x,y,z = 5.6794817 6.5581005 6.955916
region box block 0 42 0 ${ny} 0 17
region box block 0 42 0 6 0 17
create_box   1 box
Created orthogonal box = (0 0 0) to (238.53823 39.348603 118.25057)
  1 by 1 by 1 MPI processor grid
create_atoms 1 box
Created 68544 atoms
  using lattice units in orthogonal box = (0 0 0) to (238.53823 39.348603 118.25057)
  create_atoms CPU = 0.019 seconds
mass         1 26.982
include      ../e2_melting/pot_${pot}.lmp
include      ../e2_melting/pot_borovikov.lmp
# Borovikov, Mendelev, Zarkevich, Smith, Lawson, Int. J. Plast. 178 (2024) 104004 — EAM/FS Ni-Al-Nb (NIST IPR)
pair_style eam/fs
pair_coeff * * ../../potentials/NiAlNb_Borovikov2024/Ni-Al-Nb.eam.fs Al
timestep     0.002
thermo       1000
# solid at Tm, lateral lattice fixed afterwards
velocity     all create ${Tm} ${seed} mom yes rot yes dist gaussian
velocity     all create 936 ${seed} mom yes rot yes dist gaussian
velocity     all create 936 3301 mom yes rot yes dist gaussian
fix          eq all npt temp ${Tm} ${Tm} 0.2 aniso 0 0 2.0
fix          eq all npt temp 936 ${Tm} 0.2 aniso 0 0 2.0
fix          eq all npt temp 936 936 0.2 aniso 0 0 2.0
run          ${nstage}
run          10000

CITE-CITE-CITE-CITE-CITE-CITE-CITE-CITE-CITE-CITE-CITE-CITE-CITE

Your simulation uses code contributions which should be cited:

- GPU package (short-range, long-range and three-body potentials): doi:10.1016/j.cpc.2010.12.021, doi:10.1016/j.cpc.2011.10.012, doi:10.1016/j.cpc.2013.08.002, doi:10.1016/j.commatsci.2014.10.068, doi:10.1016/j.cpc.2016.10.020, doi:10.3233/APC200086

@Article{Brown11,
 author = {W. M. Brown and P. Wang and S. J. Plimpton and A. N. Tharrington},
 title = {Implementing Molecular Dynamics on Hybrid High Performance Computers---Short Range Forces},
 journal = {Comput.\ Phys.\ Commun.},
 year =    2011,
 volume =  182,
 pages =   {898--911},
 doi =     {10.1016/j.cpc.2010.12.021}
}

@Article{Brown12,
 author = {W. M. Brown and A. Kohlmeyer and S. J. Plimpton and A. N. Tharrington},
 title = {Implementing Molecular Dynamics on Hybrid High Performance Computers - Particle-Particle Particle-Mesh},
 journal = {Comput.\ Phys.\ Commun.},
 year =    2012,
 volume =  183,
 doi =     {10.1016/j.cpc.2011.10.012},
 pages =   {449--459}
}

@Article{Brown13,
 author = {W. M. Brown and Y. Masako},
 title = {Implementing Molecular Dynamics on Hybrid High Performance Computers---Three-Body Potentials},
 journal = {Comput.\ Phys.\ Commun.},
 year =    2013,
 volume =  184,
 pages =   {2785--2793},
 doi =     {10.1016/j.cpc.2013.08.002},
}

@Article{Trung15,
 author = {T. D. Nguyen and S. J. Plimpton},
 title = {Accelerating Dissipative Particle Dynamics Simulations for Soft Matter Systems},
 journal = {Comput.\ Mater.\ Sci.},
 year =    2015,
 doi =     {10.1016/j.commatsci.2014.10.068},
 volume =  100,
 pages =   {173--180}
}

@Article{Trung17,
 author = {T. D. Nguyen},
 title = {{GPU}-Accelerated {T}ersoff Potentials for Massively Parallel
    Molecular Dynamics Simulations},
 journal = {Comput.\ Phys.\ Commun.},
 year =    2017,
 doi =     {10.1016/j.cpc.2016.10.020},
 volume =  212,
 pages =   {113--122}
}

@inproceedings{Nikolskiy19,
 author = {V. Nikolskiy and V. Stegailov},
 title = {{GPU} Acceleration of Four-Site Water Models in {LAMMPS}},
 booktitle = {Proceedings of the International Conference on Parallel
    Computing (ParCo 2019), Prague, Czech Republic},
 doi =     {10.3233/APC200086},
 year =    2019
}

CITE-CITE-CITE-CITE-CITE-CITE-CITE-CITE-CITE-CITE-CITE-CITE-CITE

Per MPI rank memory allocation (min/avg/max) = 25.09 | 25.09 | 25.09 Mbytes
   Step          Temp          E_pair         E_mol          TotEng         Press          Volume    
         0   936           -244314.52      0             -236021.67      7973.7147      1109917.2    
      1000   829.87239     -236631.92      0             -229279.35      1543.0145      1187976.6    
      2000   928.17177     -235338.97      0             -227115.48      474.72422      1202426.4    
      3000   943.02425     -235201.18      0             -226846.1      -247.33656      1204707.4    
      4000   933.16005     -235325.32      0             -227057.63      20.927089      1203175.3    
      5000   935.35305     -235247.16      0             -226960.04      50.348975      1204022.2    
      6000   937.16862     -235224.93      0             -226921.73     -260.09985      1204466.5    
      7000   935.35445     -235331.35      0             -227044.22     -263.07617      1203427.2    
      8000   942.67214     -235307.88      0             -226955.92     -459.50593      1204114      
      9000   937.90061     -235259.06      0             -226949.38     -59.976672      1204043.8    
     10000   933.40655     -235311.45      0             -227041.59      50.466815      1203236.9    
Loop time of 74.5914 on 1 procs for 10000 steps with 68544 atoms

Performance: 23.166 ns/day, 1.036 hours/ns, 134.064 timesteps/s, 9.189 Matom-step/s
89.8% CPU use with 1 MPI tasks x 1 OpenMP threads

MPI task timing breakdown:
Section |  min time  |  avg time  |  max time  |%varavg| %total
---------------------------------------------------------------
Pair    | 51.194     | 51.194     | 51.194     |   0.0 | 68.63
Neigh   | 0.084939   | 0.084939   | 0.084939   |   0.0 |  0.11
Comm    | 3.8147     | 3.8147     | 3.8147     |   0.0 |  5.11
Output  | 0.0033254  | 0.0033254  | 0.0033254  |   0.0 |  0.00
Modify  | 16.266     | 16.266     | 16.266     |   0.0 | 21.81
Other   |            | 3.229      |            |       |  4.33

Nlocal:          68544 ave       68544 max       68544 min
Histogram: 1 0 0 0 0 0 0 0 0 0
Nghost:          52011 ave       52011 max       52011 min
Histogram: 1 0 0 0 0 0 0 0 0 0
Neighs:              0 ave           0 max           0 min
Histogram: 1 0 0 0 0 0 0 0 0 0

Total # of neighbors = 0
Ave neighs/atom = 0
Neighbor list builds = 483
Dangerous builds = 0
unfix        eq
variable     zmid equal (zlo+zhi)/2
region       up block INF INF INF INF ${zmid} INF units box
region       up block INF INF INF INF 59.1252863671714 INF units box
group        liq region up
34291 atoms in group liq
group        sol subtract all liq
34253 atoms in group sol
velocity     sol set 0 0 0
fix          fr sol setforce 0 0 0
fix          m liq nvt temp 1500 1500 0.2
run          ${nstage}
run          10000
Per MPI rank memory allocation (min/avg/max) = 25.09 | 25.09 | 25.09 Mbytes
   Step          Temp          E_pair         E_mol          TotEng         Press     
     10000   465.99793     -235311.45      0             -231182.77     -3625.6763    
     11000   765.14683     -232666.46      0             -225887.35      15631.247    
     12000   745.44622     -232712.16      0             -226107.6       15426.158    
     13000   754.20291     -232584.97      0             -225902.83      16265.748    
     14000   748.55817     -232459.24      0             -225827.1       17116.079    
     15000   753.9308      -232209.72      0             -225529.98      18980.322    
     16000   748.56082     -231643.45      0             -225011.3       22995.854    
     17000   753.50488     -230894.81      0             -224218.85      27725.929    
     18000   746.83309     -230553.59      0             -223936.74      29892.189    
     19000   749.78583     -230370.83      0             -223727.82      30909.666    
     20000   753.17885     -230328.46      0             -223655.38      31198.101    
Loop time of 44.2861 on 1 procs for 10000 steps with 68544 atoms

Performance: 39.019 ns/day, 0.615 hours/ns, 225.804 timesteps/s, 15.478 Matom-step/s
89.1% CPU use with 1 MPI tasks x 1 OpenMP threads

MPI task timing breakdown:
Section |  min time  |  avg time  |  max time  |%varavg| %total
---------------------------------------------------------------
Pair    | 27.128     | 27.128     | 27.128     |   0.0 | 61.26
Neigh   | 0.09468    | 0.09468    | 0.09468    |   0.0 |  0.21
Comm    | 3.725      | 3.725      | 3.725      |   0.0 |  8.41
Output  | 0.0030144  | 0.0030144  | 0.0030144  |   0.0 |  0.01
Modify  | 10.039     | 10.039     | 10.039     |   0.0 | 22.67
Other   |            | 3.296      |            |       |  7.44

Nlocal:          68544 ave       68544 max       68544 min
Histogram: 1 0 0 0 0 0 0 0 0 0
Nghost:          52503 ave       52503 max       52503 min
Histogram: 1 0 0 0 0 0 0 0 0 0
Neighs:              0 ave           0 max           0 min
Histogram: 1 0 0 0 0 0 0 0 0 0

Total # of neighbors = 0
Ave neighs/atom = 0
Neighbor list builds = 605
Dangerous builds = 0
unfix        m
fix          c liq nvt temp ${Tm} ${Tm} 0.2
fix          c liq nvt temp 936 ${Tm} 0.2
fix          c liq nvt temp 936 936 0.2
run          ${nstage}
run          10000
Per MPI rank memory allocation (min/avg/max) = 25.09 | 25.09 | 25.09 Mbytes
   Step          Temp          E_pair         E_mol          TotEng         Press     
     20000   753.17885     -230328.46      0             -223655.38      31198.101    
     21000   461.24011     -233372.28      0             -229285.75      13544.426    
     22000   471.98194     -233403.4       0             -229221.69      13231.415    
     23000   467.91589     -233549.08      0             -229403.4       12210.441    
     24000   470.28576     -233579.27      0             -229412.59      11819.904    
     25000   466.66875     -233670         0             -229535.37      11094.398    
     26000   469.3338      -233745.38      0             -229587.14      10595.274    
     27000   466.88614     -233816.65      0             -229680.09      10021.536    
     28000   465.96103     -233907.43      0             -229779.07      9135.194     
     29000   468.11896     -233962.31      0             -229814.83      8650.5995    
     30000   467.01467     -234022.1       0             -229884.41      8145.4283    
Loop time of 44.7281 on 1 procs for 10000 steps with 68544 atoms

Performance: 38.633 ns/day, 0.621 hours/ns, 223.573 timesteps/s, 15.325 Matom-step/s
89.0% CPU use with 1 MPI tasks x 1 OpenMP threads

MPI task timing breakdown:
Section |  min time  |  avg time  |  max time  |%varavg| %total
---------------------------------------------------------------
Pair    | 27.341     | 27.341     | 27.341     |   0.0 | 61.13
Neigh   | 0.077457   | 0.077457   | 0.077457   |   0.0 |  0.17
Comm    | 3.7229     | 3.7229     | 3.7229     |   0.0 |  8.32
Output  | 0.003027   | 0.003027   | 0.003027   |   0.0 |  0.01
Modify  | 10.195     | 10.195     | 10.195     |   0.0 | 22.79
Other   |            | 3.389      |            |       |  7.58

Nlocal:          68544 ave       68544 max       68544 min
Histogram: 1 0 0 0 0 0 0 0 0 0
Nghost:          52107 ave       52107 max       52107 min
Histogram: 1 0 0 0 0 0 0 0 0 0
Neighs:              0 ave           0 max           0 min
Histogram: 1 0 0 0 0 0 0 0 0 0

Total # of neighbors = 0
Ave neighs/atom = 0
Neighbor list builds = 474
Dangerous builds = 0
unfix        c
unfix        fr
velocity     sol create ${Tm} $(v_seed+1) mom yes rot yes dist gaussian
velocity     sol create 936 $(v_seed+1) mom yes rot yes dist gaussian
velocity     sol create 936 3302 mom yes rot yes dist gaussian
fix          rel all npt temp ${Tm} ${Tm} 0.2 z 0 0 2.0
fix          rel all npt temp 936 ${Tm} 0.2 z 0 0 2.0
fix          rel all npt temp 936 936 0.2 z 0 0 2.0
run          ${neq}
run          25000
Per MPI rank memory allocation (min/avg/max) = 25.09 | 25.09 | 25.09 Mbytes
   Step          Temp          E_pair         E_mol          TotEng         Press          Volume    
     30000   934.74839     -234022.1       0             -225740.35      11824.128      1203236.9    
     31000   938.51969     -233357.34      0             -225042.17      377.077        1226018.8    
     32000   935.2181      -233350.11      0             -225064.19      217.11655      1226817      
     33000   939.47368     -233388.01      0             -225064.39     -98.274981      1227204      
     34000   937.91243     -233364.97      0             -225055.18     -375.98174      1227995.4    
     35000   936.14817     -233414.47      0             -225120.31     -57.30129       1227096.4    
     36000   936.83838     -233433.15      0             -225132.87      31.843064      1226654.7    
     37000   934.98163     -233365.98      0             -225082.15      211.16567      1226956.7    
     38000   934.90433     -233424.37      0             -225141.24      444.88267      1226267.5    
     39000   934.55692     -233411.37      0             -225131.31      324.16323      1226110.4    
     40000   934.63879     -233356.38      0             -225075.59      353.14318      1226910.6    
     41000   942.33833     -233387.32      0             -225038.32      130.18136      1226812.6    
     42000   939.07939     -233418.13      0             -225098        -208.45192      1226880.8    
     43000   941.74211     -233396.47      0             -225052.75      46.729823      1226934.8    
     44000   937.05104     -233429.77      0             -225127.61      244.83851      1226222.5    
     45000   934.58865     -233397.04      0             -225116.7       301.27454      1226492.1    
     46000   932.01505     -233430.71      0             -225173.17     -309.19815      1226848.6    
     47000   936.13367     -233431.62      0             -225137.59      20.308093      1226648.8    
     48000   933.01657     -233383.67      0             -225117.26     -4.8445098      1227133.6    
     49000   933.13433     -233417.12      0             -225149.66     -322.74113      1227058.8    
     50000   936.2269      -233405.35      0             -225110.5      -173.58284      1226980.4    
     51000   934.18731     -233372.34      0             -225095.56     -253.17466      1227810.5    
     52000   939.08377     -233440.31      0             -225120.14     -23.664767      1226528.8    
     53000   939.33074     -233376.65      0             -225054.3       322.28927      1226936.5    
     54000   938.26053     -233311.75      0             -224998.87      543.92271      1226999.9    
     55000   938.50057     -233365.83      0             -225050.83      345.79656      1226937.5    
Loop time of 187.752 on 1 procs for 25000 steps with 68544 atoms

Performance: 23.009 ns/day, 1.043 hours/ns, 133.154 timesteps/s, 9.127 Matom-step/s
89.6% CPU use with 1 MPI tasks x 1 OpenMP threads

MPI task timing breakdown:
Section |  min time  |  avg time  |  max time  |%varavg| %total
---------------------------------------------------------------
Pair    | 128.04     | 128.04     | 128.04     |   0.0 | 68.20
Neigh   | 0.22057    | 0.22057    | 0.22057    |   0.0 |  0.12
Comm    | 9.7107     | 9.7107     | 9.7107     |   0.0 |  5.17
Output  | 0.013537   | 0.013537   | 0.013537   |   0.0 |  0.01
Modify  | 41.508     | 41.508     | 41.508     |   0.0 | 22.11
Other   |            | 8.256      |            |       |  4.40

Nlocal:          68544 ave       68544 max       68544 min
Histogram: 1 0 0 0 0 0 0 0 0 0
Nghost:          52000 ave       52000 max       52000 min
Histogram: 1 0 0 0 0 0 0 0 0 0
Neighs:              0 ave           0 max           0 min
Histogram: 1 0 0 0 0 0 0 0 0 0

Total # of neighbors = 0
Ave neighs/atom = 0
Neighbor list builds = 1228
Dangerous builds = 0
unfix        rel
# production: NPH along z (interface position drifts slowly if T != T_m)
compute      cna all cna/atom $(0.854*v_a0)
compute      cna all cna/atom 3.4296639999999998238
variable     issol atom c_cna==1
compute      ns all reduce sum v_issol
variable     fsol equal c_ns/atoms
fix          prod all nph z 0 0 2.0
thermo_style custom step temp press pzz pe lz v_fsol
dump         d all custom ${ndump} ${dump} id x y z c_cna
dump         d all custom 4000 ${dump} id x y z c_cna
dump         d all custom 4000 /home/ileao/runs/cfm_thick/cfm_borovikov_111.dump id x y z c_cna
dump_modify  d sort id
run          ${nprod}
run          500000
Neighbor list info ...
  update: every = 1 steps, delay = 0 steps, check = yes
  max neighbors/atom: 2000, page size: 100000
  master list distance cutoff = 8.9
  ghost atom cutoff = 8.9
  binsize = 4.45, bins = 56 10 28
  1 neighbor lists, perpetual/occasional/extra = 0 1 0
  (1) compute cna/atom, occasional
      attributes: full, newton on
      pair build: full/bin/atomonly
      stencil: full/bin/3d
      bin: standard
Per MPI rank memory allocation (min/avg/max) = 26.62 | 26.62 | 26.62 Mbytes
   Step          Temp          Press           Pzz           PotEng           Lz           v_fsol    
     55000   938.50057      345.79656      132.03816     -233365.83      123.912        0.1767186    
     56000   936.07451     -119.83455     -190.22658     -233344.33      123.98692      0.17868814   
     57000   940.34672     -34.979158     -53.095251     -233382.24      123.94393      0.18014706   
     58000   939.76046     -355.54817     -533.29839     -233377.04      124.00041      0.18338585   
     59000   933.37498     -330.26524     -165.05371     -233320.39      124.05792      0.17394666   
     60000   931.95131      152.05569      74.380448     -233307.77      123.98526      0.17823588   
     61000   937.09734     -59.281598      67.638531     -233353.33      123.96115      0.17880486   
     62000   930.4206      -332.70698     -503.89095     -233294.04      124.06662      0.17949055   
     63000   936.34323      177.80864      461.51356     -233346.54      123.98255      0.18220413   
     64000   931.96106     -29.776369     -118.5458      -233307.84      124.04034      0.17495331   
     65000   930.12354     -223.11427     -625.20078     -233291.44      124.08018      0.17231268   
     66000   934.31052     -244.91297     -416.33368     -233328.79      124.04175      0.1707954    
     67000   931.17894      207.72684      228.27303     -233300.91      123.99864      0.18134337   
     68000   929.8611      -515.15201     -493.1049      -233289.28      124.11683      0.17585784   
     69000   933.26027     -597.92149     -638.70163     -233319.4       124.08629      0.18055556   
     70000   934.19298     -249.50685     -562.34306     -233327.84      124.03211      0.18051179   
     71000   935.82078     -282.55627     -508.65221     -233342.33      124.01841      0.17565359   
     72000   934.4266       155.59951      91.583816     -233329.9       123.98132      0.17701039   
     73000   934.74507      222.03673      176.08314     -233332.75      123.96746      0.18014706   
     74000   933.19327     -120.05252     -84.823844     -233318.87      124.03918      0.17835259   
     75000   939.70933      125.72304      573.78596     -233376.63      123.92849      0.18464052   
     76000   940.43644     -119.88627      66.778818     -233383.08      123.95337      0.18459676   
     77000   934.00361      400.51854      640.80645     -233325.96      123.94384      0.17520133   
     78000   934.99431      78.317964      283.80773     -233334.77      124.00573      0.17279412   
     79000   931.47837     -573.07951     -544.06964     -233303.4       124.11577      0.17248775   
     80000   930.30625     -231.32776     -1.4095672     -233292.94      124.06365      0.1771271    
     81000   930.86029      89.925321      331.19715     -233297.94      124.01653      0.17562442   
     82000   931.82936     -280.6893      -517.68353     -233306.53      124.07159      0.1749679    
     83000   926.70264      73.303552      217.79027     -233261.04      124.07811      0.17555147   
     84000   926.96693     -301.47821     -319.2565      -233263.36      124.09965      0.17108718   
     85000   928.84992      163.59078      193.14491     -233280.05      124.01281      0.18182481   
     86000   927.67433      158.59763      77.159695     -233269.72      124.02543      0.17423845   
     87000   931.31991     -124.60363     -338.17594     -233302.1       124.02751      0.17867355   
     88000   931.94945     -710.63934     -891.14499     -233307.67      124.1153       0.17542017   
     89000   928.12497     -106.81306     -151.80839     -233273.68      124.07878      0.17454482   
     90000   927.86539     -173.89626     -223.26331     -233271.24      124.11408      0.17235644   
     91000   928.89594     -212.65853     -387.29107     -233280.39      124.0719       0.17784197   
     92000   926.25705     -606.93563     -751.96821     -233257.01      124.17916      0.17245857   
     93000   928.94036     -19.371603     -246.64127     -233280.92      124.05543      0.1763247    
     94000   926.45904      178.04911      210.15316     -233258.97      124.06285      0.17849848   
     95000   931.60057      148.27566      281.90844     -233304.53      123.98327      0.17629552   
     96000   928.06406     -119.42051     -87.070929     -233273         124.09054      0.17448646   
     97000   924.99761     -132.25025      335.45834     -233245.57      124.09956      0.17918417   
     98000   933.75852      375.88433      788.95686     -233323.32      123.97264      0.18109535   
     99000   928.7939      -300.2897       153.67198     -233279.25      124.10407      0.17868814   
    100000   929.74506     -44.347606      31.319641     -233287.75      124.06001      0.1771271    
    101000   928.35076      111.98788      164.33256     -233275.49      124.03554      0.17563901   
    102000   930.93155     -358.60725     -484.34129     -233298.39      124.10031      0.17798786   
    103000   930.56797     -348.54283     -410.20156     -233295.13      124.09392      0.17927171   
    104000   932.78404     -333.2791      -288.09757     -233314.68      124.07128      0.17369865   
    105000   931.52206      40.691846      262.25302     -233303.43      124.0305       0.17909664   
    106000   927.22394     -242.01058     -9.9543963     -233265.35      124.12549      0.17434057   
    107000   929.22167     -613.58751     -484.95184     -233282.95      124.13589      0.18351716   
    108000   932.30433     -231.7377       111.71113     -233310.38      124.09644      0.17972397   
    109000   930.99625      26.701353      312.68487     -233298.83      124.0837       0.17706874   
    110000   930.86116     -54.89415       85.996373     -233297.46      124.06154      0.17352358   
    111000   927.91849     -298.52301     -435.7608      -233271.38      124.10605      0.17404879   
    112000   928.49769     -343.6473      -58.022683     -233276.39      124.12298      0.17331933   
    113000   931.27422     -41.921642      226.30292     -233300.93      124.06866      0.17867355   
    114000   929.82012      487.78449      756.05697     -233287.84      123.99633      0.17946137   
    115000   928.9348       556.27286      823.97682     -233279.78      123.96959      0.18122666   
    116000   926.78754      124.93885      426.08394     -233261.08      124.06974      0.17394666   
    117000   934.43667     -458.14488     -69.242116     -233328.95      124.09529      0.18321078   
    118000   929.47103     -231.83717      166.01247     -233284.82      124.09444      0.1768645    
    119000   929.33885      417.34573      529.67798     -233283.72      123.99273      0.17458859   
    120000   933.63183     -113.87563     -43.005402     -233321.93      124.04824      0.18077439   
    121000   931.07636     -124.06502     -213.30613     -233299.24      124.05484      0.17814834   
    122000   932.26165     -281.26685      156.18801     -233309.74      124.07466      0.1792863    
    123000   929.97452     -286.11083     -114.15048     -233289.41      124.08854      0.17425303   
    124000   931.67026     -139.53363     -331.79061     -233304.49      124.07388      0.17359652   
    125000   932.10579     -441.64802     -355.45687     -233308.26      124.09712      0.17612045   
    126000   929.72892     -499.90794     -284.6482      -233287.21      124.14187      0.17436975   
    127000   928.07617      91.353419      55.871811     -233272.53      124.06597      0.17361111   
    128000   929.19133      34.799186      233.66961     -233282.43      124.07599      0.17460317   
    129000   930.20686     -4.1944712      226.39708     -233291.4       124.05827      0.17453023   
    130000   927.75549      85.457922      9.5137172     -233269.77      124.0608       0.18043884   
    131000   922.89374     -211.65591     -472.66161     -233226.29      124.16534      0.17384454   
    132000   926.55247      166.21633      324.40568     -233259         124.06227      0.17667484   
    133000   931.84804     -222.59962     -40.864852     -233305.97      124.08099      0.17801704   
    134000   929.91853     -24.197601      261.86996     -233288.87      124.07139      0.17947596   
    135000   928.51482      406.39347      703.88188     -233276.41      124.01523      0.17927171   
    136000   929.77067     -199.07602      24.858028     -233287.51      124.09724      0.17925712   
    137000   926.11715     -466.49116     -188.39635     -233254.79      124.18126      0.17031396   
    138000   927.64565     -84.713817      94.072923     -233268.62      124.09021      0.1765873    
    139000   928.47692      144.00458      334.88599     -233275.86      124.06957      0.17953431   
    140000   926.62261     -285.52904     -53.501231     -233259.41      124.13528      0.17343604   
    141000   928.27071     -81.208756     -212.75619     -233274.04      124.09518      0.17340686   
    142000   927.29313     -124.91214     -297.06468     -233265.38      124.11146      0.17565359   
    143000   925.17626      47.190425      38.49715      -233246.6       124.11383      0.17585784   
    144000   924.62645     -267.77118     -49.095005     -233241.61      124.12821      0.17366947   
    145000   923.19911     -680.14039     -779.77041     -233228.93      124.23774      0.1674253    
    146000   926.85816     -124.09842     -47.779121     -233261.42      124.10148      0.17911123   
    147000   925.56408     -200.57016     -134.37976     -233249.86      124.13113      0.16952614   
    148000   928.3869      -133.09777     -124.32548     -233275.01      124.11446      0.17423845   
    149000   927.43489      70.478022      136.49906     -233266.54      124.1082       0.17223973   
    150000   923.15911     -187.00117     -45.369217     -233228.57      124.14413      0.17469071   
    151000   925.70648     -54.165481      120.80945     -233251.18      124.11398      0.17216678   
    152000   924.48337     -119.64449     -84.328211     -233240.35      124.13835      0.17785656   
    153000   928.33843     -461.46        -429.8979      -233274.62      124.16451      0.17696662   
    154000   924.67824     -346.22999      128.69745     -233242.16      124.19071      0.17184582   
    155000   926.23507     -218.7262       294.81686     -233255.99      124.13554      0.17588702   
    156000   928.65915     -162.96693      62.727827     -233277.56      124.12372      0.17355275   
    157000   927.12564      294.09489      470.75923     -233263.98      124.06195      0.17935924   
    158000   929.4782      -164.30312      145.27122     -233284.9       124.08821      0.1788778    
    159000   924.06957     -166.51961      204.12855     -233236.93      124.1744       0.1707954    
    160000   925.73549     -195.00039      45.15567      -233251.63      124.12572      0.17912582   
    161000   928.03177     -294.74703     -208.16257     -233272.06      124.14645      0.18020542   
    162000   925.58516     -210.79523     -137.06973     -233250.35      124.14679      0.17845472   
    163000   930.10016     -512.27792     -285.86618     -233290.41      124.15221      0.17823588   
    164000   927.29363     -442.80436     -400.62022     -233265.49      124.14018      0.17352358   
    165000   924.77956      145.40875      440.7427      -233243.16      124.07456      0.17574113   
    166000   929.20134     -179.17809     -92.663386     -233282.26      124.08582      0.18003035   
    167000   928.26917     -336.27765     -71.916635     -233274.07      124.11986      0.17531804   
    168000   928.01968     -385.47053     -219.11145     -233271.87      124.16233      0.17359652   
    169000   929.22706     -189.05327      65.880205     -233282.55      124.09324      0.17485119   
    170000   928.30048     -220.8703      -202.59723     -233274.31      124.11588      0.17076622   
    171000   934.0411       38.36403       401.88813     -233325.23      124.0339       0.17641223   
    172000   929.07049      444.36415      306.29788     -233280.92      124.00396      0.1736257    
    173000   929.0216      -54.71092       61.425        -233280.63      124.08645      0.17479283   
    174000   932.49306     -33.739173      32.565711     -233311.47      124.04964      0.18040966   
    175000   930.63184     -0.13419617     128.30393     -233294.85      124.0535       0.17649977   
    176000   932.90262     -806.1354      -1179.7921     -233314.84      124.15194      0.17673319   
    177000   926.69678      161.26019      649.68089     -233259.78      124.0794       0.17127684   
    178000   929.77645      199.89288      658.07325     -233287.32      124.04511      0.1740342    
    179000   929.76971     -337.88758      70.794783     -233287.2       124.11551      0.17523051   
    180000   924.9918      -322.90268     -165.13752     -233244.83      124.15926      0.16491597   
    181000   929.22806     -118.13972     -142.75007     -233282.43      124.11201      0.17118931   
    182000   925.44902      157.02441      328.56137     -233248.8       124.09497      0.17199171   
    183000   927.47502     -494.80372     -599.01226     -233266.7       124.16344      0.17261905   
    184000   924.32723     -116.79054     -207.76111     -233238.75      124.12446      0.16994923   
    185000   928.19136     -256.29305      137.91143     -233273.06      124.12061      0.17384454   
    186000   928.06696     -175.61018     -271.65793     -233271.83      124.10531      0.17880486   
    187000   928.41994     -423.86075     -689.96771     -233274.99      124.11869      0.18223331   
    188000   926.83132     -655.08451     -429.75281     -233260.83      124.19693      0.17142274   
    189000   924.90721      16.096266      23.00389      -233243.82      124.11518      0.17329015   
    190000   925.05369     -23.351248      151.45918     -233245.1       124.10274      0.1706641    
    191000   926.54908      450.73266      451.58257     -233258.25      124.04757      0.17387372   
    192000   927.36685     -34.562139      16.607297     -233265.64      124.09848      0.1757849    
    193000   926.48743     -253.72625      23.166942     -233257.71      124.14058      0.17368406   
    194000   931.28803     -136.33108      8.5708453     -233300.17      124.06337      0.18550128   
    195000   928.00921     -211.76291     -34.501524     -233271.18      124.12419      0.17598915   
    196000   927.48254     -59.696343      157.81967     -233266.51      124.09139      0.17507003   
    197000   929.2893      -191.33852      66.84107      -233282.6       124.09825      0.17810458   
    198000   927.55705      91.330162      243.92238     -233267.15      124.07501      0.1767186    
    199000   928.48794     -240.05027     -352.22599     -233275.53      124.11961      0.17808999   
    200000   925.03491     -680.11743     -508.85087     -233244.88      124.19174      0.17196254   
    201000   929.98732     -26.556512      150.42731     -233288.81      124.07818      0.17134979   
    202000   932.10623     -530.15384     -319.90676     -233307.67      124.12266      0.17811916   
    203000   927.63569     -576.72236     -663.79015     -233267.85      124.1601       0.1695845    
    204000   928.90835      301.91188     -7.9303975     -233279.12      124.02645      0.16831524   
    205000   928.37513      471.13284      930.26625     -233274.28      124.02895      0.17162698   
    206000   929.47955     -278.29253      13.818266     -233284.13      124.13323      0.17390289   
    207000   925.07715     -25.2003       -159.94041     -233245.05      124.10415      0.17353817   
    208000   925.58214     -261.82795      105.70814     -233249.52      124.13162      0.17714169   
    209000   925.30956     -59.088628     -1.2385557     -233247.18      124.1185       0.17339227   
    210000   928.22157     -361.11481     -188.31677     -233273.05      124.14337      0.17310049   
    211000   926.65468     -266.27998     -213.40865     -233259.22      124.14901      0.17517215   
    212000   931.41656     -570.92259     -247.07389     -233301.53      124.15894      0.17279412   
    213000   928.32882     -122.86683     -23.872686     -233274.05      124.10552      0.17305672   
    214000   922.67252     -47.562144     -25.839113     -233223.89      124.14255      0.17631011   
    215000   928.02934     -284.22744     -526.54123     -233271.3       124.12858      0.17525969   
    216000   926.38555     -236.38594      254.77277     -233256.8       124.14968      0.17095588   
    217000   924.43319      563.21925      880.83396     -233239.35      124.05484      0.17787115   
    218000   923.53171      13.828629      39.608508     -233231.43      124.12009      0.17253151   
    219000   925.28376     -238.20244      117.69759     -233246.96      124.1581       0.1777982    
    220000   926.25609      149.39909      457.16537     -233255.64      124.0846       0.174574     
    221000   927.02145     -126.59924     -48.366288     -233262.36      124.13267      0.17132061   
    222000   924.14077     -270.96264     -104.91312     -233236.74      124.15623      0.16767332   
    223000   926.38532     -224.08919     -144.43454     -233256.76      124.13903      0.17027019   
    224000   928.92907     -182.88919     -80.754735     -233279.3       124.1071       0.17731676   
    225000   929.99222      42.819253      175.21814     -233288.75      124.04285      0.17727299   
    226000   926.77335     -311.98436     -359.45371     -233260.18      124.14292      0.18288982   
    227000   930.14186     -745.4606      -515.94429     -233289.99      124.15138      0.1753764    
    228000   927.13175     -1.4825671      42.362314     -233263.41      124.08141      0.17682073   
    229000   930.82409     -80.253778      151.44673     -233296.04      124.06904      0.17504085   
    230000   925.09873     -315.60469     -369.25132     -233245.43      124.13205      0.17482201   
    231000   926.47837     -498.75866     -433.41957     -233257.8       124.17287      0.17860061   
    232000   931.62633      121.35118      402.63817     -233303.55      124.02607      0.17698121   
    233000   928.57445     -234.47687      90.610201     -233276.63      124.10906      0.17473448   
    234000   929.42395     -416.52745     -175.63897     -233284.19      124.14569      0.17333392   
    235000   927.4795       196.74038      358.74599     -233266.86      124.07475      0.17552229   
    236000   928.35237     -224.03727     -75.75809      -233274.6       124.10416      0.17312967   
    237000   923.47967      73.581643      226.69        -233231.38      124.10622      0.17123308   
    238000   928.46985     -647.03595     -616.37799     -233275.49      124.17092      0.17432598   
    239000   932.83659      101.04649      226.20381     -233313.92      124.03764      0.18283147   
    240000   932.04187      137.30673      250.87027     -233306.76      124.02436      0.17525969   
    241000   927.73548     -312.28854     -350.69105     -233268.58      124.12037      0.17505544   
    242000   930.96084     -54.356413      230.20313     -233297.23      124.0751       0.17728758   
    243000   935.04489     -208.83637     -23.113964     -233333.54      124.06794      0.18151844   
    244000   931.40152      81.227964      210.32743     -233301.19      124.03977      0.17765231   
    245000   929.71698     -0.6374857      20.746146     -233286.32      124.08269      0.17482201   
    246000   928.30686     -26.613787      187.52381     -233273.84      124.09356      0.17921335   
    247000   928.73571     -10.324511     -175.40209     -233277.68      124.09479      0.17248775   
    248000   927.3152      -166.34387      119.1813      -233265.17      124.12486      0.17531804   
    249000   927.10471      54.900138      321.02198     -233263.41      124.0894       0.17600373   
    250000   928.0123      -463.40271     -290.78998     -233271.41      124.15109      0.18223331   
    251000   927.15556     -367.091       -229.14712     -233263.92      124.15352      0.17595997   
    252000   926.59754      42.615845      89.397204     -233258.9       124.10839      0.17715628   
    253000   923.38862     -100.80415     -262.3512      -233230.51      124.13887      0.16805264   
    254000   923.62021     -267.92853     -254.84447     -233232.65      124.15753      0.17794409   
    255000   933.03653      117.30283      297.30044     -233316.27      124.05446      0.18141632   
    256000   925.17395      175.1083       432.47135     -233246.64      124.11131      0.17444269   
    257000   925.6518      -625.20799     -601.70305     -233250.76      124.19826      0.17838177   
    258000   925.21135     -233.8542      -124.73353     -233246.9       124.15537      0.17324638   
    259000   926.38762     -11.589151      104.30883     -233257.36      124.11431      0.17229809   
    260000   923.77298     -159.59998      52.527894     -233234.19      124.13704      0.17610586   
    261000   925.48357      93.61423       103.09441     -233249.38      124.08129      0.17382995   
    262000   925.5304       74.95661       117.36362     -233249.74      124.0856       0.17569736   
    263000   924.12817     -75.795251      67.96822      -233237.22      124.11657      0.17512838   
    264000   924.47203     -397.55721     -202.44703     -233240.35      124.20446      0.17283789   
    265000   924.7875      -146.88543     -94.033701     -233242.96      124.15131      0.17590161   
    266000   926.81249     -298.8938      -64.40512      -233260.87      124.13649      0.17296919   
    267000   929.69774      366.99766      704.40691     -233286.49      124.03453      0.1795489    
    268000   930.36241     -57.803754     -179.75494     -233292.42      124.07951      0.18011788   
    269000   928.78186     -179.39615      302.62725     -233278.4       124.10647      0.1769958    
    270000   929.57879      311.30749      666.10182     -233285.29      124.01703      0.18108077   
    271000   931.53815     -144.03642      140.89928     -233302.53      124.07394      0.18188317   
    272000   929.78702     -151.39035     -300.34077     -233286.99      124.08221      0.17415091   
    273000   928.34484     -200.66343     -262.89431     -233274.07      124.11319      0.17015348   
    274000   927.61174     -248.40563      31.799707     -233267.61      124.11231      0.17773985   
    275000   928.97121      218.49753      426.28468     -233279.76      124.03314      0.17733135   
    276000   927.88268      243.05953      345.07969     -233269.89      124.03448      0.17572654   
    277000   931.13908      37.635208      247.88661     -233298.72      124.05711      0.17845472   
    278000   925.20047     -593.40819     -385.33598     -233245.89      124.20284      0.17388831   
    279000   927.24156     -130.68601     -165.58158     -233264.11      124.12032      0.17552229   
    280000   929.85568      331.93788      556.13064     -233287.34      124.01876      0.17979692   
    281000   924.78933      118.41401      291.22607     -233242.55      124.11959      0.17413632   
    282000   932.41263     -542.10152     -305.41947     -233310.14      124.11355      0.18415908   
    283000   926.23545     -88.599709      59.888261     -233255.36      124.11366      0.17197712   
    284000   925.83326     -165.08568     -246.46095     -233251.82      124.10987      0.1726774    
    285000   929.60043      82.855117      251.0349      -233285.16      124.07107      0.17631011   
    286000   926.64823     -178.75788      179.7009      -233258.99      124.09305      0.17569736   
    287000   927.80092      144.58469      403.79434     -233269.29      124.0745       0.17966562   
    288000   924.29904      9.5280618      237.65329     -233238.08      124.13002      0.17543476   
    289000   925.34585     -14.775841      75.500012     -233247.35      124.11551      0.17565359   
    290000   929.70949     -110.16268      402.04923     -233286.14      124.07965      0.17806081   
    291000   935.34863      49.112956      220.92864     -233335.96      124.00834      0.1806285    
    292000   931.51212     -159.34961     -95.781702     -233301.97      124.05595      0.17629552   
    293000   932.38738     -358.49016     -236.71402     -233309.66      124.06313      0.17523051   
    294000   924.92467     -607.78062     -664.56481     -233243.27      124.18351      0.17769608   
    295000   930.90654     -407.52703     -349.64039     -233296.36      124.12288      0.17785656   
    296000   926.1301       194.42169      285.41054     -233254         124.0856       0.17169993   
    297000   929.09451      64.551746      293.63834     -233280.29      124.07492      0.17184582   
    298000   925.07396     -326.19508      136.00872     -233244.48      124.15294      0.17906746   
    299000   927.12046     -171.16118      140.42034     -233262.53      124.11416      0.18162056   
    300000   926.96005     -136.72051     -24.049088     -233261.04      124.08963      0.17965103   
    301000   931.16263     -242.50913      56.625225     -233298.23      124.07653      0.17814834   
    302000   928.87485      36.910339      304.42546     -233277.94      124.07351      0.17397584   
    303000   928.16977     -31.227957     -86.354157     -233271.74      124.11549      0.17590161   
    304000   928.22419     -588.50426     -255.66667     -233272.12      124.16961      0.17959267   
    305000   926.76133     -415.34754     -420.20787     -233259.17      124.15431      0.17680614   
    306000   928.57737     -358.59078     -116.1293      -233275.22      124.11631      0.18248133   
    307000   927.30483      62.966037     -2.1473547     -233263.74      124.0878       0.1774043    
    308000   927.93115      42.847095      473.29177     -233269.24      124.10406      0.17817752   
    309000   925.03637     -346.67895     -452.54093     -233243.58      124.17784      0.17636846   
    310000   927.37241     -155.49547      457.4461      -233264.25      124.12527      0.17884862   
    311000   927.28917      98.501907      305.48691     -233263.54      124.07067      0.17708333   
    312000   919.60591     -68.755025     -97.265863     -233195.4       124.17201      0.17127684   
    313000   926.13504     -302.55851     -311.11471     -233253.29      124.15792      0.17651436   
    314000   924.7896       105.9576       241.40677     -233241.2       124.10024      0.17673319   
    315000   927.94656     -154.34956      34.090137     -233269.09      124.08365      0.17616422   
    316000   923.56533      296.03653      371.66126     -233230.24      124.07362      0.17862979   
    317000   923.95956     -370.3456      -597.61065     -233233.73      124.2152       0.16819853   
    318000   926.03235     -642.14831     -743.47244     -233252.11      124.21104      0.17448646   
    319000   923.76172     -307.44047     -316.01624     -233232.05      124.17164      0.17622257   
    320000   923.64698      22.064194      448.11763     -233231.06      124.14371      0.17825047   
    321000   926.99353     -322.62895      34.247078     -233260.64      124.14091      0.17839636   
    322000   926.91084     -120.30161      167.73382     -233259.91      124.14756      0.17543476   
    323000   927.97047     -315.74011     -71.441751     -233269.34      124.13379      0.17507003   
    324000   928.06635     -135.30361      155.78326     -233270.19      124.11457      0.17908205   
    325000   928.57637     -152.4373       102.76889     -233274.68      124.08688      0.17683532   
    326000   921.47873     -83.308876     -203.33954     -233211.68      124.15309      0.17520133   
    327000   929.01519     -218.42238      4.3960729     -233278.53      124.09719      0.176456     
    328000   926.38915      440.49271      832.65268     -233255.14      124.03721      0.17531804   
    329000   928.35138      149.23381      786.94449     -233272.51      124.08435      0.1790091    
    330000   923.68324      31.98393      -110.93087     -233231.13      124.11536      0.18042425   
    331000   928.00428     -348.87756      36.983289     -233269.45      124.14692      0.17854225   
    332000   923.10507     -252.44052     -41.299444     -233226.01      124.18796      0.17549311   
    333000   926.94735     -134.82245      199.13274     -233259.97      124.11603      0.17870273   
    334000   930.90041      336.28003      541.6351      -233295.07      124.0475       0.17752101   
    335000   926.28017     -315.6963       32.01758      -233254.06      124.16283      0.17765231   
    336000   928.37716     -71.142659      209.80783     -233272.68      124.07573      0.18065768   
    337000   927.70391     -194.93205     -66.733468     -233267.11      124.11491      0.17263364   
    338000   926.41608     -167.19563     -264.03116     -233255.49      124.14129      0.1701243    
    339000   923.53637     -256.94701     -77.055257     -233229.85      124.17372      0.17221055   
    340000   924.67171      168.79635      251.66499     -233239.97      124.11159      0.17145191   
    341000   930.2085       208.60454      701.62452     -233289.13      124.04407      0.17565359   
    342000   919.97022     -182.64924      382.61493     -233198.32      124.17702      0.17301296   
    343000   924.2144      -315.7593       26.700234     -233236.06      124.1689       0.17734594   
    344000   923.56869      15.45514       448.073       -233230.34      124.15017      0.17663107   
    345000   925.91861      17.117029      263.17182     -233251.1       124.11637      0.17670401   
    346000   926.34898     -81.688846      142.67374     -233254.87      124.11334      0.17384454   
    347000   925.34275     -737.4913      -395.4508      -233245.83      124.21582      0.17794409   
    348000   924.57018     -22.427264     -65.755798     -233239.07      124.11722      0.17628093   
    349000   933.52398      2.7627852      408.82903     -233318.53      124.05139      0.1787465    
    350000   927.66556     -33.570606      69.039599     -233266.72      124.0948       0.17825047   
    351000   927.90204      143.83092      427.53986     -233268.83      124.07799      0.17549311   
    352000   927.07588     -364.90732     -398.7569      -233261.51      124.14272      0.17852766   
    353000   926.37723     -328.04654     -48.839543     -233255.26      124.12786      0.17426762   
    354000   924.13795      117.2204       302.82771     -233235.37      124.08542      0.17873191   
    355000   928.02506     -408.97222     -67.723503     -233269.83      124.14518      0.17477824   
    356000   927.44892     -741.45779     -764.68376     -233264.67      124.18041      0.17425303   
    357000   931.21972     -201.65629     -105.91395     -233298.48      124.11497      0.1748366    
    358000   926.31752     -259.12881     -160.83968     -233254.97      124.15092      0.17819211   
    359000   922.82826     -3.9995335      438.99944     -233224.07      124.1284       0.17644141   
    360000   926.59166     -56.93083       26.235867     -233257.4       124.11468      0.1714665    
    361000   928.60785      277.9545       355.20194     -233275.16      124.05849      0.17737512   
    362000   931.80351     -342.8503      -247.0492      -233303.38      124.12905      0.1798261    
    363000   927.24735     -287.94751     -46.719064     -233263.14      124.15679      0.17346522   
    364000   926.8891      -309.24237     -388.92155     -233259.83      124.1193       0.16981793   
    365000   926.98938     -355.96394     -247.39277     -233260.61      124.12523      0.17260446   
    366000   928.48744      59.492148      157.45236     -233273.65      124.09224      0.1748366    
    367000   927.49119     -94.170188      48.823516     -233264.71      124.0947       0.17485119   
    368000   927.82768     -214.72454     -66.427357     -233267.71      124.12118      0.17368406   
    369000   926.18337     -410.10062     -498.84381     -233253.15      124.15476      0.17679155   
    370000   928.47304     -295.77992     -237.39938     -233273.54      124.12024      0.17149568   
    371000   927.14958      255.2437       428.32359     -233261.72      124.04378      0.17432598   
    372000   928.93357     -81.716773      31.6141       -233277.62      124.0965       0.17781279   
    373000   930.29195      18.011318     -10.233717     -233289.58      124.07446      0.17364029   
    374000   926.60439     -374.10279     -479.11543     -233256.78      124.12826      0.17022642   
    375000   927.53888     -583.49284     -432.12962     -233265.1       124.1795       0.1720063    
    376000   927.87914     -287.36771     -204.97422     -233268.14      124.13288      0.17851307   
    377000   933.22203     -504.54169     -369.52938     -233315.65      124.12882      0.17841095   
    378000   926.97851      148.71931      349.26651     -233260.23      124.08821      0.17682073   
    379000   931.80911     -95.598642      94.907651     -233303.16      124.06676      0.17495331   
    380000   923.14064     -642.39695     -483.42358     -233225.96      124.20296      0.17194795   
    381000   926.64214     -390.84306     -48.759457     -233256.98      124.15471      0.17334851   
    382000   930.52335      295.92436      514.88373     -233291.39      124.03855      0.17648518   
    383000   924.04822      38.449258      23.438308     -233234.03      124.12066      0.17687908   
    384000   926.68272     -436.54797     -385.3351      -233257.26      124.16264      0.1752451    
    385000   929.45383     -456.43459     -283.45065     -233281.89      124.11997      0.17638305   
    386000   931.63251     -437.20413     -649.07228     -233301.21      124.11526      0.17657271   
    387000   924.81434     -164.91115      75.609747     -233240.76      124.1169       0.17242939   
    388000   931.14396      148.56926      387.35758     -233296.74      124.03818      0.17978233   
    389000   926.51242      236.50059      575.2267      -233255.89      124.0697       0.17559524   
    390000   928.20249     -140.1834       208.56801     -233270.98      124.10583      0.18299195   
    391000   922.30278     -279.7911      -78.669202     -233218.7       124.19329      0.17368406   
    392000   926.21906     -119.79559     -235.64454     -233253.5       124.12593      0.17836718   
    393000   921.3198      -248.15488     -163.04033     -233209.98      124.18154      0.16964286   
    394000   925.80797      43.200824      448.50955     -233249.81      124.0824       0.17534722   
    395000   929.80506     -308.57979     -301.57428     -233285.3       124.11744      0.18567635   
    396000   928.48206     -93.400981     -217.84734     -233273.64      124.10738      0.17558065   
    397000   929.07302     -375.00908     -171.23963     -233278.83      124.13475      0.17595997   
    398000   928.02795      69.215177      531.06972     -233269.5       124.0774       0.18277311   
    399000   931.91031     -281.2086      -248.40954     -233303.94      124.11595      0.17382995   
    400000   929.56367     -203.27936     -174.10896     -233283.18      124.09984      0.17257528   
    401000   925.78646      179.49802      385.60172     -233249.5       124.08073      0.17566818   
    402000   923.15123      38.180817      207.18414     -233226.01      124.13258      0.17127684   
    403000   926.74355     -365.57323     -49.586709     -233257.82      124.16101      0.17972397   
    404000   925.36688      332.29028      514.97656     -233245.59      124.07774      0.17572654   
    405000   927.08514     -345.29756     -55.791607     -233260.84      124.15649      0.17644141   
    406000   924.61882     -493.71461     -474.60377     -233238.87      124.20535      0.17553688   
    407000   923.94565      407.57449      599.53525     -233232.81      124.07534      0.17768149   
    408000   926.33507      139.06296      163.28522     -233254.01      124.0881       0.17464694   
    409000   923.67085      86.510371      322.56179     -233230.35      124.11822      0.17899451   
    410000   928.12079     -579.65787     -603.40296     -233269.91      124.17032      0.17409255   
    411000   924.61417      257.57745      304.51543     -233238.74      124.08831      0.17190418   
    412000   927.02631      44.484054      29.847195     -233260.02      124.08391      0.17263364   
    413000   927.14948      26.405617      97.833893     -233261.17      124.08094      0.17530345   
    414000   924.95069     -520.1859      -702.33812     -233241.45      124.17213      0.17486578   
    415000   928.62673      275.42097      533.77081     -233274.29      124.04303      0.17054739   
    416000   928.82382      56.11214       443.59178     -233276.03      124.08022      0.18055556   
    417000   930.48799     -147.93923     -24.636661     -233290.83      124.09476      0.1786152    
    418000   927.3521      -509.28423     -461.46999     -233263.04      124.17814      0.17571195   
    419000   928.0236       132.51731      493.46627     -233268.89      124.06031      0.17903828   
    420000   931.40026      258.76424      775.79826     -233298.91      124.03038      0.17962185   
    421000   928.17253     -510.73441     -454.91526     -233270.01      124.15235      0.17575572   
    422000   925.41289      260.78501      265.35461     -233245.62      124.07719      0.17822129   
    423000   925.99659     -289.82115     -362.37791     -233250.97      124.16936      0.17460317   
    424000   927.59435     -264.2846      -135.06494     -233265.05      124.11244      0.17848389   
    425000   928.84125     -326.67338     -268.31215     -233276.11      124.10414      0.17703957   
    426000   928.54543     -394.54106     -154.47        -233273.54      124.12671      0.17337768   
    427000   925.98287     -215.16714     -358.22869     -233250.77      124.14589      0.17384454   
    428000   928.98503     -451.80537     -429.16197     -233277.44      124.1647       0.17314426   
    429000   927.41718     -129.31424      83.485007     -233263.39      124.1073       0.17803163   
    430000   930.36457      290.35557      477.62402     -233289.53      124.01264      0.17738971   
    431000   931.98553      61.178824      125.66485     -233303.92      124.03634      0.17585784   
    432000   927.14565     -82.72284       199.38719     -233261.01      124.07999      0.17384454   
    433000   935.90245      3.1759128      109.51564     -233338.66      124.01326      0.17976774   
    434000   933.36603     -223.31308     -108.74964     -233316.13      124.03164      0.17897993   
    435000   930.76856      30.402856      88.594691     -233293.11      124.04336      0.17755019   
    436000   930.40362     -315.67113     -460.53968     -233289.74      124.11083      0.17855684   
    437000   927.95989     -326.70229     -182.0591      -233268         124.15304      0.17693744   
    438000   929.03512      54.014944      171.05823     -233277.55      124.03901      0.17772526   
    439000   930.58747      166.39302      271.62851     -233291.21      124.01053      0.17086835   
    440000   928.22014     -577.98244     -336.19992     -233270.19      124.14361      0.1701243    
    441000   933.62385     -60.993985     -16.857779     -233317.96      124.00913      0.18073063   
    442000   931.19868     -147.74037     -61.907171     -233296.63      124.08279      0.17531804   
    443000   926.59412      159.29337      8.1731862     -233255.85      124.06525      0.17340686   
    444000   931.64013     -415.49807     -678.73382     -233300.48      124.09936      0.1752451    
    445000   931.36663     -586.81141     -249.37303     -233298.13      124.12853      0.17684991   
    446000   931.10374     -370.18734     -423.01426     -233295.73      124.12515      0.17794409   
    447000   930.71744     -47.675326      213.24036     -233292.4       124.08065      0.17724381   
    448000   929.79372      317.2349       357.83126     -233284.04      124.02182      0.17423845   
    449000   930.80016     -79.453745      56.591466     -233292.94      124.07916      0.17547852   
    450000   931.15112     -198.51862     -215.24861     -233296.04      124.06287      0.17097047   
    451000   930.31491     -714.25126     -938.77253     -233288.53      124.15834      0.17250233   
    452000   925.43142     -252.52265     -408.9462      -233245.3       124.12329      0.17552229   
    453000   930.04438      258.17895      641.07161     -233286.46      124.03419      0.17439893   
    454000   925.93075     -132.76359      35.920288     -233249.93      124.11648      0.17486578   
    455000   926.51377     -374.6555      -255.90568     -233255.11      124.15836      0.17413632   
    456000   930.15748     -97.965146     -38.01448      -233287.6       124.07209      0.17539099   
    457000   931.43868      47.376861      332.31008     -233298.87      124.03966      0.18125584   
    458000   932.15087     -120.98973      159.30033     -233305.38      124.0932       0.17893616   
    459000   925.54536     -10.599018      87.673541     -233246.68      124.10333      0.17508462   
    460000   928.46174     -75.007102      73.337689     -233272.62      124.11681      0.17749183   
    461000   929.66846      106.2343       323.84102     -233283.09      124.06228      0.17629552   
    462000   926.08212     -670.83877     -702.42452     -233250.93      124.17442      0.1749679    
    463000   926.66473     -400.34216     -613.65184     -233256.26      124.17343      0.171875     
    464000   926.61398      176.16433      133.56597     -233255.78      124.05784      0.17327556   
    465000   927.7175      -82.271208     -69.031386     -233265.64      124.09299      0.17280871   
    466000   929.89617     -94.898979     -55.294893     -233285.11      124.07612      0.18302113   
    467000   930.59609      279.87678      254.62103     -233291.13      124.02031      0.17652894   
    468000   926.24087     -298.36646     -195.57741     -233252.57      124.14888      0.17206466   
    469000   927.27181     -106.91231      213.78939     -233261.69      124.09161      0.18286064   
    470000   927.65167     -498.21978     -442.17918     -233264.99      124.16484      0.17013889   
    471000   929.1932      -247.21706     -493.63505     -233278.72      124.10196      0.17318803   
    472000   932.3364      -167.0817      -50.913398     -233306.44      124.06886      0.17757937   
    473000   929.12499     -11.685741      240.27493     -233277.96      124.0615       0.17439893   
    474000   932.29702      128.78292      200.05876     -233306.12      124.0312       0.17781279   
    475000   930.4126      -383.69705     -380.934       -233289.33      124.11594      0.17412173   
    476000   932.49529     -435.20302     -222.54972     -233307.78      124.09646      0.17854225   
    477000   929.58823      251.2103       628.11739     -233281.75      124.03778      0.17860061   
    478000   931.5672       460.52747      986.07423     -233299.17      123.98787      0.17957808   
    479000   933.0253       358.1119       779.17523     -233312.08      123.98466      0.17914041   
    480000   929.55294      24.275114      295.07795     -233281.31      124.05628      0.18192694   
    481000   929.33061      470.89758      793.07711     -233279.26      124.01672      0.17431139   
    482000   928.94811      356.06146      580.73344     -233275.9       124.01867      0.17714169   
    483000   928.38043     -403.76723     -165.2349      -233270.99      124.14062      0.17614963   
    484000   926.24872     -480.1285      -514.81337     -233251.71      124.17234      0.17647059   
    485000   928.97024     -588.93991     -537.17408     -233275.92      124.17435      0.17930089   
    486000   932.94998      202.32762      337.57083     -233311.13      124.01048      0.17763772   
    487000   931.67787      92.027863      354.33558     -233299.77      124.04926      0.17396125   
    488000   928.68382      313.83198      672.48343     -233273.33      124.0426       0.17925712   
    489000   930.58092     -552.0965      -291.65268     -233290.34      124.17069      0.17582866   
    490000   925.95749     -218.60439     -19.935287     -233249.32      124.15823      0.17790033   
    491000   927.69168      139.14592      703.81531     -233264.58      124.06551      0.18360469   
    492000   927.9351       43.296566      187.73893     -233266.89      124.11498      0.17975315   
    493000   924.92193      324.80643      764.68585     -233240.13      124.08619      0.17638305   
    494000   924.34562     -155.50107     -223.64646     -233235.09      124.15084      0.18134337   
    495000   927.75932     -158.23805     -8.6951599     -233265.4       124.13575      0.17673319   
    496000   930.28424      439.34635      714.66678     -233287.61      124.02727      0.17512838   
    497000   927.36074     -0.32727387     333.97163     -233261.69      124.10334      0.17307131   
    498000   924.62662     -233.50011     -300.83599     -233237.24      124.14424      0.17242939   
    499000   927.86624     -849.18202     -627.53548     -233266.2       124.22032      0.17903828   
    500000   925.39726      87.716334      66.284882     -233244.1       124.13346      0.17507003   
    501000   925.85425     -262.72795     -74.545341     -233248.15      124.16253      0.17438434   
    502000   928.50767     -234.26506     -102.53598     -233271.7       124.11885      0.17657271   
    503000   926.90239     -111.46796     -0.94003974    -233257.52      124.12215      0.17022642   
    504000   927.70978      336.71098      521.91538     -233264.57      124.03069      0.17781279   
    505000   923.90644      199.59004      663.61719     -233230.82      124.11525      0.17323179   
    506000   924.95603     -480.57163     -459.28626     -233240.28      124.18669      0.17350899   
    507000   925.71293     -433.98519     -330.30994     -233246.64      124.16726      0.17905287   
    508000   925.95266     -129.87064     -127.56227     -233248.76      124.13343      0.16970121   
    509000   923.25552     -654.09079     -477.43836     -233224.86      124.23162      0.17329015   
    510000   926.91364      83.542266      285.02284     -233257.17      124.07236      0.18080357   
    511000   924.98526     -111.46718      104.49143     -233240.17      124.14157      0.17340686   
    512000   927.84839     -174.57851     -19.294403     -233265.53      124.10469      0.17575572   
    513000   924.45203     -572.11965     -124.3149      -233235.42      124.20002      0.1790091    
    514000   925.2635      -405.0494      -498.49921     -233242.73      124.17116      0.17791492   
    515000   928.14427     -738.38469     -612.64867     -233268.36      124.22041      0.17899451   
    516000   926.97581      21.292286      325.76885     -233257.97      124.11112      0.17644141   
    517000   927.85747     -248.94627     -187.30311     -233265.79      124.11404      0.17212302   
    518000   930.02817     -161.31703     -246.46549     -233285.08      124.09041      0.17584325   
    519000   927.92677     -451.76197     -387.46419     -233266.51      124.16842      0.1722835    
    520000   927.67701     -393.05381     -404.35023     -233264.31      124.15615      0.17571195   
    521000   927.44896     -282.15766     -277.19721     -233262.39      124.16643      0.17652894   
    522000   925.51368      38.209747      476.53795     -233245.03      124.1058       0.18109535   
    523000   924.50924     -334.78938     -324.99699     -233236.14      124.16426      0.17593079   
    524000   926.10865     -664.11678     -629.057       -233250.38      124.22277      0.17905287   
    525000   923.69091     -217.18957     -57.080027     -233228.91      124.15795      0.17276494   
    526000   933.24834     -413.20431     -118.46408     -233313.75      124.10637      0.17396125   
    527000   929.76886     -53.755069      32.241128     -233282.85      124.10669      0.18464052   
    528000   926.06451     -589.65671     -511.12079     -233249.85      124.19123      0.17593079   
    529000   926.60568     -128.86206      117.6608      -233254.61      124.13337      0.17603291   
    530000   930.91765     -425.14178     -543.69569     -233292.92      124.12706      0.17778361   
    531000   926.54885     -301.15366     -127.59247     -233254.1       124.14654      0.17819211   
    532000   928.4716      -188.70995     -134.41895     -233271.06      124.10591      0.17654353   
    533000   928.69807     -150.3737      -28.716573     -233273.06      124.1105       0.181037     
    534000   930.96887     -62.428614      57.888746     -233293.23      124.08587      0.17527428   
    535000   924.97416      23.127781      229.33089     -233239.96      124.11886      0.17663107   
    536000   928.68259     -609.25561     -307.67541     -233272.84      124.15293      0.17540558   
    537000   928.5062      -295.24544     -550.8797      -233271.32      124.12279      0.17718546   
    538000   927.33937      64.546637     -37.644757     -233260.83      124.08354      0.17209384   
    539000   923.22788      23.320626      352.0814      -233224.38      124.13715      0.17390289   
    540000   933.3672       159.32252      393.26934     -233314.22      124.01149      0.17647059   
    541000   933.88716     -151.20063     -287.16946     -233319.3       124.07176      0.1776669    
    542000   928.40367      70.058707      256.05632     -233270.68      124.08475      0.17372782   
    543000   927.79863      97.90662       130.59344     -233265.25      124.0595       0.17247316   
    544000   928.08537      145.54222      596.5668      -233267.86      124.06899      0.1818394    
    545000   929.97659      152.72912      343.27921     -233284.64      124.04305      0.18003035   
    546000   925.90273     -141.54242     -18.479802     -233248.41      124.10374      0.17235644   
    547000   927.92207     -196.49566      11.480963     -233266.42      124.10613      0.17382995   
    548000   925.98935     -58.170021     -252.00061     -233249.28      124.1023       0.17563901   
    549000   929.14685     -204.61492     -114.33919     -233277.33      124.08873      0.17393207   
    550000   930.00772     -233.59383     -120.31412     -233284.93      124.11045      0.17127684   
    551000   929.06751     -388.3518      -364.51465     -233276.53      124.11108      0.17571195   
    552000   930.62871     -103.17795      411.55687     -233290.37      124.06971      0.17890698   
    553000   928.22811      123.58462      460.92245     -233269.03      124.03955      0.17639764   
    554000   926.76057     -48.427909      41.310141     -233256         124.07185      0.18128501   
    555000   926.92909     -259.9537      -333.20068     -233257.5       124.11214      0.17679155   
Loop time of 3357.18 on 1 procs for 500000 steps with 68544 atoms

Performance: 25.736 ns/day, 0.933 hours/ns, 148.935 timesteps/s, 10.209 Matom-step/s
98.2% CPU use with 1 MPI tasks x 1 OpenMP threads

MPI task timing breakdown:
Section |  min time  |  avg time  |  max time  |%varavg| %total
---------------------------------------------------------------
Pair    | 2271.7     | 2271.7     | 2271.7     |   0.0 | 67.67
Neigh   | 16.88      | 16.88      | 16.88      |   0.0 |  0.50
Comm    | 144.24     | 144.24     | 144.24     |   0.0 |  4.30
Output  | 149.97     | 149.97     | 149.97     |   0.0 |  4.47
Modify  | 643.72     | 643.72     | 643.72     |   0.0 | 19.17
Other   |            | 130.7      |            |       |  3.89

Nlocal:          68544 ave       68544 max       68544 min
Histogram: 1 0 0 0 0 0 0 0 0 0
Nghost:          52972 ave       52972 max       52972 min
Histogram: 1 0 0 0 0 0 0 0 0 0
Neighs:              0 ave           0 max           0 min
Histogram: 1 0 0 0 0 0 0 0 0 0
FullNghs:  1.12239e+07 ave 1.12239e+07 max 1.12239e+07 min
Histogram: 1 0 0 0 0 0 0 0 0 0

Total # of neighbors = 11223939
Ave neighs/atom = 163.74794
Neighbor list builds = 24457
Dangerous builds = 0
Total wall time: 1:01:52
