2048
Time=140000.00000013 pbc="T T T" Lattice="33.21232 0 0 0 33.21232 0 0 0 33.21232" energy=-7784.42489 virial="-175.116043 26.075449 3.71464533 26.075449 -158.935507 3.59797074 3.71464533 3.59797074 -135.356459" stress="-0.000699658011 0.000734704939 0.000189377836 0.000734704939 -0.000283939049 6.84453813e-05 0.000189377836 6.84453813e-05 3.88481555e-05" Properties=species:S:1:pos:R:3
Al 8.36339849 0.00757983837 5.12370608
Al 1.45015712 2.49540468 20.5679189
Al 20.818897 26.9753876 9.44200898
Al 5.03118785 29.4768888 23.5106745
Al 13.7846398 27.6666928 19.7179473
Al 23.4324417 4.0187899 4.94735285
Al 16.3839425 4.90121312 29.2010986
Al 0.90726202 24.9750295 18.6552663
Al 15.4960343 9.12279953 13.7236792
Al 5.42940435 24.1721897 19.8664513
Al 17.9805448 31.9291717 12.4170302
Al 19.0008687 25.8918125 28.4830342
Al 25.648808 27.153165 17.7727846
Al 22.2398398 23.3101899 1.73087495
Al 4.61990775 22.5537355 9.86744689
Al 12.090574 27.0534258 21.8104211
Al 5.80302488 19.4625082 14.5458796
Al 0.0290661841 7.69744298 20.7002242
Al 13.0561724 27.0086128 17.1963891
Al 13.0501276 24.3274683 16.5936511
Al 5.69792698 2.82361951 22.617108
Al 28.1350723 3.34269925 11.2537787
Al 9.22664333 15.204032 28.6005992
Al 13.7952414 9.22457321 15.5886122
Al 29.7186899 15.1910804 11.4779499
Al 6.34297687 9.95999999 4.59571235
Al 2.80951931 9.67663619 25.0968808
Al 26.5316821 7.32532471 5.0489778
Al 21.4321346 29.0449197 24.5596837
Al 23.649687 25.7590571 29.2764871
Al 8.11555905 5.02259577 31.7025029
Al 0.0638049504 31.9782594 0.167832815
Al 30.1131051 12.6377235 13.188476
Al 8.56659961 21.3032487 4.99295862
Al 7.44045506 27.1466874 6.06781471
Al 23.6928831 0.786255759 28.6608582
Al 4.35864291 31.5220954 30.6702893
Al 32.780214 29.6552422 6.15659959
Al 30.6191267 8.05451453 19.7238233
Al 19.6611652 9.23220208 12.2826301
Al 10.3392548 22.777919 23.6001851
Al 3.533876 5.71356177 0.737421729
Al 5.38168511 23.6706748 2.88635233
Al 11.8639841 2.6885726 2.11021019
Al 23.6794866 30.0069691 11.4469424
Al 8.90113842 11.9511507 19.2175872
Al 27.1584644 10.6656444 11.0100715
Al 32.3289489 15.5984927 22.2227386
Al 7.77695179 2.57877692 16.3531106
Al 30.1711022 7.53461493 7.53109813
Al 6.55664948 24.4320414 15.5041094
Al 28.2900715 16.1565579 26.1218205
Al 32.649198 19.0021547 15.7645983
Al 25.8896611 14.3534396 6.82291903
Al 23.9930991 8.28147483 20.9769041
Al 28.2962522 14.4184165 28.9161066
Al 13.990754 17.8822951 27.0223767
Al 31.7011708 19.6215588 3.74343589
Al 8.49921431 11.4184267 24.2020715
Al 7.3377998 3.24334134 2.90570038
Al 10.9005789 13.5052855 27.0467602
Al 10.5203779 5.56461662 17.1023762
Al 21.166039 28.0012597 11.7081203
Al 6.15526655 9.5977259 10.0779611
Al 21.7290316 31.4141528 18.9430128
Al 12.6739115 19.9523295 20.4063236
Al 27.6353578 9.26593101 6.94381014
Al 1.08886535 23.8070585 7.97419144
Al 20.4810578 21.7288113 24.115653
Al 23.8500477 18.3042345 24.1289672
Al 15.013405 9.29278543 8.45369647
Al 24.1755068 8.50313259 15.2245145
Al 15.7994867 13.8118747 25.3764513
Al 5.14280343 17.1615684 9.95728974
Al 29.6686478 27.209216 22.1903335
Al 8.52692871 6.6646126 14.6249649
Al 7.80797128 1.25609306 18.7551659
Al 10.5591544 13.0242125 16.6569963
Al 18.7502226 10.6424901 29.3302749
Al 7.27377733 17.6998101 31.3768815
Al 14.2076723 11.7599582 9.85056475
Al 18.7220995 19.9457678 24.8413325
Al 12.9733301 12.6005021 12.2855135
Al 23.8274698 4.61444763 10.5059385
Al 21.3175201 5.9523506 28.1498597
Al 13.3282507 30.3005872 17.6430525
Al 10.6975011 0.958906764 6.85788672
Al 24.3902247 16.5675536 6.37655992
Al 20.0683823 14.6320321 31.0133987
Al 2.71398533 29.2598329 6.97249336
Al 1.27564604 13.4704337 27.7988627
Al 16.0533567 30.7330547 17.6037516
Al 9.7236139 31.3586504 14.7249504
Al 17.5578696 7.30855408 6.01873836
Al 8.75692105 26.3289876 12.7771603
Al 18.8799462 6.25733183 29.8482893
Al 10.937059 16.8550043 13.0629934
Al 3.35330514 7.16570172 3.52316343
Al 5.59394725 29.6071521 18.6020739
Al 14.8740296 29.7822555 19.8751503
Al 18.0981924 8.4365605 14.2182477
Al 17.5244615 8.02529303 8.99041163
Al 30.7839929 3.34790985 4.01119629
Al 26.1396223 19.1612338 14.3739594
Al 18.9911731 3.40280803 7.51497565
Al 26.2505278 26.4078242 8.39792834
Al 21.274669 16.5783924 22.2907795
Al 8.51110067 22.2726386 16.9912091
Al 29.026555 19.1587497 2.95599578
Al 14.9205821 22.5863644 11.8485319
Al 9.8717036 8.08465783 16.6432802
Al 24.9197063 2.97964219 6.87478815
Al 10.3795827 24.3875565 28.4043547
Al 30.7638915 24.4361176 8.7985248
Al 5.34279979 14.0694128 22.8431374
Al 26.4142152 17.5113316 4.44765724
Al 28.004375 13.0121094 21.0137943
Al 29.6171912 12.15782 9.67963083
Al 30.4694845 12.7156619 5.57667443
Al 8.12540953 18.7817552 10.9444202
Al 21.564624 16.5433583 32.1705886
Al 25.4504784 5.01205469 27.046733
Al 11.1042915 15.6632279 4.44333812
Al 20.5131557 24.7457464 12.1811299
Al 2.11268243 5.21640529 26.2579154
Al 25.6020746 18.3789296 31.1068508
Al 8.86432488 15.4903407 16.8066474
Al 4.59024642 6.58831021 31.364475
Al 12.6867612 4.09786671 15.3414183
Al 32.6995316 6.63349791 30.6109104
Al 20.2865585 17.1669457 19.0083029
Al 32.3951051 20.2878562 25.3790511
Al 15.0718515 21.1068293 21.1653924
Al 17.9236528 28.4749487 32.1833379
Al 14.7125182 22.6032422 25.7044555
Al 16.9349552 10.1443776 23.4102681
Al 24.0798427 8.094233 25.5911763
Al 5.44081692 6.35514376 17.8133021
Al 25.1654864 12.5457978 13.7742097
Al 5.29660734 30.9592552 25.8897869
Al 26.6315875 29.6687205 15.9633677
Al 27.4022515 26.2693265 15.8975816
Al 2.14225056 11.6503395 4.01129669
Al 31.0932265 31.1012072 22.0600277
Al 18.8066449 14.9309428 12.4312572
Al 32.3452147 25.7151967 24.0718911
Al 0.298759596 18.0974708 18.3562212
Al 32.5621621 18.0589412 29.8367546
Al 4.45105346 3.39143946 7.24693524
Al 28.5194248 26.4520823 12.7105885
Al 3.74668272 28.1469794 25.908926
Al 21.1138326 18.7885978 24.2032157
Al 24.5644938 20.6714041 26.0141985
Al 28.8439433 3.48666719 8.6418932
Al 19.3016916 19.1353232 17.5329217
Al 5.20076847 22.3687124 30.3230896
Al 32.1425501 26.5886188 21.4799704
Al 26.2355343 14.2148254 22.8666644
Al 25.6107292 32.4818171 3.32765095
Al 19.325885 28.3882065 1.7406229
Al 32.1173659 31.2358926 29.6229627
Al 12.3202224 33.0282774 15.8687665
Al 0.585880796 11.4188298 1.65713702
Al 25.0027311 23.7149472 30.5116696
Al 0.0381981921 20.6981675 9.00992455
Al 21.0186918 25.9585482 30.6820497
Al 26.8654413 0.573264375 32.9598973
Al 21.4822242 19.4010241 21.8544373
Al 6.50912652 3.1315634 29.8816395
Al 2.87115798 23.1150243 18.1728997
Al 23.7059556 7.59163823 9.91313516
Al 4.54283101 10.2783456 14.0109678
Al 12.6602266 26.7718119 4.2132962
Al 31.5567552 21.5625066 11.1468592
Al 8.46148673 16.5826872 12.2989432
Al 22.0445943 10.3767458 14.0694707
Al 1.50179872 6.52540588 16.1941489
Al 5.42148221 24.9335 10.4170096
Al 5.06853598 12.5500257 19.8628819
Al 17.462966 16.1611174 14.9269749
Al 13.7926637 13.7264993 7.70217967
Al 25.4758303 17.5948577 21.2647916
Al 10.4776986 8.46344788 24.2945218
Al 25.6310463 29.6513367 22.9419467
Al 7.42130612 30.6558271 23.6688502
Al 17.0818059 5.72598678 16.8008057
Al 12.6493771 3.85877468 32.1706214
Al 30.8969325 12.5950201 20.1327389
Al 12.9501032 1.85883682 28.1590324
Al 29.8687014 21.02747 25.9467737
Al 22.7790401 22.3013552 21.2681837
Al 18.8616889 28.3823842 29.0798751
Al 8.54252702 9.40211829 20.5010233
Al 4.29161501 12.3240486 31.1510162
Al 25.8928651 21.5061042 13.0397702
Al 21.112629 25.5120785 21.1992409
Al 19.5561679 1.78361878 4.23916393
Al 30.8546524 17.2426275 2.73759655
Al 27.6498579 8.31627348 18.6496405
Al 8.55316286 1.77908826 13.8803126
Al 9.96801344 25.6611188 23.3111626
Al 12.7974112 20.104424 2.52212588
Al 27.7465383 32.5167069 30.1100819
Al 15.4696783 21.2989075 31.5622808
Al 8.34427808 28.838005 18.8097425
Al 9.45863693 3.92976047 23.059022
Al 30.701995 2.60479362 10.2896094
Al 4.27241424 25.6813366 13.9628549
Al 2.88891497 8.87712316 10.3254425
Al 1.23192409 32.9842096 21.9198257
Al 2.96137622 20.8299583 28.6663695
Al 29.9264193 15.0225845 20.9691819
Al 32.621186 9.31877963 3.07267403
Al 29.9770826 7.22396599 16.7202942
Al 20.3386444 0.271472074 12.3324033
Al 28.8253379 32.2171241 23.7051271
Al 29.6473922 9.4768733 25.0233199
Al 27.0291077 21.7542414 21.1628022
Al 24.2849808 31.8643514 17.6037499
Al 31.3027983 20.0061792 13.4016792
Al 14.5486348 5.53379952 21.1389195
Al 19.1290102 4.14052168 5.03682999
Al 21.8677997 16.2268155 7.70431205
Al 2.08080781 8.92236801 7.91758528
Al 32.0983403 31.3551223 16.9686309
Al 24.9336615 18.6597597 0.413295011
Al 6.88265224 6.19890873 12.0172595
Al 15.3922346 22.8241972 17.1816598
Al 9.08019135 6.56600753 29.803146
Al 11.7229596 23.2411756 11.5978623
Al 24.9411724 27.7342084 6.4497387
Al 19.9908912 12.6398224 27.5041335
Al 12.9418223 31.430732 4.01161579
Al 29.3016459 0.132777278 32.4265671
Al 32.4852204 24.8660656 16.66448
Al 7.95162494 26.3768257 10.1606961
Al 20.6169377 24.998604 4.01405267
Al 1.68899561 10.2406034 20.1459589
Al 22.0594934 3.95888604 16.23853
Al 28.9278422 24.2344325 0.181488405
Al 23.3649226 31.5427273 3.18698341
Al 30.6427872 15.4716244 5.30072758
Al 19.1489344 4.24128152 22.731058
Al 11.8348245 29.4319033 10.5822931
Al 20.6508571 31.7342272 7.173132
Al 21.2207495 19.7321444 19.263235
Al 32.2263006 21.7409168 15.5408751
Al 27.6119508 27.8135213 29.362336
Al 21.6467244 31.2772877 26.0582724
Al 13.126168 6.8976645 31.5301002
Al 26.6763408 7.84477626 30.3812677
Al 9.87747152 3.88558308 7.34905779
Al 14.2663811 2.11811169 16.751396
Al 4.89324601 1.2360234 30.5181951
Al 25.6278263 22.3045479 5.42908432
Al 31.2876908 23.9953227 3.64065149
Al 28.8510566 28.5476105 10.9739357
Al 0.768499989 27.0706501 3.7596002
Al 0.92849425 31.1195534 19.0469334
Al 12.2089308 25.0684785 6.39055163
Al 16.8753807 10.6864793 20.878573
Al 9.76859065 5.79944372 12.1671313
Al 7.77636743 2.46003057 21.0144673
Al 24.9035201 8.29679713 2.83429991
Al 6.01782301 8.61758963 2.43536878
Al 21.7566028 0.89051886 9.90953319
Al 16.4842447 21.0196562 5.86764607
Al 18.2497086 23.2092049 5.46312336
Al 5.38026961 22.9476482 22.1842662
Al 9.57122906 17.2754904 23.2876055
Al 22.4333568 23.5247837 29.8187368
Al 14.4223802 8.94709456 20.4016451
Al 12.9374304 15.2683464 11.8083366
Al 0.573433405 18.0969134 8.9280288
Al 17.4641001 21.464238 16.5821498
Al 0.420208817 5.44216566 1.16660248
Al 7.55269407 15.368306 10.1096891
Al 18.6593121 26.6719743 11.4586066
Al 5.47350667 9.83363275 25.1168723
Al 31.7629382 31.093501 11.5095451
Al 1.90301163 12.5623013 13.84706
Al 9.43145782 15.0125977 22.0010065
Al 22.012167 16.1847324 1.47273624
Al 2.32251332 30.2444987 21.7307119
Al 30.9926384 28.4245072 12.9896432
Al 10.9066992 5.73156706 31.4839349
Al 8.47188493 22.6372429 14.261675
Al 4.21195099 29.371725 9.32036854
Al 7.61562525 30.537803 4.27810767
Al 31.0501205 17.2811721 14.6443545
Al 17.2642024 13.2442017 5.89284832
Al 4.84656859 17.351769 28.6571401
Al 23.0764579 32.6708228 12.1746117
Al 22.1328398 22.1456505 18.767418
Al 14.470565 30.8488687 23.4901181
Al 15.0251828 10.7262952 18.0753162
Al 8.58520544 6.26217051 7.69816233
Al 21.4992142 30.6082737 16.3203482
Al 14.2044469 4.24823709 27.5129137
Al 13.6619968 29.9752177 29.1259234
Al 15.5896255 4.38462974 18.6767699
Al 3.72972917 8.24210118 16.3462278
Al 24.0239028 25.6480788 15.7304086
Al 15.040887 23.3245753 19.8090559
Al 12.5709342 26.1422773 24.2713045
Al 13.7416687 21.4644135 4.80042604
Al 23.2225469 2.56727152 30.6947597
Al 23.4294553 1.30003267 13.8529587
Al 15.5896782 7.55396156 22.6387056
Al 12.6895453 6.96014701 23.9047688
Al 30.4550572 5.13703701 18.4925378
Al 32.0223379 21.5896071 29.9635634
Al 25.865533 24.1330534 17.0562244
Al 32.2304734 21.4138525 2.03411679
Al 9.52531395 4.8874156 20.5370981
Al 10.843428 9.88885004 32.3521012
Al 29.3202262 3.91492398 32.8176017
Al 6.7868268 14.4741568 19.2092564
Al 4.42723573 9.09627851 30.9910205
Al 20.3667119 31.0223223 30.4374998
Al 19.5027261 27.3967843 26.1022093
Al 5.25232782 26.6661565 2.14884334
Al 0.728725681 19.0165796 6.54740679
Al 6.74134775 12.691228 4.08067123
Al 9.87481846 9.31009734 13.2096581
Al 21.5140716 0.135283949 5.26051876
Al 4.2002798 0.0038683369 16.3323516
Al 11.0873789 19.7066079 30.5334878
Al 31.4665317 5.17854951 6.1722807
Al 7.89725814 23.9368175 22.3957311
Al 20.3047501 18.104062 9.23015199
Al 31.8274793 7.7961039 5.17507161
Al 4.42644623 19.8926862 10.3093964
Al 27.6799184 6.09968848 7.16058973
Al 14.7885422 18.8562138 0.853337978
Al 30.181137 2.70926229 13.1021495
Al 10.8370857 2.09289485 16.2930686
Al 32.6650055 11.0589179 5.3789095
Al 29.2025558 32.7154482 20.9513268
Al 29.0777069 11.2581051 22.8284487
Al 10.5805102 7.42680699 19.3578889
Al 12.9134495 19.4987769 24.8006795
Al 24.1272461 8.15914746 31.0511895
Al 12.8319822 4.56342092 18.2607722
Al 27.8240686 29.2442313 13.441512
Al 15.8299587 31.7463678 29.1753031
Al 6.95694615 8.05121953 16.3408399
Al 23.4248606 2.91808778 25.360622
Al 8.17154493 17.3968284 8.62862498
Al 13.2271219 18.5301391 29.7649339
Al 4.05612695 21.3660526 2.56689098
Al 7.74508675 1.03069202 28.157368
Al 30.6392326 5.07981067 11.5729207
Al 2.59375192 14.5866008 5.05592142
Al 18.6702436 19.9975455 7.65700028
Al 16.1160563 14.2987931 16.5943258
Al 11.204893 25.0715132 13.2762099
Al 17.0758461 19.2929667 15.242214
Al 6.75837345 15.0938432 14.4927088
Al 6.81956064 18.337659 21.9682214
Al 26.1694723 28.140675 33.0759064
Al 11.1269709 10.3585121 20.4870993
Al 4.95178197 8.06688252 12.1101641
Al 16.7095071 17.9793371 24.2805356
Al 32.0220632 14.7770989 12.8685099
Al 15.2493105 23.0908683 29.0334156
Al 20.7875551 6.37921313 4.92032685
Al 14.7682073 30.2066653 7.11016171
Al 21.5749333 26.0379109 25.4232917
Al 7.57181179 2.1861893 10.0540615
Al 10.2150615 12.9706393 23.4161095
Al 29.7354393 29.1816185 7.63312713
Al 1.82598336 7.41786701 24.704137
Al 30.1614397 9.80314974 17.8639251
Al 8.33227535 8.27713409 5.50037965
Al 0.79234259 7.24937623 3.54007035
Al 32.2603205 7.88864424 23.4169059
Al 8.12398646 23.6522587 31.7279296
Al 18.9067607 30.9466427 2.60517359
Al 31.8390468 27.6612745 15.6043218
Al 6.65354837 18.4270518 26.9361718
Al 32.406402 10.5531136 19.0689379
Al 17.9023303 2.76595217 0.276890385
Al 27.6833823 11.2685909 5.07495959
Al 17.4065423 13.5015283 21.1083022
Al 29.8765422 25.831005 24.6694388
Al 1.77990273 17.2670497 3.72390642
Al 12.5390942 9.9268812 4.75444611
Al 7.55778767 28.9584172 13.4130956
Al 13.1608631 15.4272515 1.84199349
Al 16.1898507 23.3688066 22.3197737
Al 28.4923965 19.1447885 7.79116406
Al 4.38492154 10.3312734 8.30359177
Al 6.9584648 32.8912722 21.2412344
Al 11.305424 10.3967134 23.1404839
Al 17.5630567 16.0429552 30.8254325
Al 32.8631228 11.9045837 29.7129719
Al 22.5992234 3.86276157 8.15314044
Al 3.40747476 3.50540692 10.1533077
Al 9.22473447 7.36232964 32.9370244
Al 28.5975583 26.4473472 26.8687221
Al 23.8211815 1.11692479 16.8102437
Al 11.2536739 6.1175701 14.37639
Al 4.08450076 8.34310923 0.455710693
Al 25.3532101 9.6963289 5.01955294
Al 4.73097608 16.8293262 25.3131171
Al 3.94274507 14.2249179 15.1528814
Al 2.04769848 27.5442617 17.9145375
Al 1.03373371 13.7924084 23.5202872
Al 9.71402475 11.8369169 13.924375
Al 0.974190431 11.2405408 17.3901205
Al 10.0712199 2.8696967 10.7111682
Al 6.57223815 28.501036 21.1364152
Al 26.6251646 21.6110972 27.9318895
Al 12.0012548 11.8511384 31.232563
Al 9.14803247 10.1914809 30.677268
Al 14.3280699 16.4735941 31.730671
Al 27.6346106 23.2794584 30.5663967
Al 2.93619484 29.1973084 19.5244914
Al 31.6260471 1.27946325 32.7709298
Al 24.3432566 14.3088433 11.7178408
Al 21.8907412 4.50981899 0.496153478
Al 16.6990688 3.77715004 24.0151874
Al 16.9482701 23.441817 10.3036206
Al 25.1552021 32.1133979 29.7904867
Al 12.7530911 16.2110125 15.5815572
Al 23.1541137 13.8990926 6.05533998
Al 29.9817504 19.4542845 9.77727492
Al 5.35880438 15.449721 30.7334112
Al 10.357563 29.2408893 23.4119528
Al 29.3986772 22.1512501 13.2684893
Al 12.8879796 29.1330668 2.54876846
Al 2.20948593 7.92796701 29.858505
Al 25.8804141 13.0691863 2.43517874
Al 23.2885684 6.31064063 15.3418256
Al 12.7660335 14.3302538 32.7908728
Al 15.6708322 7.62401487 31.3846477
Al 28.4797484 15.2775194 23.0493895
Al 28.5726498 19.0278494 24.2859232
Al 8.82165429 28.630797 29.3648591
Al 6.85420018 13.6047541 28.9814614
Al 18.9348845 31.2239818 17.2548846
Al 4.8219134 26.9912505 19.4977461
Al 9.40187586 2.77965007 30.9842745
Al 13.0384915 8.88112422 28.7838222
Al 15.641989 0.993833497 1.49076647
Al 21.8953698 11.4880629 9.64035644
Al 11.8495941 0.0918012761 2.03599389
Al 12.7701703 9.34594186 18.3304809
Al 9.14275346 27.6344294 4.03129051
Al 30.936765 9.80017559 13.238108
Al 4.44667907 23.2550293 27.1720537
Al 30.1771702 1.23703469 23.2942756
Al 29.4573513 31.0768664 9.58335491
Al 0.526537956 29.1734059 25.6686515
Al 22.6327673 24.6553569 8.57536777
Al 1.60200036 2.14722468 26.3900888
Al 11.4033457 21.3971771 26.0132491
Al 0.417459054 20.4402445 27.6147024
Al 30.4995882 17.6512161 21.8872461
Al 7.18764467 8.6191857 31.1531688
Al 2.53474968 27.8921735 27.9804811
Al 3.45113478 30.2328464 17.1560627
Al 24.1137167 19.9917544 21.2198241
Al 2.76640188 24.6638822 9.75424538
Al 25.5753753 22.0756942 10.5822325
Al 1.912396 21.4623885 6.29662527
Al 2.82093713 14.8735494 21.8175822
Al 1.75342018 26.0770147 15.7588095
Al 14.3303133 3.13300749 30.063317
Al 31.6570808 12.5141034 17.3843445
Al 17.0942802 3.58405927 20.8369498
Al 23.7735601 28.2234198 1.96602019
Al 16.2076853 10.7267397 4.89236249
Al 16.4668981 9.25359616 16.2414582
Al 20.8612541 32.7028813 2.67725127
Al 28.3001306 2.38973563 4.03700886
Al 17.7380656 6.26731517 23.6800443
Al 0.214107451 8.67093445 13.6176885
Al 30.2759192 23.7325861 31.0022081
Al 27.1109005 28.9918612 8.97146557
Al 11.3033783 1.72847345 24.4436994
Al 27.5710273 0.931823983 19.5840432
Al 6.36441414 12.3970924 14.6705104
Al 10.1437434 4.00130048 0.174722737
Al 15.668353 10.0127654 0.144343252
Al 8.59607192 14.0324864 1.2858163
Al 31.9755266 13.2570125 0.51412414
Al 2.63148413 4.64337153 17.9266744
Al 6.21134306 31.7289794 17.0674556
Al 3.98844558 11.942538 26.3049751
Al 17.4869681 7.77185859 0.399997813
Al 16.6631177 18.3767382 12.8484125
Al 7.11694726 24.6118598 1.008656
Al 26.4212401 3.79912147 9.09428104
Al 0.484050261 23.4816164 25.4189879
Al 11.3966965 10.6687464 2.81109101
Al 7.80623031 3.71805702 25.1857201
Al 15.6658482 11.8912612 7.6652512
Al 4.83926085 3.31058593 1.8405343
Al 8.23186719 31.4936044 6.97567092
Al 26.0074809 1.59346618 30.6450562
Al 18.7595278 0.0999902838 30.2787912
Al 5.60101685 25.9485708 26.854278
Al 32.2412681 13.6424042 25.4946433
Al 13.6602404 20.7472518 27.0519393
Al 1.7755097 0.484936979 14.4245443
Al 5.14794516 5.32256414 24.1375985
Al 19.5984153 25.4893983 1.55701326
Al 11.5987449 0.00134400119 9.3293173
Al 22.3546148 14.9646773 20.4489573
Al 4.54354039 21.2127806 5.24682623
Al 12.7364814 31.9561408 31.2823772
Al 22.7974569 8.57775923 18.8671051
Al 25.2274099 6.09669028 0.432733776
Al 7.76156107 9.14328221 23.2091373
Al 26.2420494 25.2413613 32.6103525
Al 0.182324353 24.6231799 5.49142814
Al 32.7814954 14.7857514 31.6969023
Al 15.2009247 32.7145611 13.1651176
Al 5.55473634 7.02270217 4.74249061
Al 23.7648075 25.3123399 26.3769592
Al 2.31438976 29.6385374 11.7531833
Al 17.8644442 18.5038299 19.4356838
Al 21.1772789 2.27517048 23.2845482
Al 15.982628 29.9805083 12.6010714
Al 29.8141409 0.158910141 25.8626859
Al 16.3976076 0.753261354 25.3325284
Al 21.3419259 5.37578447 12.3347422
Al 5.74807453 4.57136529 9.84524336
Al 9.53654916 14.8162218 14.4732531
Al 29.1413441 28.269874 15.3106529
Al 29.5937123 5.01530496 2.40703925
Al 16.6781433 1.50337666 17.7280074
Al 3.26117652 18.7680904 5.49077979
Al 26.0878139 27.4601667 10.7502931
Al 11.770527 32.034318 28.9350212
Al 4.80356266 5.68714393 21.239324
Al 0.436530012 2.89820934 17.9320063
Al 15.5577002 19.9201931 11.0589402
Al 20.3681243 12.1922598 24.4169588
Al 32.6374291 2.65946611 5.72494863
Al 9.28250338 28.3033543 11.0393578
Al 28.663604 12.5723671 18.3732945
Al 33.1743438 14.3986539 18.2749995
Al 30.3746567 10.5326794 29.9130888
Al 1.55320742 22.8320864 15.4802154
Al 5.77992568 32.4020052 5.26746597
Al 1.53763829 32.7153965 11.999288
Al 14.8064019 14.4338478 10.1212261
Al 10.5289282 31.3083426 12.0864498
Al 31.0620523 24.8184671 19.4180832
Al 25.6227257 16.605227 27.5218291
Al 19.1930398 20.1631776 20.8409926
Al 32.7179999 25.4856911 10.2033692
Al 6.4216656 28.1325126 25.499805
Al 26.5999513 14.2849568 15.1984703
Al 32.2985718 4.41735862 13.4904484
Al 0.770577973 28.1855866 14.0884376
Al 13.1098429 21.2086933 16.0060914
Al 10.840735 0.59219534 13.5792722
Al 24.2307969 17.0816624 2.61343103
Al 12.4472972 12.28032 19.3655246
Al 2.74916894 18.2811627 0.000423843343
Al 2.42967883 30.7842477 14.7452083
Al 27.81838 9.35403155 3.21406257
Al 26.5786126 19.9659406 19.4472352
Al 9.23506202 31.7149723 2.65449669
Al 13.8866807 4.85247611 9.18286762
Al 12.4316182 21.2110379 9.69131893
Al 23.0929881 24.9427166 23.1122736
Al 10.1636431 8.76150197 1.5236944
Al 2.729311 5.08301757 23.4469616
Al 19.5210921 3.19239789 12.6401861
Al 8.29601749 19.5718294 29.1103875
Al 1.63834134 18.2846423 25.6223102
Al 7.34265506 17.2622154 18.6805843
Al 3.66725356 3.28900061 25.5823848
Al 31.2578225 20.1566993 22.8759321
Al 5.78625582 24.5718176 29.3166632
Al 19.5074801 21.5415667 18.4912071
Al 2.93751315 25.511214 5.04486344
Al 13.9824665 16.8703746 7.80245239
Al 14.7719302 1.79707892 19.9007603
Al 27.5428187 17.2141127 29.7006853
Al 28.5201313 12.4079893 7.22175723
Al 11.8669808 0.717532954 4.74925604
Al 26.3047365 2.43216177 17.5567062
Al 2.22930454 26.3801058 11.9801612
Al 28.1460652 8.82342678 9.27286875
Al 29.3185032 7.42191676 5.017375
Al 13.1298466 20.698205 33.1195881
Al 25.8354678 2.32410156 14.9822711
Al 11.8286224 3.92081235 26.2590568
Al 4.04736436 4.27651983 30.5700192
Al 22.6732598 10.5987157 16.6175219
Al 20.5784896 9.79936893 30.9689976
Al 14.3867897 3.31513696 0.924844342
Al 17.7003064 1.03681098 19.9956242
Al 20.4993311 9.86799678 18.563099
Al 2.53893263 23.1098499 0.550252551
Al 29.0364315 26.6211711 7.69653421
Al 1.33158385 32.2618073 9.45785786
Al 26.5178596 1.50591369 2.22178137
Al 30.7214323 27.227781 28.6230771
Al 28.5666129 4.85820543 30.4063123
Al 18.0792601 8.22802619 21.8488618
Al 22.8175264 6.27201987 2.36678704
Al 10.3618815 8.1470836 3.97995596
Al 9.83636797 0.808958732 20.5948374
Al 16.3943843 31.6855251 2.81201717
Al 26.8131278 16.0927164 32.3242619
Al 30.1763242 26.4976769 17.4552428
Al 5.28571626 19.7688306 0.739349023
Al 15.094534 8.78924524 3.15241955
Al 17.2671727 8.22384082 11.5433288
Al 17.5077492 33.1530646 32.826869
Al 9.78648997 20.7183255 2.46018817
Al 1.06517606 25.6136726 29.5782713
Al 9.15346019 21.4474911 31.2921617
Al 18.0877604 3.49878943 18.0344348
Al 13.9655367 19.6277823 6.81964649
Al 10.9688404 27.0583491 1.56523094
Al 7.12858863 31.3346542 9.64590285
Al 9.24121491 29.607696 25.799012
Al 15.0703381 11.8550008 15.2870323
Al 18.9793601 29.9318097 26.162496
Al 19.5004988 24.398816 25.270548
Al 10.9372457 23.4686169 30.8618496
Al 3.01462753 24.4499664 25.8472562
Al 3.81928581 18.685934 2.61853024
Al 29.1902539 0.603166903 10.2968795
Al 14.613671 27.3615318 2.70492949
Al 2.2951914 11.0541182 30.1356245
Al 13.9944896 31.891087 1.99995934
Al 22.2303666 20.2681261 16.5741181
Al 7.99558374 5.07909895 1.0268184
Al 1.78014102 17.6384822 28.3785872
Al 25.7904618 19.4033346 17.0051626
Al 5.72428726 25.9390328 22.2385539
Al 18.8732219 31.3463253 28.3294292
Al 8.23984484 24.2230751 5.77127238
Al 6.14603131 21.6477575 20.1976952
Al 7.51837618 14.5246127 24.3694822
Al 25.1257622 19.8179404 3.7810206
Al 13.0253163 5.57833481 0.749131228
Al 6.58341158 0.728152693 2.90018037
Al 29.7205609 30.1063804 29.3030304
Al 6.23888514 32.1295042 28.9570561
Al 14.8474267 26.8996342 25.4532085
Al 31.8577555 16.3757312 0.51417539
Al 16.3066893 15.8396888 18.8685857
Al 6.19105646 14.7358416 2.30152453
Al 13.1492946 21.7687335 23.0258343
Al 27.613126 31.7435624 14.4230966
Al 6.82381957 26.3533235 31.5727398
Al 11.0327555 11.7619027 5.35702144
Al 5.42244412 0.41571464 19.2532518
Al 6.58327749 11.9613406 1.67756663
Al 20.8297773 2.15634914 17.816101
Al 17.4956587 16.4750241 21.0321463
Al 25.2220543 26.8530646 22.2536321
Al 1.89438991 7.87138103 18.3576764
Al 10.4133852 31.9736058 32.7226721
Al 10.6997721 25.5307618 10.4370515
Al 32.1512507 11.8545437 7.89340545
Al 17.3810821 15.4508829 23.5323802
Al 32.0243632 3.24152324 19.9819876
Al 15.5090947 17.1139183 29.1769809
Al 19.256944 18.0788676 22.6284743
Al 8.13655726 3.51069548 27.8797193
Al 4.79107282 8.86764606 28.360893
Al 23.7874926 27.7253346 12.553702
Al 15.8576831 13.5948571 3.64011795
Al 24.9797248 15.2468911 1.00746426
Al 0.35894427 30.825478 23.3100322
Al 20.4603231 22.2434881 13.0293455
Al 11.9705762 30.1545883 7.67547889
Al 9.10503063 22.2401823 20.2935493
Al 28.7864804 28.5341547 24.5293689
Al 31.8030808 10.8307291 32.7076088
Al 17.5563805 11.8381254 16.1669999
Al 1.24583996 0.572672643 4.79970127
Al 14.7969699 25.1818521 0.406348974
Al 7.58313872 0.477266011 30.802114
Al 1.66407252 4.94369825 31.5187024
Al 22.7487595 8.32619771 23.2813705
Al 14.2239188 15.1374835 5.50482129
Al 30.8650435 6.00351852 0.0774647211
Al 27.6013272 30.7501097 4.27341807
Al 8.17138374 33.0468192 15.9371239
Al 23.8577919 3.12279411 18.540711
Al 15.3598466 1.2422679 28.0195879
Al 27.7100055 7.22388519 1.99327742
Al 23.0227247 18.9364545 7.54137949
Al 6.58213471 12.2578061 7.34017069
Al 18.0628493 22.8730659 20.3495113
Al 23.4087316 23.8625837 17.643494
Al 13.573913 22.9087606 14.079177
Al 3.44059671 1.9713587 4.26072496
Al 6.52435897 7.05810567 33.1697429
Al 9.161391 18.9531811 6.48973754
Al 5.63131201 32.7704781 23.726684
Al 8.87520468 10.7130509 3.29881607
Al 19.6301007 10.3171852 9.68217305
Al 10.4524338 25.3458047 3.86265685
Al 3.58689932 15.5807795 2.12803869
Al 30.9905274 11.3959397 27.0082636
Al 14.1088664 11.6682611 2.51032816
Al 15.3379152 24.5923786 24.3931217
Al 15.4514117 26.9482331 5.07007607
Al 17.5087048 23.5539432 27.9481261
Al 14.5428409 7.78307578 0.642263396
Al 12.2553825 8.21866755 21.7675821
Al 20.5560658 7.45424982 13.6928087
Al 19.0684231 23.5618163 15.0981539
Al 23.8974753 13.1758371 21.5413794
Al 7.95438534 6.45726885 24.2997273
Al 9.26067938 2.47603289 5.37141474
Al 14.7391205 24.7573858 27.1175918
Al 12.0805166 27.3941742 12.051911
Al 16.2987116 25.9320221 28.9137151
Al 6.35259205 17.6045482 2.51643113
Al 9.96360535 26.6220019 6.23603592
Al 3.62566648 0.339277989 25.6460293
Al 26.1668261 7.06763996 21.8680545
Al 9.16519176 31.9666283 24.8087113
Al 29.3659083 3.99206904 23.1750687
Al 25.0760857 10.6528304 2.66934061
Al 0.0237092511 24.191905 21.1228903
Al 0.946137368 16.4741749 15.342174
Al 16.480235 15.0696943 7.94996279
Al 19.9955725 10.4102706 15.8372736
Al 19.3239736 14.8377701 19.3274714
Al 0.128075256 5.10520362 24.2016333
Al 5.48554434 7.13959415 14.3902667
Al 17.8833794 14.4038495 32.7675888
Al 6.52388147 21.5834002 27.3604243
Al 4.71657168 16.6024309 4.31689092
Al 23.8883692 18.1183512 15.3548335
Al 1.6449655 9.94388083 32.7771084
Al 30.0118846 11.3316319 15.6627858
Al 30.8160162 25.069386 27.0590488
Al 20.0588553 20.3376749 15.173775
Al 19.6782025 14.545111 25.1830054
Al 15.8575401 0.224939674 22.5256378
Al 26.1133225 17.367922 8.41914251
Al 8.07198567 9.06537509 26.1162542
Al 28.5158382 21.6792097 32.5275243
Al 19.5610534 22.5031687 2.77977075
Al 14.4493364 29.6621318 26.398388
Al 21.8763397 4.06729002 19.8569442
Al 9.58678811 30.2932066 20.784623
Al 25.8255179 2.97196363 20.4733806
Al 0.00169495511 0.214585581 31.20842
Al 10.0343126 17.6164308 15.3970978
Al 5.32605689 14.2511402 5.87056682
Al 31.2212716 2.19373655 7.69437797
Al 17.0305514 32.5878084 7.42487848
Al 4.26595144 13.1962157 3.62575602
Al 15.3922025 28.043098 16.2765314
Al 3.96252577 20.8632732 12.8168007
Al 9.74565807 16.1961749 6.62301917
Al 24.1479111 5.09173209 31.1219692
Al 2.25099511 9.19283025 2.08073333
Al 29.0111715 32.8932062 3.7508719
Al 8.80360384 22.2374458 7.59750643
Al 16.9174281 18.9691262 21.7892488
Al 22.2122345 26.8021419 7.1712345
Al 19.6023544 29.5442611 10.3093715
Al 4.60336455 16.7975388 22.5504238
Al 26.8229919 0.560834194 5.27761546
Al 18.8805319 32.3860766 9.77762213
Al 33.1932458 29.749598 32.0450116
Al 23.9948167 21.2754356 1.37128395
Al 32.9387738 15.4079954 2.82083026
Al 29.8356188 8.13935904 1.06560995
Al 14.7537183 13.2693721 22.9262169
Al 2.49643709 21.637188 8.94364976
Al 18.4296804 30.5881149 19.6901552
Al 22.9947297 25.1797361 12.1034699
Al 21.3695878 6.66932692 20.3268524
Al 20.4614163 10.8684425 3.62010459
Al 27.5268387 3.8038429 13.7799727
Al 21.7431304 14.3386259 12.8202195
Al 0.191555459 21.6982349 13.1919667
Al 24.1724078 6.98790783 28.2518994
Al 20.7552998 4.88392574 25.1531988
Al 22.686844 26.3629528 18.4121457
Al 20.105688 2.06220684 20.4731094
Al 14.4078669 18.8082762 22.6543517
Al 18.9899186 0.955934187 6.85047246
Al 2.749643 7.54908355 13.5840539
Al 28.9330279 3.75390034 6.12978732
Al 23.0108931 20.7803214 23.6117006
Al 29.0951268 26.6503505 19.7021058
Al 26.3031279 29.8280282 11.3965612
Al 19.1003597 25.8910278 14.055313
Al 17.8192407 9.85724059 18.5570787
Al 20.0297002 0.239005066 0.0393408161
Al 17.9308621 29.6622038 4.88735443
Al 27.8244131 5.01853831 4.12545516
Al 30.5366067 32.3477246 7.70145966
Al 25.1264388 0.812481503 25.990141
Al 29.6296417 13.9120743 15.3948763
Al 6.45744227 22.2446738 6.75642018
Al 14.39238 12.2390179 32.6109841
Al 3.24474718 32.1335666 4.26435547
Al 32.5079322 19.1122264 20.6136119
Al 10.247856 15.3328643 25.2037108
Al 2.44188791 6.37125005 10.858283
Al 3.22329772 3.05159917 14.0847359
Al 6.89947408 27.1024089 17.3272954
Al 3.77745079 10.4754238 18.5365558
Al 9.67197532 30.8044348 9.21373984
Al 25.0326954 4.97810981 16.8370589
Al 25.4360217 23.9335463 24.6306041
Al 24.9711883 9.56752301 28.9331815
Al 22.0713656 2.78259573 11.7927247
Al 32.7959001 16.8325699 4.88932973
Al 24.5882166 27.9859094 20.0839421
Al 1.93018882 10.6382618 27.550102
Al 23.2093899 21.8194459 6.69592522
Al 29.3046381 10.2821364 20.2909634
Al 12.9154571 17.3994096 19.7961086
Al 23.9593829 9.33872922 0.0989000583
Al 11.7205096 15.8294837 30.7671063
Al 22.6682327 23.0224202 25.2488692
Al 18.227198 3.7360291 30.9093105
Al 10.3852027 11.0970996 26.1142006
Al 17.4255927 10.0228481 2.58423735
Al 1.09038051 30.1758281 28.069454
Al 11.5250002 28.4110576 27.8385396
Al 25.6497658 21.5056651 32.4468009
Al 24.287658 8.39037912 6.94060384
Al 5.31729711 15.5314406 17.270038
Al 21.6937596 0.206548604 30.956226
Al 25.8839234 32.3254456 11.9885494
Al 8.06196672 28.5117316 32.226928
Al 30.9003967 19.2213233 0.753285783
Al 27.4595206 23.5474612 11.6906058
Al 13.1651136 10.2927182 0.811954471
Al 31.9684392 22.3368695 7.24253451
Al 17.7799993 29.1424903 15.3969611
Al 10.9673094 27.5755595 8.51938933
Al 21.9915876 14.970435 17.609549
Al 31.2237328 14.3498894 7.91430276
Al 24.8916885 22.2361528 19.4678939
Al 25.8375599 11.1004021 7.18042128
Al 11.8798038 5.73634929 21.4061728
Al 3.19650261 11.5915693 15.8273014
Al 24.8563526 5.51456163 6.60754425
Al 18.4074553 1.74514604 22.5516569
Al 14.7919203 4.83257712 16.0697331
Al 15.0419784 6.42261909 7.03496496
Al 24.3375767 5.28440259 20.5999178
Al 7.3266364 4.50090976 5.27884637
Al 30.794904 15.4475162 29.9478963
Al 21.449823 31.59301 9.78351804
Al 28.3907896 24.5467383 17.8169068
Al 33.2109572 31.2038883 2.78653654
Al 19.4134317 9.32165695 23.7742668
Al 5.52640921 1.99321355 27.6939108
Al 20.4168077 4.53723246 9.71524555
Al 20.5605245 2.61527958 31.9023609
Al 3.30070617 15.3249034 10.3176229
Al 26.838693 5.40191419 19.5587202
Al 12.2376413 3.32403896 20.5328693
Al 0.135506425 4.5530621 21.7517343
Al 24.4039687 10.3863651 12.2820435
Al 16.4082402 25.1151285 12.6056177
Al 11.8052718 3.50878448 5.32201747
Al 12.1253841 2.19377107 8.32725856
Al 0.100940831 0.264097369 7.63213297
Al 0.369464001 0.53926655 18.9728024
Al 32.9136291 1.37154473 12.5893895
Al 6.38071801 10.9276951 27.3173526
Al 24.9928866 9.9876763 17.6561139
Al 17.2998857 17.4783758 17.149821
Al 6.29708072 23.419043 12.832431
Al 28.5137166 9.99840814 32.2666255
Al 31.912806 30.1695682 8.93797195
Al 18.1456295 1.21615516 13.5642723
Al 15.0166963 17.0493488 14.8554457
Al 22.7826099 18.1477288 10.1264423
Al 24.3135561 24.0004643 3.4267068
Al 5.59898905 4.74786094 27.0142393
Al 3.53911427 21.036668 19.4582426
Al 17.5741289 30.621639 30.8786052
Al 30.8985188 15.6685604 27.2776757
Al 14.5790178 9.35379295 11.025988
Al 16.9216685 11.8154786 31.5194583
Al 25.6871272 26.6927697 30.4497903
Al 8.35114712 13.172079 26.5823712
Al 26.6271351 29.0781172 2.36753994
Al 6.96128993 15.60606 21.4626615
Al 25.8949356 31.693062 32.1698016
Al 20.2468651 15.2490279 28.4066989
Al 32.8650735 4.61137192 3.44288734
Al 31.3665271 19.7908066 28.1855243
Al 2.54982181 7.75005223 22.1190524
Al 4.27776994 29.5500545 1.96128088
Al 1.30007591 20.3997839 17.8474216
Al 29.3870909 22.6564978 9.92346169
Al 7.71458349 8.5209878 28.6391096
Al 8.51924843 28.2271785 8.42640291
Al 19.7581739 13.6669916 14.9205732
Al 2.01974214 2.44870908 7.10043151
Al 25.0080134 29.4876731 31.0441197
Al 5.71596704 18.26903 7.90226533
Al 3.04972203 22.81635 23.1748648
Al 1.31594861 29.7612294 9.00954696
Al 12.3979957 14.7584784 20.2734507
Al 13.59962 25.1412926 29.5488382
Al 28.0420849 31.6035087 6.73391905
Al 28.4830418 9.03978529 12.3661515
Al 10.6890446 30.2436916 30.68386
Al 32.84544 18.1399067 32.3706802
Al 10.8687485 28.0429219 32.3231941
Al 17.2052293 25.6958944 26.2339808
Al 8.16760753 25.2814535 29.8524593
Al 15.9252129 11.9821725 27.9516114
Al 28.1992584 16.428216 13.535275
Al 9.8592255 12.8846322 29.6840628
Al 6.03215347 10.9775581 22.3400077
Al 23.8446966 3.70878753 2.02459368
Al 12.2650826 29.872844 21.5106743
Al 11.1023422 22.5350174 0.365300444
Al 10.6187846 20.1579038 0.156603059
Al 14.4450611 0.670612954 9.3883816
Al 29.594674 1.62923915 1.60893474
Al 14.3398951 0.376463135 30.3027352
Al 2.26282429 17.6367653 10.7962677
Al 25.6439974 32.9191894 7.52552412
Al 17.2310267 26.0753434 0.244021414
Al 20.9244316 25.7987338 16.5796614
Al 3.2272502 3.16417633 28.2309239
Al 22.9857875 33.1704964 24.6071963
Al 12.5707773 4.91849055 29.6364412
Al 23.7707485 14.8956232 32.0458843
Al 2.25209094 29.0032917 23.9859554
Al 14.7923823 25.1078447 6.5540437
Al 22.2600988 29.1184557 5.97005459
Al 3.80350561 23.1904982 12.061053
Al 19.4786391 16.8335865 0.142841909
Al 26.1663633 23.2893339 1.37246214
Al 13.834692 32.3391023 21.1801417
Al 9.54352947 21.8049771 12.0971398
Al 0.270510427 18.2623424 1.62411309
Al 28.5572046 2.31248176 30.5506804
Al 10.2237065 16.8280275 10.3105307
Al 9.06892231 24.8376267 8.09222329
Al 10.0998047 20.0945035 16.1237519
Al 1.44867183 16.6468187 30.9917334
Al 30.4566827 30.6827977 32.0689777
Al 23.8913785 12.9254086 30.5318782
Al 29.0713905 17.1235086 1.00993372
Al 7.44506715 24.0640799 27.1621736
Al 27.5575881 11.2053646 14.1575771
Al 5.41670231 12.6415592 17.2272879
Al 20.2878411 6.76061341 22.8431564
Al 0.474072087 16.2324723 7.49667864
Al 9.70102162 29.332984 1.04381368
Al 11.2085662 28.1646699 19.0799761
Al 18.3325209 0.613687512 2.40950802
Al 1.40214744 15.7697687 0.622191537
Al 2.94942865 15.264063 28.2335174
Al 11.6678927 12.6976321 9.09657856
Al 4.4952576 7.40742104 26.0721595
Al 3.11072858 25.3297061 28.2547949
Al 15.3486857 17.0568665 10.1583607
Al 16.7497389 28.7172305 2.6826386
Al 8.35878961 27.2030665 27.2339241
Al 32.1827958 24.3753253 29.2388396
Al 12.4866039 23.619014 25.1288366
Al 13.8039914 2.13457112 6.00070068
Al 6.34476261 0.443919674 7.66181658
Al 28.4593784 6.36301966 23.3639891
Al 22.8489372 17.3751961 20.4291708
Al 10.9377029 18.9855446 11.630207
Al 3.18592624 19.2718709 23.9316205
Al 10.1174785 5.97901347 5.51599801
Al 14.3708473 14.2244698 13.8896692
Al 7.85922221 19.1833361 0.581401431
Al 4.01871322 12.6941667 0.856090895
Al 24.9697478 23.4186671 14.491008
Al 13.3224309 1.00597534 33.1618072
Al 31.4966178 26.1009846 31.0310254
Al 8.81143507 18.4136885 3.95092638
Al 19.6837314 23.7675435 29.4613948
Al 9.77842186 4.20636664 3.29365032
Al 29.5384317 17.2435952 31.6133042
Al 32.7829073 3.87022808 26.881371
Al 13.8322067 23.971948 4.40744862
Al 16.1686898 22.5079488 14.538231
Al 7.67654586 32.4402712 0.207902856
Al 33.0192339 28.4859317 10.8215982
Al 30.4713973 4.07291621 28.8204886
Al 28.3035116 11.2195271 27.0618163
Al 0.793413699 3.06798563 29.1686512
Al 29.486911 21.7139858 7.13706362
Al 2.97882757 25.2624358 2.24589418
Al 12.9955652 11.8508606 16.8929897
Al 9.53328876 27.7617171 21.1116225
Al 32.0824708 1.6432536 25.6778299
Al 25.0966762 15.0877268 4.12117529
Al 11.0051992 21.2087248 13.8519875
Al 21.2047869 4.03336009 3.07551967
Al 12.5813404 24.859276 2.16353115
Al 23.2183072 18.2855261 26.9749248
Al 10.6527635 8.47953854 26.9477464
Al 26.4456852 6.6926955 24.84866
Al 2.43184332 1.29251623 30.4277098
Al 23.2384382 28.6245195 26.4837639
Al 25.607258 29.9585256 18.4438396
Al 18.3674313 26.3597494 30.7777526
Al 8.04134259 6.33369512 26.9139018
Al 14.2986919 23.3500911 9.57950786
Al 14.471824 4.50846651 5.19336997
Al 4.31646057 3.08444244 20.2800895
Al 5.0742448 30.3548127 12.422154
Al 26.1320915 13.4431384 32.2529251
Al 11.5286497 19.1016968 27.6667284
Al 12.6172724 2.37753049 10.8543574
Al 25.0453207 23.2905064 22.1346036
Al 15.9430761 3.37587746 3.33906113
Al 25.2185978 23.4754561 7.96957962
Al 2.81115763 13.3969963 18.6574173
Al 5.8742961 18.7134992 5.21417268
Al 21.4675887 24.2837838 32.7523142
Al 14.0876643 12.2757918 5.2647436
Al 18.4883973 10.0384183 33.0498594
Al 5.20254334 32.0238311 2.12989472
Al 1.89495781 12.7402412 10.987609
Al 20.734299 24.1466821 18.8851426
Al 14.2882718 6.74290393 29.107714
Al 0.0989040448 4.03842516 10.9022442
Al 0.793360316 28.4179402 1.48873967
Al 12.7691371 23.0629066 27.8333096
Al 3.35246337 15.0789851 32.4169656
Al 20.1522315 6.36921541 2.02427609
Al 24.4742652 19.3362946 12.0756441
Al 9.4337388 1.91058979 26.2668988
Al 12.3210882 1.63328593 18.4576385
Al 24.2733917 12.5938156 23.9207562
Al 10.9854327 18.2603732 2.42155886
Al 22.9492314 30.9012805 23.4891957
Al 3.02134022 3.03700716 32.8153023
Al 21.9395435 13.8694015 23.1267131
Al 21.2677827 9.60277145 20.9838909
Al 23.9972489 11.7170241 0.385621707
Al 4.17547115 26.4216051 24.1035698
Al 20.2136686 5.01891804 17.5951263
Al 15.1887291 32.8770188 5.49526053
Al 16.5699066 30.4639994 21.9775143
Al 31.2892178 2.7343904 15.4645459
Al 15.8954476 9.8115732 30.0361188
Al 12.7490777 9.64111353 25.4143151
Al 20.6295665 2.47005038 29.302015
Al 28.4911511 29.2212769 27.1304748
Al 5.53535392 30.8366582 21.2452792
Al 21.0116463 16.1531424 14.4900276
Al 3.27044382 33.1058236 28.318621
Al 21.8898892 15.9974194 24.8825971
Al 26.4015356 16.0390423 10.8827559
Al 0.690518844 1.71820249 9.8183215
Al 9.60451235 4.13195729 15.0815588
Al 10.6480105 23.177362 18.5397651
Al 21.7852712 13.5337135 0.100586015
Al 32.7288819 9.30289886 26.0411786
Al 19.365935 1.6787049 9.93398804
Al 15.0389782 8.27752908 25.0385711
Al 20.3533041 28.5368093 14.7166877
Al 5.15242162 14.5595657 26.847504
Al 4.44529639 13.0561075 12.8252405
Al 13.355619 27.3172428 0.45831891
Al 22.2273628 1.67157696 3.10473324
Al 27.2493278 28.2993142 20.5051472
Al 8.35471115 19.4961942 20.0927601
Al 10.8540223 8.20992116 9.23621626
Al 4.49163933 0.852813642 9.48276386
Al 27.7143192 28.6278284 5.7688972
Al 4.23731437 31.6221579 7.79330252
Al 30.15005 30.5629421 5.0652644
Al 27.6279862 23.9810393 14.5063223
Al 25.7899964 10.6069516 31.5576389
Al 16.9224309 25.0161965 3.60460126
Al 21.7903445 26.5850575 14.1895685
Al 15.2821734 31.7617936 32.6205526
Al 27.8099481 31.7344103 1.27724816
Al 32.7305933 27.226846 18.640621
Al 25.9809887 28.6715971 25.5253748
Al 17.9663462 14.7525943 2.04660956
Al 6.31111957 4.19539703 14.544686
Al 16.8439178 20.8657834 19.0005386
Al 11.6913979 23.6487622 8.7134836
Al 21.3539512 17.6700106 16.5587373
Al 33.180626 6.63446907 26.2353495
Al 5.21807845 20.4115556 22.6507818
Al 18.6829506 0.537225329 16.3115902
Al 30.7841968 27.0408621 10.6302478
Al 2.91682509 1.18898919 18.9237088
Al 11.8906146 17.8674817 5.91631773
Al 15.6458362 25.7702381 17.9037889
Al 20.9455912 12.4235863 17.4396275
Al 18.0726686 3.09890923 15.4127704
Al 24.0202243 32.377004 9.66920998
Al 1.33079392 21.7408126 20.662236
Al 28.5713146 15.9390694 3.71634936
Al 2.39213813 2.30893385 16.468636
Al 11.8174688 31.9179181 23.9963536
Al 10.8433228 23.3226445 15.8211729
Al 10.8068145 26.461618 29.9572095
Al 33.0151473 22.3471415 23.069017
Al 31.220489 27.1900645 0.118578603
Al 21.1222753 12.1923442 29.8870197
Al 9.47455404 29.3176401 6.33081707
Al 19.4339258 12.1301476 31.8608263
Al 20.1468422 7.56063573 32.5801048
Al 20.7663669 16.7641818 11.7579473
Al 25.2550632 7.28348036 18.6063635
Al 11.3600932 20.2136455 4.74982778
Al 23.2599178 2.17624486 21.59012
Al 30.4960714 30.4014696 24.9566654
Al 0.43717732 2.93057888 32.460144
Al 8.10080982 6.73807097 3.49238473
Al 31.0501406 13.4874984 22.961646
Al 19.3293201 4.73744638 20.0665174
Al 5.80481776 8.73955747 20.8986421
Al 14.5889488 5.93707212 2.96932967
Al 12.0863412 30.049999 0.11217059
Al 24.2874517 6.13650663 23.5362837
Al 16.1179877 0.950106686 15.2094392
Al 0.0226145497 25.9671843 1.32738501
Al 32.9156703 6.79066902 11.8156901
Al 4.96780774 7.86562173 23.2161141
Al 16.7902365 16.096292 26.0774864
Al 8.436064 10.773783 16.2189611
Al 19.6893802 8.37026553 28.2831864
Al 17.9946391 23.2785978 12.7131538
Al 17.8114245 13.9639734 27.1509633
Al 3.93423344 13.0333795 8.28952159
Al 12.3154242 15.4234498 9.2835777
Al 26.6962095 17.4139796 1.75458355
Al 15.4157637 4.84243151 31.8062089
Al 13.4795346 12.2814032 27.2927628
Al 28.2021548 12.1553706 30.7556532
Al 5.46738613 1.16491017 33.2047474
Al 29.300659 20.2947014 20.1925203
Al 13.996094 14.2239802 18.0254037
Al 23.6060435 31.5704883 6.18657486
Al 21.0411599 27.7607569 3.6509489
Al 15.8035307 6.006003 26.5782323
Al 15.7138601 17.4496915 5.53697424
Al 32.4171417 32.1454672 26.5699377
Al 2.75925597 2.1130451 22.9911137
Al 5.84108255 1.53163338 14.7792892
Al 11.7058227 13.0545186 1.61890887
Al 10.5305681 21.8068318 28.7826977
Al 4.15385381 7.1594227 8.80518372
Al 30.7956169 23.2812066 24.8955412
Al 25.1809261 12.2699456 4.83676518
Al 18.1971699 19.4807902 10.4300615
Al 5.72427103 8.66622455 6.83847297
Al 5.84517506 12.8559621 10.1475165
Al 30.4159432 24.2907582 12.0408225
Al 23.5210957 26.6585131 32.6540552
Al 19.8530515 17.1924051 3.44085975
Al 21.5089914 20.4530728 26.1775215
Al 33.1133949 5.41949704 19.1605649
Al 32.5237628 12.5274989 14.8695437
Al 27.5306521 15.9318131 20.6507571
Al 30.6742527 26.2653412 2.43869688
Al 10.0337391 24.5672023 25.7929249
Al 7.86983529 31.4480001 19.3298581
Al 12.0946434 1.46920188 30.4803677
Al 13.1745903 6.99144252 26.5819289
Al 26.3318964 17.3322273 18.6115751
Al 28.5222844 25.7539557 5.15160809
Al 27.5124866 10.6282881 16.9030042
Al 23.7149787 31.020756 28.1768881
Al 23.5449196 17.7271983 29.3062229
Al 29.8902672 19.980022 30.708416
Al 18.5862414 5.9149623 12.2840872
Al 30.0393496 25.8296626 14.5966311
Al 9.56761792 19.8960638 24.5408878
Al 31.5264973 27.4628602 25.6581412
Al 20.1250334 19.9542034 28.5125163
Al 30.3061837 22.6384975 18.355891
Al 6.8269956 20.3205443 31.8371388
Al 21.4396507 24.775417 27.7571592
Al 20.3214262 12.8647927 5.31922927
Al 15.3412709 16.1988091 2.99654136
Al 11.2404297 26.9346455 14.8516047
Al 5.7213096 5.66827787 7.03770438
Al 5.44264892 22.3322581 17.8100025
Al 7.77305706 21.3603266 22.3973974
Al 4.59536556 20.6942 8.01740483
Al 31.1112859 17.421199 17.1696061
Al 5.35558163 10.66001 32.8960337
Al 3.27081255 21.2057613 32.0447942
Al 17.6548636 30.6806782 0.416061445
Al 22.7610729 11.3656659 28.1355509
Al 32.9625308 22.002699 4.53347368
Al 13.838134 28.5196732 9.56059912
Al 26.6506941 8.20410727 16.1359379
Al 17.0455721 31.6779782 15.1781068
Al 19.0740991 12.2864092 18.9821441
Al 22.5259564 0.786087733 19.5763583
Al 18.3267285 17.234104 7.23243407
Al 18.0131085 32.3894651 24.325809
Al 28.4983713 26.2419331 31.3302182
Al 16.0977422 32.1306412 10.4858697
Al 23.9127504 28.3513545 29.2201836
Al 11.8221344 18.0253691 22.1421438
Al 8.47266354 12.4845802 9.28716305
Al 12.5216299 13.6838088 3.90856629
Al 6.86889691 10.0244833 18.5507545
Al 32.1492989 13.4934755 10.2716307
Al 5.83259117 14.2625521 32.9231798
Al 24.2815541 29.9640589 8.65793291
Al 13.0312432 25.3289925 19.8215178
Al 5.53344097 5.56531694 2.47067409
Al 13.8938587 0.408338357 24.2434873
Al 7.83805711 13.3062625 16.7951633
Al 7.1645346 5.06200016 22.0801225
Al 12.589862 7.9753061 2.68441223
Al 30.4296088 10.7931314 1.90609315
Al 32.1622274 9.9632198 15.8546695
Al 14.2934886 12.0497255 30.0243348
Al 14.2208208 17.035235 17.2903105
Al 8.91242909 0.192873466 8.63723347
Al 3.14352241 24.006782 31.3058241
Al 19.7489725 8.27676925 7.62304732
Al 16.8173386 7.46970261 28.6081929
Al 17.800665 2.0287827 28.9550153
Al 14.0029328 27.3901854 28.1724033
Al 30.3945564 24.0891938 6.09516303
Al 22.6847634 12.1095421 12.0359372
Al 3.93572188 31.9694539 10.6973761
Al 4.75700898 27.5174501 5.72485125
Al 23.0640578 5.75363819 26.1618911
Al 15.392011 18.5413403 19.7329908
Al 27.2742163 3.91818592 25.2251813
Al 16.3525329 21.2459525 26.9676975
Al 15.1504527 26.6383488 31.2071287
Al 2.45408434 32.0461938 1.80683131
Al 18.2301766 24.3014204 17.7076634
Al 27.3182881 8.93983336 23.4402906
Al 21.032714 2.64022522 26.8141169
Al 3.37672504 31.8717277 23.5572604
Al 25.7386882 16.82247 13.2261619
Al 27.0348916 7.1296442 28.0276653
Al 3.39088477 27.6795447 3.60761241
Al 11.0181315 25.622574 18.1945902
Al 24.1049324 13.1950543 8.99688823
Al 15.0321473 15.4966492 21.4858376
Al 20.6254168 21.5362497 30.6506299
Al 22.1645936 16.1043841 4.45956996
Al 0.907520167 15.6928263 25.901042
Al 17.849995 18.7818934 0.301951603
Al 4.18760349 32.6714332 13.5727316
Al 15.5557119 19.7508492 3.37591074
Al 4.24336702 25.2028975 17.0002582
Al 7.66354838 5.51821126 16.8402565
Al 29.406777 22.2290577 28.433433
Al 25.0204497 10.058021 24.2432599
Al 32.1977747 27.1490862 8.33118096
Al 15.7447142 6.18025002 11.5214432
Al 30.8293026 24.1437769 22.3244825
Al 7.47424615 17.9580569 15.5980536
Al 17.589876 26.0450469 6.34557472
Al 14.7766786 3.81742538 11.5198252
Al 22.413088 8.98395488 27.830195
Al 26.9267289 31.7666684 9.46569435
Al 21.245379 33.1840394 21.7328952
Al 20.3202453 17.598553 27.0973898
Al 12.1087802 5.32992084 7.13372069
Al 20.4335684 29.9858277 33.0383853
Al 22.1099883 4.81109041 22.7176316
Al 19.0277979 22.4967575 8.2006417
Al 26.6112448 1.26891093 10.1221809
Al 1.86461913 20.6284858 11.4115424
Al 19.1774474 21.6657935 26.7177657
Al 29.3286214 7.05663353 29.6797817
Al 25.0702043 1.89757935 23.5936991
Al 24.8378918 14.6483245 17.539357
Al 12.75103 33.1916629 11.8756875
Al 31.4975506 2.74172916 30.7782377
Al 19.6894175 14.2426565 22.1828344
Al 30.7065388 0.128009901 12.3931718
Al 19.3254913 11.4038149 21.9530827
Al 29.0692214 25.107009 28.8848707
Al 10.4990784 31.5333144 5.12206523
Al 31.2318222 19.6972752 6.94186742
Al 30.4631705 0.753289424 5.64811149
Al 26.7642732 26.1856749 24.4151299
Al 30.0732284 10.0721375 7.89895178
Al 26.6798661 32.6416053 27.7153714
Al 1.42981142 13.930947 8.77197722
Al 7.30306317 19.7891411 17.6931832
Al 10.6460079 5.66528927 28.0879569
Al 17.2501271 17.7761172 2.54787192
Al 19.7664541 31.6844048 14.7025801
Al 18.043572 13.4177615 29.5617479
Al 26.1301847 12.0825931 28.9075143
Al 1.49457779 24.3353879 13.5552563
Al 22.9162151 28.2084652 22.3695897
Al 21.6689791 29.6858081 2.2979082
Al 16.445183 29.35121 9.92814552
Al 17.9359656 19.1006793 27.399395
Al 21.1725898 2.21156874 14.5498549
Al 18.8357738 2.76541991 25.1985847
Al 28.9302933 12.6281725 2.89021313
Al 22.7085763 12.8864091 15.1930281
Al 28.2573047 28.1320864 17.720357
Al 24.2162215 10.3635965 9.58959606
Al 4.11126057 27.4733996 11.1193341
Al 5.15780466 16.9146578 33.0573196
Al 21.3851624 12.2512771 20.3829023
Al 16.6388259 24.4008982 31.2586696
Al 21.8674107 9.2964535 8.58604713
Al 7.50672438 15.7281893 26.664575
Al 16.4325889 5.22535627 1.16359885
Al 5.05038182 18.408659 16.9255104
Al 18.9383414 8.82196352 4.50018642
Al 30.5408964 7.67800297 10.3614118
Al 11.0971307 13.8612497 6.8584947
Al 3.81984025 11.9462677 23.5755875
Al 5.07080939 29.8356807 14.9200737
Al 25.5150176 15.3467661 30.0991189
Al 6.45958325 28.2712003 3.72432092
Al 21.958477 14.9561044 10.2037983
Al 3.06754503 6.8291227 6.12212664
Al 18.5889076 32.4054762 4.94524463
Al 31.2282534 6.13339285 27.6679918
Al 28.3658615 6.84731844 32.1301401
Al 22.1868807 10.9247133 22.9860476
Al 2.73745976 19.2044108 21.2138708
Al 30.9094867 16.9082177 7.15622999
Al 27.0742092 21.3275678 25.2431383
Al 0.908471689 27.2800373 32.0568715
Al 14.6692739 5.34103584 24.1100787
Al 0.513091211 4.07495499 15.5813112
Al 18.3979754 4.1788896 2.50962504
Al 15.4068265 19.5075787 17.336376
Al 26.7469379 13.8827561 27.0088335
Al 0.518493274 6.42801079 6.62198283
Al 13.9664355 32.2518306 26.4989057
Al 26.1156692 4.68816135 29.4216227
Al 2.96746608 1.60474393 11.6530455
Al 20.429212 14.2737864 3.01572144
Al 33.0195832 14.0300769 5.18319563
Al 12.9702899 7.9493223 7.67347511
Al 23.81384 15.8542884 23.0402199
Al 21.1174879 7.35458187 25.5042746
Al 1.96807749 20.3962527 1.05992214
Al 21.6216987 28.5802864 30.5684393
Al 9.84907748 0.721612729 29.469752
Al 3.47755834 1.1361378 1.74195606
Al 9.69682643 18.1707419 17.9164199
Al 0.0738688248 26.3137566 27.2592021
Al 26.7391671 9.24843586 26.2547961
Al 11.8504713 31.6893188 19.3752962
Al 12.0516867 4.1616205 23.4971444
Al 3.8469837 23.7011299 7.02472618
Al 1.79439726 19.912512 14.1546721
Al 19.8671066 10.6715876 6.5903253
Al 13.9397217 25.665795 11.4787114
Al 8.26971066 15.2464308 31.1883412
Al 11.1456679 10.8748894 28.8682236
Al 22.3465793 9.90598731 2.44439311
Al 3.03560197 27.5491218 0.499609897
Al 24.1839052 1.91962736 9.46763688
Al 4.04581784 23.1276777 15.1076634
Al 25.321054 2.03884545 12.3949935
Al 13.0777247 6.84222907 5.18365221
Al 6.99706055 20.6792157 2.98512864
Al 1.80768714 12.6342807 6.55654659
Al 12.5816048 17.3919912 0.110125898
Al 23.6349171 15.3073685 14.9723194
Al 10.6206376 8.89638974 6.50577768
Al 9.39151206 17.8934883 26.3126304
Al 3.90095094 6.09208025 28.5281732
Al 12.2323945 10.0980214 10.233092
Al 16.7795249 12.8787227 18.7828232
Al 30.3808958 0.00328882615 30.3057838
Al 18.0188605 16.9609237 10.3625198
Al 5.53139469 19.8547417 29.2912313
Al 30.778896 0.0122955037 14.9729159
Al 26.8252367 4.10714719 1.46430443
Al 9.07843221 31.5935853 28.0942794
Al 16.4345474 20.872993 1.06349461
Al 9.67603313 14.7893824 8.72838725
Al 1.79197083 3.53576215 2.35648833
Al 17.8436454 21.3192392 22.5826997
Al 7.05312025 4.2897874 19.4499368
Al 32.0508909 5.75553605 16.2251802
Al 0.89614939 5.4192537 28.5796946
Al 15.6068765 12.0705723 12.1476823
Al 0.687304275 19.8648246 22.8044608
Al 25.798913 30.3717906 6.55185928
Al 18.1905816 18.6216008 29.9236746
Al 19.733693 15.204417 6.00286909
Al 10.8507315 18.3869306 8.34104758
Al 1.35697062 19.6805216 30.6791812
Al 18.6718237 32.4810962 21.5882817
Al 27.632529 5.49411534 16.7582505
Al 23.3642828 12.684259 18.1916011
Al 2.38024622 22.8710678 4.00976237
Al 16.4035156 18.6466442 8.48737796
Al 26.4272557 17.0951771 23.7502805
Al 31.8871078 21.5388856 20.5045336
Al 21.4924753 29.1679879 8.36073879
Al 26.1587252 5.21569079 11.4973249
Al 7.6287857 11.0684295 11.8588979
Al 3.20159502 15.6700785 7.50886583
Al 8.48861232 21.9419633 0.480475031
Al 7.2031653 17.4474955 24.5225935
Al 16.1953683 15.7803555 12.1742999
Al 16.9902197 6.80086488 19.5541965
Al 0.106110781 2.23935951 23.1562729
Al 12.3157146 31.3601594 14.1050175
Al 19.7783509 5.80763109 7.13667826
Al 14.6275705 25.721675 22.0604684
Al 15.5950667 20.0957095 29.2434223
Al 19.0637032 4.14904451 27.9426011
Al 10.2633663 11.6577323 11.0113799
Al 22.7968673 29.3607066 14.5174182
Al 28.7149036 19.0247395 14.232388
Al 7.37639646 16.9709814 29.0306355
Al 9.96945735 24.7242655 1.25892373
Al 31.5126733 3.39598801 1.22455649
Al 22.6514432 15.4079332 29.6342197
Al 10.0715453 3.04202047 18.7794611
Al 2.13756727 5.59321261 20.6412963
Al 14.855689 8.84746946 5.99539035
Al 28.8221792 14.5071331 31.9386069
Al 0.861859184 28.1283781 22.1828375
Al 7.22149218 16.3360227 5.735023
Al 21.2020184 13.4163934 7.93883727
Al 6.98598614 29.9339397 27.6919017
Al 6.59565204 5.8901786 29.5876033
Al 20.9406173 19.7094169 11.7067833
Al 21.2325595 32.5994016 28.3401191
Al 5.19046622 22.4101102 33.1241472
Al 13.0154488 25.9128309 8.87134747
Al 2.70926299 31.0093224 26.2714286
Al 14.7235263 28.3859426 22.6224656
Al 21.1986758 22.9393707 5.57573807
Al 9.80551131 14.5868039 19.4443271
Al 14.4121787 22.2640539 1.76944627
Al 24.4545622 21.5875077 16.7870434
Al 11.6662488 16.2268603 27.9813103
Al 18.4833252 30.2094556 7.90969085
Al 9.15708275 21.0823838 26.7708499
Al 22.3243254 1.99121663 0.428004363
Al 13.4850328 21.6286224 18.5165087
Al 7.63204347 22.6436057 24.6867575
Al 26.4958211 12.940799 9.48464755
Al 8.58671079 24.0019849 11.500383
Al 18.8526676 8.00333873 16.9419526
Al 18.1658973 26.6697314 16.6343907
Al 24.8499856 2.65025877 32.8331165
Al 21.6811767 10.7578814 0.0385043719
Al 28.9264465 4.43336523 20.3877285
Al 8.10635892 29.8300839 16.0546196
Al 1.5832728 26.5142803 25.3819257
Al 22.818338 15.8631652 27.1475048
Al 7.77762168 13.6399248 12.2569892
Al 10.253519 27.1512738 25.2821758
Al 7.28044244 32.4788151 26.4853454
Al 27.6745688 13.3763096 11.8232445
Al 18.5809068 26.9425127 3.9158609
Al 12.9008698 32.4916116 6.93287645
Al 13.8472807 25.8411583 14.3057278
Al 26.0257488 2.51983308 28.012004
Al 2.55529816 28.9180768 30.5559794
Al 17.8962663 12.8312233 23.7579935
Al 4.31219773 29.5843324 28.6183858
Al 24.1916327 22.9620662 27.6878977
Al 20.2591554 28.4303897 17.4111053
Al 32.4097148 11.6537003 12.2448509
Al 9.86622907 13.2797894 3.56154118
Al 31.9756358 22.5550717 27.2617783
Al 7.74623988 3.89655369 12.5071622
Al 20.847956 30.554978 21.2434922
Al 21.818432 18.4660309 13.9340993
Al 1.59649945 12.882488 32.8235544
Al 3.15044001 26.5337645 7.39856024
Al 27.9720988 16.2303206 6.92089832
Al 0.837160153 1.24428842 1.5439317
Al 4.27573907 18.6354973 31.0708587
Al 8.35402787 15.6944907 3.34340046
Al 26.6064022 24.4223414 28.0088947
Al 3.76737767 9.9159268 22.0926928
Al 2.73495838 18.2291014 15.745529
Al 18.1535465 20.7017167 13.1922446
Al 15.1379526 3.32741068 7.65449783
Al 28.4054643 30.8061675 18.8195664
Al 14.72618 12.0503295 20.3475262
Al 14.2794768 2.88972329 25.2598334
Al 6.67602782 7.09585403 9.39437855
Al 2.92252596 24.1353656 20.685944
Al 10.3560497 28.8659379 13.7055428
Al 5.78049759 30.8964243 32.8843304
Al 19.2049814 24.7374081 9.35863343
Al 24.2101734 27.0550818 24.5087256
Al 23.9099001 19.8658326 18.725646
Al 6.93461562 21.0794475 11.2377421
Al 32.009363 12.8166946 3.11487696
Al 17.4154694 22.5416813 24.6991419
Al 23.9708144 4.09145399 13.7756721
Al 23.1380025 13.8096304 2.45392504
Al 23.6329333 17.3050604 17.7878961
Al 7.84609439 16.5771933 0.597205446
Al 29.4683981 12.2667724 0.0013965981
Al 1.16557411 22.6803141 30.0055382
Al 31.823557 1.58405488 28.3870628
Al 31.6165426 29.5456874 27.4090361
Al 31.8833199 28.886617 3.76593021
Al 5.57105841 10.0769401 16.288725
Al 10.5066594 15.9093004 1.46996598
Al 29.2678046 30.7555659 16.2004027
Al 13.5156402 9.49178279 31.6414572
Al 25.2579387 5.53433497 3.50417109
Al 27.1247642 20.4420888 1.33881762
Al 14.7442479 32.8287562 17.5537923
Al 17.3836099 15.5100728 4.85536805
Al 21.3677846 0.227241645 16.5012983
Al 20.5417804 18.3453448 5.88629455
Al 14.543423 30.6230872 15.0327477
Al 22.3880485 18.64423 0.725767384
Al 5.81173117 3.69373671 32.4232197
Al 12.2756627 24.4736209 22.4747332
Al 30.9291688 32.2569893 1.55971247
Al 21.3160566 2.65197254 6.01244761
Al 17.2051039 6.49770579 3.48875199
Al 22.4280313 31.6961854 0.449574631
Al 25.010675 20.932035 29.8890287
Al 30.0289945 9.8930147 4.70404003
Al 28.6117463 24.1217681 2.94952359
Al 23.6795398 27.2689876 9.777882
Al 14.0332741 10.3050965 22.9250784
Al 27.9200657 0.977724857 12.9638405
Al 28.0086599 23.5332104 23.3324276
Al 22.7520267 5.94574511 18.0634554
Al 2.1322516 7.90761225 27.1628438
Al 16.9924935 28.0886997 18.7813776
Al 28.4200181 5.98101952 9.71741969
Al 4.39698939 11.6841679 5.86254581
Al 20.0915853 4.7399587 14.5297362
Al 28.1681638 5.03738687 27.3436158
Al 25.4044167 25.7345998 1.76072322
Al 8.32313251 9.00365034 8.11389151
Al 11.632945 8.02002834 11.8924687
Al 16.2399288 1.48987787 11.5412794
Al 13.1638797 14.9977409 26.0990844
Al 18.7549312 29.3625215 23.6361036
Al 23.3604288 16.817895 12.2935344
Al 28.6544985 1.74069206 27.978872
Al 25.8895081 7.21618252 8.64048399
Al 10.4322877 10.0691671 17.9486256
Al 10.5024409 6.26829644 1.55725469
Al 28.2662132 25.5988677 10.1737266
Al 28.4213977 23.6779416 20.2750914
Al 12.0961186 15.3201036 22.9311692
Al 4.80009104 21.7333806 25.0616677
Al 9.715898 11.4190153 0.758302238
Al 29.6349032 4.94390303 15.060174
Al 13.5761823 22.5599097 7.28154544
Al 19.9404683 20.9334175 4.96773103
Al 0.701026891 6.86555772 9.07001324
Al 18.3192802 27.1667644 8.86195384
Al 21.0970902 29.981552 28.0742163
Al 32.6042766 17.6157789 24.1297855
Al 21.6387152 7.90745236 16.4598976
Al 2.70868167 33.1454086 32.7806109
Al 1.73827126 11.3093673 8.89156074
Al 30.7961947 5.40881198 25.1459825
Al 28.581589 6.95969084 20.6458002
Al 19.8843013 8.95073627 1.96286114
Al 32.9113394 28.4169455 29.679295
Al 27.4908524 18.1763679 11.7731397
Al 9.23799983 32.1395624 22.4783741
Al 23.1983844 11.0909998 6.99143546
Al 28.7055299 2.04604116 15.5964838
Al 18.6168463 29.1142856 12.7847825
Al 21.0502942 23.1089764 10.019666
Al 30.0872162 17.6877356 28.9951043
Al 31.6763029 16.6528702 9.76128108
Al 3.70983844 9.22138478 4.9151936
Al 6.27143317 29.5996755 6.80547163
Al 1.43848836 13.8579521 16.0290061
Al 28.5129686 28.519506 0.338728041
Al 4.41357599 5.44719208 12.4517913
Al 29.018924 17.902787 5.36511998
Al 23.1963885 24.6713603 5.97866671
Al 11.118323 5.30598011 9.69639655
Al 6.18029091 21.8338107 15.4195731
Al 1.87001716 4.17614302 5.09332628
Al 32.8188101 29.7434169 20.6832806
Al 19.2290079 26.3682695 19.3220003
Al 7.52402106 26.1293625 19.9251079
Al 12.211423 22.5488412 20.6170411
Al 26.8509511 21.3435839 7.66675663
Al 20.7326648 30.7292741 4.52646278
Al 27.5860254 14.569317 1.31019143
Al 14.0363966 28.4215803 13.7065414
Al 7.09435247 9.26037504 14.0359956
Al 13.9050118 17.9816991 12.2065712
Al 5.81132756 27.407225 8.51230231
Al 12.4290072 12.5495829 21.9381939
Al 22.6914571 21.3407338 14.1735949
Al 12.7391566 28.6818987 24.4822159
Al 22.5195506 13.194942 25.9432619
Al 23.1706311 18.4700409 5.0030976
Al 20.1425729 12.8330262 10.9878894
Al 29.5102556 13.3148171 25.4822837
Al 19.0275782 5.23639246 32.7550155
Al 24.1886834 13.7274405 28.091897
Al 0.906877424 22.9732072 10.9651318
Al 18.8781854 6.32091477 26.629511
Al 16.3662661 29.4887231 24.6080101
Al 25.2163944 19.7158347 9.2365374
Al 15.0062406 14.952874 27.7561689
Al 15.0008389 19.9895017 13.9468635
Al 4.16073107 5.22181709 15.8764858
Al 23.2371164 29.1328178 32.8797269
Al 1.32480021 32.9213053 24.9494781
Al 7.96000486 7.16939012 18.876172
Al 32.947673 7.80127659 0.746723072
Al 21.3620535 30.680478 12.5820923
Al 21.0556834 20.9462969 7.56398267
Al 12.2908247 18.8718842 17.5853963
Al 3.99546187 19.589172 26.5106107
Al 7.15045353 22.7661031 9.40917696
Al 15.3954596 14.5135415 30.4699865
Al 18.7151808 20.0671661 2.566538
Al 5.25758639 15.2011832 11.909243
Al 16.2967677 3.66699615 13.4285241
Al 12.2126845 29.1819087 15.4543876
Al 23.1572692 22.5935625 11.9887856
Al 20.1587252 23.0636851 21.8846685
Al 25.9798291 32.2305049 24.0123188
Al 26.3960422 31.6713686 20.9276441
Al 32.4060044 18.9993882 10.8856619
Al 26.9056118 21.8906866 3.43878598
Al 10.4897359 30.301089 17.7492228
Al 17.7404413 11.294874 26.0768412
Al 21.6585965 28.5927363 19.4715666
Al 18.5186333 25.2299724 22.0975151
Al 2.78197358 18.1840462 7.96163646
Al 3.71799803 20.6000768 16.6623872
Al 10.0484143 24.9279291 20.6852095
Al 22.7395301 31.9594164 14.6197092
Al 6.18303785 17.6388448 12.5588331
Al 6.47907965 11.0826435 30.2007892
Al 0.859232498 0.421726846 28.1685613
Al 14.6409011 16.1179297 24.257217
Al 25.9871726 18.7123687 25.56253
Al 20.0457765 2.27173098 1.45426269
Al 19.8794173 33.0574451 19.0607486
Al 30.6805745 8.31760909 31.6520036
Al 27.8205068 20.7337293 10.8648044
Al 26.137239 12.0120137 19.1172463
Al 30.4302256 18.2524505 25.8103228
Al 24.7868364 31.0511731 25.8661125
Al 3.93992285 0.861900262 6.8226945
Al 8.31118297 4.8137283 9.8223154
Al 22.5911811 25.7886312 1.89931416
Al 13.8140503 7.18226015 10.0830457
Al 0.402293392 21.4996136 32.2470509
Al 30.9680029 6.9392371 13.6610345
Al 17.5691749 23.4297693 1.26925386
Al 14.0299902 31.2094357 9.21543752
Al 1.88511058 26.6647653 20.406773
Al 16.7349376 28.3490425 7.02030936
Al 20.3496781 27.2936073 32.7309964
Al 25.9521265 24.9131875 5.80903301
Al 9.75523193 17.3179218 20.4787649
Al 26.1524668 29.9526197 28.1076191
Al 15.0969988 11.3303939 25.3591048
Al 10.7513166 20.521127 18.9454464
Al 12.3176431 29.2116877 5.43158284
Al 1.10234861 9.27209675 5.04967432
Al 13.0003381 6.93421515 16.4678101
Al 20.0034038 25.2715541 6.60410357
Al 15.3921504 29.9408919 4.69510033
Al 16.0702857 28.6564125 29.4744085
Al 15.8874941 21.5160153 8.52305001
Al 16.8427148 27.2301818 14.0934519
Al 24.4533665 15.7852627 9.08117958
Al 21.1328151 5.14196929 30.6414479
Al 25.592512 19.088006 6.41807528
Al 16.0568057 27.5109925 11.5010609
Al 2.42317737 15.3339103 13.0471988
Al 16.4117595 25.0666132 15.4767219
Al 27.3531209 10.9378633 1.28906198
Al 17.766487 3.67162857 10.7932345
Al 21.8670384 7.73057149 30.1420745
Al 24.8777916 30.4808572 0.9238506
Al 13.3990762 27.5618576 7.04451264
Al 15.9952146 18.644327 31.6108036
Al 17.6189633 9.86844962 7.08348002
Al 7.86528452 27.6931127 23.211612
Al 28.0027869 20.2099937 5.33846263
Al 6.38047107 24.9099348 7.55901525
Al 8.09534353 27.1021996 1.38314243
Al 13.9985799 6.96597801 13.8581903
Al 12.5771809 5.58345984 12.1662733
Al 23.9080204 10.8390049 20.1497532
Al 18.799402 21.4742708 32.6757608
Al 19.0584015 21.7735061 10.9075513
Al 0.307013935 24.6448688 32.2955289
Al 7.75255835 9.67677066 0.496151979
Al 25.5673801 19.0459171 28.2406861
Al 21.8530895 9.28115679 5.39903528
Al 22.2267855 24.0989114 14.5583952
Al 8.1103621 30.9329552 30.8989291
Al 7.55559142 20.13635 8.19161778
Al 15.3395362 9.45763579 27.381291
Al 0.398065599 9.15173855 10.6824544
Al 26.3605167 25.394075 19.5135051
Al 25.5331216 25.480075 13.327624
Al 16.5073729 3.26465974 26.7353722
Al 0.500113047 23.5822541 2.22812304
Al 7.29565008 3.51204161 7.54815151
Al 8.24566834 1.30676045 23.5017875
Al 30.846223 15.7377546 24.4691048
Al 17.6220877 21.5211374 30.2123766
Al 29.8771464 23.6728781 15.910961
Al 0.0640717525 31.2321645 13.6140843
Al 12.867808 9.84660053 13.3110277
Al 7.5188728 25.6017229 24.9344063
Al 23.6861625 26.7671073 4.23132729
Al 12.2785866 1.04855337 21.9510788
Al 31.1894228 1.55350789 18.0729986
Al 26.6013273 32.3687584 17.5237086
Al 28.5248996 14.6184158 9.00212438
Al 25.3890027 12.0239991 16.3225436
Al 33.091681 0.945765508 16.024054
Al 29.9728101 29.2061665 20.4158715
Al 24.926493 30.5701946 13.715729
Al 3.98713038 26.5494226 30.3511305
Al 26.4619248 9.49384454 20.9123607
Al 12.8702584 14.0784375 29.008524
Al 27.7396492 25.7233504 22.1813564
Al 30.2303909 14.7441105 1.82796103
Al 28.415447 18.6200249 27.3109548
Al 19.3731214 7.91191736 19.6179366
Al 10.2766573 10.8734218 8.29710007
Al 20.5457206 0.59619624 25.40812
Al 0.787818512 29.2713345 16.7742709
Al 19.0623651 24.205359 32.2558185
Al 24.7098158 14.8377218 25.2435276
Al 19.8809236 11.787413 13.22257
Al 25.8171567 20.3851453 23.4411069
Al 31.8138812 28.8982823 23.0928618
Al 13.8990957 1.94870384 13.4803493
Al 27.6971363 13.7307891 5.13580023
Al 0.0441402019 12.7778508 21.1679332
Al 13.9325241 23.3087022 31.8919553
Al 28.0969015 29.8780391 22.1625884
Al 13.2986293 6.96442179 19.5204162
Al 25.7647311 26.9625824 27.5111435
Al 3.31331249 14.3684985 24.9827217
Al 23.1506604 21.9347052 31.6477818
Al 13.1268617 20.5777693 12.3492283
Al 16.8309874 31.327675 26.5848897
Al 16.8733934 27.7827828 21.3015191
Al 31.867502 23.8476222 14.058222
Al 11.5481452 20.648917 7.16763352
Al 25.1328103 11.4426028 26.5253613
Al 16.7282207 6.31576227 13.9576705
Al 10.9478458 8.39246223 30.1316379
Al 2.52443799 30.3080554 32.8767305
Al 18.6105152 0.370398066 26.8922925
Al 21.4693583 27.2297787 28.2443744
Al 13.0312615 27.6696442 30.589144
Al 9.62174292 1.10025713 2.65647117
Al 23.1681744 0.834067753 7.46830756
Al 3.29298791 31.5906986 19.6533341
Al 1.71409428 27.2166253 9.54781233
Al 1.68364929 23.2669102 27.7858531
Al 15.6754062 26.5130331 8.84928572
Al 1.51019566 9.30460113 15.7822984
Al 1.59660364 31.4769039 30.5000749
Al 29.7948901 2.92744209 25.5868829
Al 23.7301556 24.7094252 20.0742452
Al 16.6596546 5.43583509 9.15708797
Al 1.79174944 7.2283772 32.5094041
Al 28.6059003 3.14724001 18.0530829
Al 31.1453542 31.583955 19.3687484
Al 31.003732 12.9541906 31.1057884
Al 12.4106536 12.9044087 24.8456327
Al 28.7174795 17.0201449 9.5825472
Al 17.1617148 13.4483114 10.3250791
Al 3.9137305 28.0349688 21.8135538
Al 18.7738321 12.6204547 8.03292266
Al 16.880473 4.68492934 6.41720915
Al 9.95920974 17.5670304 29.5015454
Al 16.1484346 32.2299831 19.8794978
Al 31.0819033 21.7663234 32.7158818
Al 9.03026729 25.6137336 15.1844648
Al 30.3494981 8.91032994 27.7512953
Al 3.24388997 28.2677873 13.6517208
Al 30.3487738 21.5671999 4.6429315
Al 32.8690197 8.1718672 28.4502243
Al 26.1588932 7.95486618 11.3054107
Al 15.2382909 7.91877631 17.872541
Al 31.7514279 0.0863560007 9.93860256
Al 8.86182185 19.5493925 13.6622722
Al 14.4534217 29.3084699 31.8065815
Al 27.5779019 20.5604738 30.2394531
Al 20.1907228 10.0822601 26.3744409
Al 26.8216392 4.4162283 32.1244432
Al 20.5790134 17.3478344 29.7843881
Al 31.6431084 11.1044791 24.1265144
Al 28.525226 19.2107264 17.3398248
Al 22.6669549 20.4022514 29.0039454
Al 32.1110269 1.15905507 3.3526011
Al 10.1895245 13.9810879 32.259766
Al 4.38581597 16.2586046 19.8081255
Al 22.9486386 10.3957377 30.79127
Al 8.10518887 23.1696491 3.27864293
Al 9.33606473 25.8959617 32.3302064
Al 1.68507225 29.4391349 4.47644024
Al 25.0014636 0.479190194 19.44146
Al 27.6558189 30.1542833 31.2874843
Al 5.16897962 2.87920132 12.2040661
Al 5.99132136 29.4370362 30.5265234
Al 6.28774327 27.4154057 28.9176275
Al 22.6228116 11.9579675 4.2805732
Al 33.1398174 3.78570554 8.24490273
Al 4.51614607 10.8805625 11.5750713
Al 6.55705685 31.8490185 14.1589099
Al 17.0532808 10.5893214 9.99159102
Al 0.664437782 15.5068652 10.8613391
Al 28.7480954 7.17307452 25.9339672
Al 22.839023 20.9370526 9.76491533
Al 27.2385795 11.8248815 24.5057633
Al 8.1382595 31.5232035 12.1703203
Al 29.0993459 8.99385287 14.8679645
Al 4.45431677 10.7175477 2.65226873
Al 9.50564298 27.853418 16.8582136
Al 18.3251815 12.4568254 3.54070871
Al 1.28136235 16.48607 20.4692432
Al 33.171701 9.42636268 30.6716657
Al 10.723019 3.29216471 28.7248157
Al 8.38158666 24.7235649 17.7156429
Al 9.15431056 0.400991172 11.3342595
Al 9.5775144 7.16768367 22.2183427
Al 29.6732778 20.9692748 16.0454448
Al 32.6165518 7.83948926 17.7617247
Al 1.29021904 10.7774837 23.2236208
Al 13.111365 21.392338 29.9359953
Al 25.099358 24.8775633 10.1661373
Al 2.68663289 12.5531501 21.2706138
Al 16.8864174 23.8342896 7.71609694
Al 19.1961804 18.2479157 13.6835027
Al 14.4109314 3.00201839 22.1995103
Al 4.87098074 25.5036 32.9086753
Al 6.6465232 28.9192113 10.6651182
Al 15.8309274 2.32925762 32.0706049
Al 27.5590262 1.24099051 25.0315158
Al 6.49034965 0.480698336 11.871866
Al 13.4523653 18.8119722 9.81831365
Al 30.4843362 17.7601085 12.0745443
Al 0.799888515 27.1393663 6.746409
Al 3.09499058 18.5398028 18.5194697
Al 28.1957596 9.68343563 29.2448709
Al 19.741182 11.9618248 1.38781879
Al 4.03476762 7.66637188 19.4973754
Al 2.2548611 10.5423352 12.2513047
Al 23.8112601 6.94011958 12.6814481
Al 27.7813142 14.9221291 17.8839375
Al 32.3170402 32.1921103 5.11909598
Al 10.3903629 33.0805816 17.6398629
Al 4.36140209 29.8955471 4.78421334
Al 10.5033011 20.1723713 21.8048788
Al 26.140069 8.9409201 13.5126223
Al 8.26939058 8.55703624 11.3991949
Al 3.69400717 18.1283154 12.9827644
Al 11.9821487 22.5766617 2.93322195
Al 22.7526737 6.97258605 32.8948316
Al 32.0199438 15.2222143 15.9822135
Al 9.93589588 17.6913116 32.2822839
Al 20.6240612 7.14823434 9.84635312
Al 11.2854341 33.1201153 26.3868064
Al 16.8474138 25.2891734 20.154886
Al 13.6767574 30.7436601 11.8767172
Al 0.961727533 11.718034 25.4760331
Al 16.9141879 12.1833521 1.04265485
Al 0.25971899 17.3635713 12.7839436
Al 27.836391 18.5581698 21.6182712
Al 17.8141518 18.9886511 4.98674318
Al 12.832952 10.8737771 7.58829486
Al 16.7525197 2.14577928 5.72439749
Al 27.3543152 0.85699177 22.21131
Al 18.9749439 17.0675621 25.1127334
Al 29.7629912 1.97056883 20.6825765
Al 5.14843144 2.632827 17.6067856
Al 18.1230841 8.53336654 30.702676
Al 11.8101833 25.0619004 32.6303373
Al 14.1419702 1.48222936 3.49066392
Al 29.4566919 21.6965149 1.81480034
Al 5.53240812 18.9222379 19.8098815
Al 4.3594982 4.42887109 4.65372853
Al 6.08560251 2.138918 5.34529787
Al 22.9789077 21.2237167 4.11380399
Al 0.187929607 15.4502895 28.7487739
Al 22.5529075 19.2863555 31.3979036
Al 31.4520935 13.4964906 28.2932833
Al 11.3381316 10.5076202 15.3744004
Al 23.1908344 7.2722168 4.74966552
Al 24.0497947 23.6680158 0.0091552203
Al 25.3613295 14.9008895 20.0363341
Al 27.857298 21.8756409 17.8397771
Al 7.71194791 12.9866036 21.3970125
Al 10.8716485 23.2156898 5.75776597
Al 5.70437995 15.0668666 8.16474967
Al 19.6299157 15.4085481 8.79940721
Al 31.458889 20.1129477 18.3700643
Al 10.6211996 5.82081444 25.2132311
Al 24.2733019 0.211950331 0.992197932
Al 32.0975444 32.8414562 24.0385678
Al 8.06140697 2.61325624 0.1966925
Al 26.3484462 8.76266413 0.217634087
Al 11.8526783 15.9468053 17.9418074
Al 29.2497063 27.8620681 3.99322207
Al 10.5853329 1.36296712 32.9474145
Al 28.9839217 21.21936 22.6858483
Al 7.53632565 25.7068614 3.57478075
Al 6.98544241 20.0162766 24.5210654
Al 8.7329443 11.0290974 28.214993
Al 11.9736041 17.3004175 25.0291558
Al 5.98040294 12.7218662 25.1832681
Al 5.57974577 24.8546058 5.13120431
Al 29.4594465 17.6295654 19.298559
Al 30.5420491 30.9087642 13.7736683
Al 32.9436466 22.5526526 18.061167
Al 22.5538563 10.5714054 25.4466935
Al 7.82383477 22.5968737 29.5492464
Al 26.7784954 4.56789622 22.4064876
Al 6.96841467 29.5497701 1.73917442
Al 26.4179584 26.7152292 4.04311191
Al 15.3253862 14.242725 0.894716156
Al 22.208154 6.55711232 7.59421077
Al 26.1052324 5.95753773 14.3742949
Al 31.0866908 28.8675476 17.7586148
Al 2.32618451 21.8227551 25.7142193
Al 24.474484 29.4730758 4.27909447
Al 17.6806052 8.55587059 25.6962446
Al 29.5153215 30.1331804 2.5280483
Al 19.892158 28.2569111 6.23366432
Al 11.3554231 3.18360616 13.1655329
Al 31.4713164 24.203569 0.798928547
Al 32.260571 10.0835727 21.6063933
Al 1.67046944 13.6438621 2.26458835
Al 28.1426788 23.1458051 5.31578954
Al 23.421991 29.2056696 17.2470976
Al 32.0331087 0.579567885 20.893927
Al 1.53749237 25.3696885 23.0458329
Al 1.55090051 32.3268711 16.7965656
Al 32.7371109 17.5117236 27.2367368
Al 13.4869772 17.536434 3.67649103
Al 19.9787511 19.2367414 32.1746026
Al 2.29727742 15.9149523 18.1003636
Al 23.2014017 31.3399519 31.3696265
Al 16.8338484 1.6237293 8.7808478
Al 19.3428291 15.8150006 16.3616195
Al 2.11174728 13.9066138 30.3816067
Al 2.24714371 5.05528614 8.01525919
Al 24.2408733 32.7245592 22.1343628
Al 17.250174 26.7624946 23.8850978
Al 11.7994502 30.4616141 26.2841905
Al 6.44667155 27.0098551 14.7761948
Al 25.1396834 27.5087017 14.8588283
Al 2.14267549 16.5986347 23.3681196
Al 20.2465519 26.9578267 23.2781419
Al 5.55329482 28.0656865 32.9320466
Al 8.47825114 10.7467242 6.06083882
Al 31.4636207 6.64096544 2.80245515
Al 26.6637926 21.5391791 15.3516877
Al 4.09728997 0.148696223 21.6212197
Al 4.24239372 12.6097622 28.5503967
Al 28.3204941 23.8974593 25.9395847
Al 31.952822 16.3811237 19.6135948
Al 25.9180697 16.6557091 15.753648
Al 32.7146842 8.92816502 7.50349311
Al 30.4361337 10.1060218 10.8759626
Al 15.4668819 20.6892787 23.9989731
Al 4.06273202 27.8557487 16.2571379
Al 24.0124077 0.994045434 4.97037738
Al 12.5548229 18.9362602 14.6538523
Al 21.2943161 21.2107812 0.617875126
Al 5.92599472 1.85058228 25.2189896
Al 28.4735736 6.17636656 12.6213257
Al 30.0058238 8.85612197 22.5313929
Al 31.6553886 29.9135316 1.05787129
Al 27.5564846 18.8543426 32.5732504
Al 30.4547333 14.8343444 18.1186626
Al 32.9338578 25.9934302 12.9667392
Al 12.0514272 25.9005281 26.8102173
Al 29.3501746 32.0150056 27.9783341
Al 31.534138 26.684099 5.52703862
Al 16.9596105 28.4504634 26.9960674
Al 25.2314377 33.0208912 14.973264
Al 1.52112469 5.37168612 13.2274162
Al 25.938463 11.6800376 22.073383
Al 16.4419019 22.3660091 3.62558754
Al 1.4209324 19.8757249 3.82029649
Al 12.152176 13.2933209 14.7292849
Al 8.26960232 13.695806 6.18791571
Al 7.9369898 12.4055775 31.8137707
Al 15.1663571 29.5083958 0.803410863
Al 27.5851214 31.1147693 25.5381191
Al 19.3890258 28.4100972 20.8816421
Al 12.2554345 4.94764279 3.28584271
Al 28.7939862 31.3424642 12.1714478
Al 29.5142082 33.093981 17.40004
Al 10.7012368 29.5801026 3.43987556
Al 4.83400327 16.7611956 14.9149118
Al 6.3561858 26.3616022 12.2889428
Al 27.9209909 26.4826534 1.71301337
Al 27.9645609 23.9228637 7.93214507
Al 21.2331248 22.869114 16.3364794
Al 17.3323733 10.6707318 13.653428
Al 17.1387587 13.5566934 13.9468669
Al 30.972988 6.01013757 21.8647447
Al 9.88225866 20.4633946 9.61701698
Al 10.5264853 14.0150444 11.5992556
Al 30.8324427 5.00605428 8.66818488
Al 1.63335746 31.7264699 6.50676893
Al 25.8271926 3.087851 4.14752094
Al 30.0768455 28.1473719 31.2017615
Al 22.1508815 9.11832252 11.2872503
Al 20.3383315 31.5472754 23.8318118
Al 21.5220704 19.4128134 2.86054401
Al 18.1263495 16.4838202 28.1996043
Al 28.7168197 16.8356248 15.9877937
Al 22.868213 3.44115086 28.2710266
Al 16.5228611 16.5018831 0.215663801
Al 23.7485795 30.3114141 20.8312569
Al 21.3248003 22.3739299 27.7042152
Al 5.3146396 24.2037433 24.3715646
Al 27.6776097 1.50050848 7.51281368
