frame 0 of H_liquid_817.75/prod.xyz

2048 atoms
1 atom types

0 33.21232000 xlo xhi
0 33.21232000 ylo yhi
0 33.21232000 zlo zhi

Masses

1 26.982

Atoms # atomic

1 1 8.363398 0.007580 5.123706
2 1 1.450157 2.495405 20.567919
3 1 20.818897 26.975388 9.442009
4 1 5.031188 29.476889 23.510675
5 1 13.784640 27.666693 19.717947
6 1 23.432442 4.018790 4.947353
7 1 16.383942 4.901213 29.201099
8 1 0.907262 24.975030 18.655266
9 1 15.496034 9.122800 13.723679
10 1 5.429404 24.172190 19.866451
11 1 17.980545 31.929172 12.417030
12 1 19.000869 25.891813 28.483034
13 1 25.648808 27.153165 17.772785
14 1 22.239840 23.310190 1.730875
15 1 4.619908 22.553735 9.867447
16 1 12.090574 27.053426 21.810421
17 1 5.803025 19.462508 14.545880
18 1 0.029066 7.697443 20.700224
19 1 13.056172 27.008613 17.196389
20 1 13.050128 24.327468 16.593651
21 1 5.697927 2.823620 22.617108
22 1 28.135072 3.342699 11.253779
23 1 9.226643 15.204032 28.600599
24 1 13.795241 9.224573 15.588612
25 1 29.718690 15.191080 11.477950
26 1 6.342977 9.960000 4.595712
27 1 2.809519 9.676636 25.096881
28 1 26.531682 7.325325 5.048978
29 1 21.432135 29.044920 24.559684
30 1 23.649687 25.759057 29.276487
31 1 8.115559 5.022596 31.702503
32 1 0.063805 31.978259 0.167833
33 1 30.113105 12.637723 13.188476
34 1 8.566600 21.303249 4.992959
35 1 7.440455 27.146687 6.067815
36 1 23.692883 0.786256 28.660858
37 1 4.358643 31.522095 30.670289
38 1 32.780214 29.655242 6.156600
39 1 30.619127 8.054515 19.723823
40 1 19.661165 9.232202 12.282630
41 1 10.339255 22.777919 23.600185
42 1 3.533876 5.713562 0.737422
43 1 5.381685 23.670675 2.886352
44 1 11.863984 2.688573 2.110210
45 1 23.679487 30.006969 11.446942
46 1 8.901138 11.951151 19.217587
47 1 27.158464 10.665644 11.010072
48 1 32.328949 15.598493 22.222739
49 1 7.776952 2.578777 16.353111
50 1 30.171102 7.534615 7.531098
51 1 6.556649 24.432041 15.504109
52 1 28.290071 16.156558 26.121820
53 1 32.649198 19.002155 15.764598
54 1 25.889661 14.353440 6.822919
55 1 23.993099 8.281475 20.976904
56 1 28.296252 14.418416 28.916107
57 1 13.990754 17.882295 27.022377
58 1 31.701171 19.621559 3.743436
59 1 8.499214 11.418427 24.202071
60 1 7.337800 3.243341 2.905700
61 1 10.900579 13.505285 27.046760
62 1 10.520378 5.564617 17.102376
63 1 21.166039 28.001260 11.708120
64 1 6.155267 9.597726 10.077961
65 1 21.729032 31.414153 18.943013
66 1 12.673912 19.952330 20.406324
67 1 27.635358 9.265931 6.943810
68 1 1.088865 23.807059 7.974191
69 1 20.481058 21.728811 24.115653
70 1 23.850048 18.304234 24.128967
71 1 15.013405 9.292785 8.453696
72 1 24.175507 8.503133 15.224514
73 1 15.799487 13.811875 25.376451
74 1 5.142803 17.161568 9.957290
75 1 29.668648 27.209216 22.190334
76 1 8.526929 6.664613 14.624965
77 1 7.807971 1.256093 18.755166
78 1 10.559154 13.024213 16.656996
79 1 18.750223 10.642490 29.330275
80 1 7.273777 17.699810 31.376881
81 1 14.207672 11.759958 9.850565
82 1 18.722099 19.945768 24.841333
83 1 12.973330 12.600502 12.285514
84 1 23.827470 4.614448 10.505938
85 1 21.317520 5.952351 28.149860
86 1 13.328251 30.300587 17.643052
87 1 10.697501 0.958907 6.857887
88 1 24.390225 16.567554 6.376560
89 1 20.068382 14.632032 31.013399
90 1 2.713985 29.259833 6.972493
91 1 1.275646 13.470434 27.798863
92 1 16.053357 30.733055 17.603752
93 1 9.723614 31.358650 14.724950
94 1 17.557870 7.308554 6.018738
95 1 8.756921 26.328988 12.777160
96 1 18.879946 6.257332 29.848289
97 1 10.937059 16.855004 13.062993
98 1 3.353305 7.165702 3.523163
99 1 5.593947 29.607152 18.602074
100 1 14.874030 29.782256 19.875150
101 1 18.098192 8.436561 14.218248
102 1 17.524462 8.025293 8.990412
103 1 30.783993 3.347910 4.011196
104 1 26.139622 19.161234 14.373959
105 1 18.991173 3.402808 7.514976
106 1 26.250528 26.407824 8.397928
107 1 21.274669 16.578392 22.290779
108 1 8.511101 22.272639 16.991209
109 1 29.026555 19.158750 2.955996
110 1 14.920582 22.586364 11.848532
111 1 9.871704 8.084658 16.643280
112 1 24.919706 2.979642 6.874788
113 1 10.379583 24.387556 28.404355
114 1 30.763891 24.436118 8.798525
115 1 5.342800 14.069413 22.843137
116 1 26.414215 17.511332 4.447657
117 1 28.004375 13.012109 21.013794
118 1 29.617191 12.157820 9.679631
119 1 30.469485 12.715662 5.576674
120 1 8.125410 18.781755 10.944420
121 1 21.564624 16.543358 32.170589
122 1 25.450478 5.012055 27.046733
123 1 11.104292 15.663228 4.443338
124 1 20.513156 24.745746 12.181130
125 1 2.112682 5.216405 26.257915
126 1 25.602075 18.378930 31.106851
127 1 8.864325 15.490341 16.806647
128 1 4.590246 6.588310 31.364475
129 1 12.686761 4.097867 15.341418
130 1 32.699532 6.633498 30.610910
131 1 20.286559 17.166946 19.008303
132 1 32.395105 20.287856 25.379051
133 1 15.071851 21.106829 21.165392
134 1 17.923653 28.474949 32.183338
135 1 14.712518 22.603242 25.704456
136 1 16.934955 10.144378 23.410268
137 1 24.079843 8.094233 25.591176
138 1 5.440817 6.355144 17.813302
139 1 25.165486 12.545798 13.774210
140 1 5.296607 30.959255 25.889787
141 1 26.631587 29.668720 15.963368
142 1 27.402251 26.269326 15.897582
143 1 2.142251 11.650339 4.011297
144 1 31.093227 31.101207 22.060028
145 1 18.806645 14.930943 12.431257
146 1 32.345215 25.715197 24.071891
147 1 0.298760 18.097471 18.356221
148 1 32.562162 18.058941 29.836755
149 1 4.451053 3.391439 7.246935
150 1 28.519425 26.452082 12.710589
151 1 3.746683 28.146979 25.908926
152 1 21.113833 18.788598 24.203216
153 1 24.564494 20.671404 26.014198
154 1 28.843943 3.486667 8.641893
155 1 19.301692 19.135323 17.532922
156 1 5.200768 22.368712 30.323090
157 1 32.142550 26.588619 21.479970
158 1 26.235534 14.214825 22.866664
159 1 25.610729 32.481817 3.327651
160 1 19.325885 28.388206 1.740623
161 1 32.117366 31.235893 29.622963
162 1 12.320222 33.028277 15.868766
163 1 0.585881 11.418830 1.657137
164 1 25.002731 23.714947 30.511670
165 1 0.038198 20.698168 9.009925
166 1 21.018692 25.958548 30.682050
167 1 26.865441 0.573264 32.959897
168 1 21.482224 19.401024 21.854437
169 1 6.509127 3.131563 29.881639
170 1 2.871158 23.115024 18.172900
171 1 23.705956 7.591638 9.913135
172 1 4.542831 10.278346 14.010968
173 1 12.660227 26.771812 4.213296
174 1 31.556755 21.562507 11.146859
175 1 8.461487 16.582687 12.298943
176 1 22.044594 10.376746 14.069471
177 1 1.501799 6.525406 16.194149
178 1 5.421482 24.933500 10.417010
179 1 5.068536 12.550026 19.862882
180 1 17.462966 16.161117 14.926975
181 1 13.792664 13.726499 7.702180
182 1 25.475830 17.594858 21.264792
183 1 10.477699 8.463448 24.294522
184 1 25.631046 29.651337 22.941947
185 1 7.421306 30.655827 23.668850
186 1 17.081806 5.725987 16.800806
187 1 12.649377 3.858775 32.170621
188 1 30.896932 12.595020 20.132739
189 1 12.950103 1.858837 28.159032
190 1 29.868701 21.027470 25.946774
191 1 22.779040 22.301355 21.268184
192 1 18.861689 28.382384 29.079875
193 1 8.542527 9.402118 20.501023
194 1 4.291615 12.324049 31.151016
195 1 25.892865 21.506104 13.039770
196 1 21.112629 25.512079 21.199241
197 1 19.556168 1.783619 4.239164
198 1 30.854652 17.242628 2.737597
199 1 27.649858 8.316273 18.649641
200 1 8.553163 1.779088 13.880313
201 1 9.968013 25.661119 23.311163
202 1 12.797411 20.104424 2.522126
203 1 27.746538 32.516707 30.110082
204 1 15.469678 21.298907 31.562281
205 1 8.344278 28.838005 18.809742
206 1 9.458637 3.929760 23.059022
207 1 30.701995 2.604794 10.289609
208 1 4.272414 25.681337 13.962855
209 1 2.888915 8.877123 10.325442
210 1 1.231924 32.984210 21.919826
211 1 2.961376 20.829958 28.666369
212 1 29.926419 15.022585 20.969182
213 1 32.621186 9.318780 3.072674
214 1 29.977083 7.223966 16.720294
215 1 20.338644 0.271472 12.332403
216 1 28.825338 32.217124 23.705127
217 1 29.647392 9.476873 25.023320
218 1 27.029108 21.754241 21.162802
219 1 24.284981 31.864351 17.603750
220 1 31.302798 20.006179 13.401679
221 1 14.548635 5.533800 21.138920
222 1 19.129010 4.140522 5.036830
223 1 21.867800 16.226816 7.704312
224 1 2.080808 8.922368 7.917585
225 1 32.098340 31.355122 16.968631
226 1 24.933661 18.659760 0.413295
227 1 6.882652 6.198909 12.017259
228 1 15.392235 22.824197 17.181660
229 1 9.080191 6.566008 29.803146
230 1 11.722960 23.241176 11.597862
231 1 24.941172 27.734208 6.449739
232 1 19.990891 12.639822 27.504133
233 1 12.941822 31.430732 4.011616
234 1 29.301646 0.132777 32.426567
235 1 32.485220 24.866066 16.664480
236 1 7.951625 26.376826 10.160696
237 1 20.616938 24.998604 4.014053
238 1 1.688996 10.240603 20.145959
239 1 22.059493 3.958886 16.238530
240 1 28.927842 24.234433 0.181488
241 1 23.364923 31.542727 3.186983
242 1 30.642787 15.471624 5.300728
243 1 19.148934 4.241282 22.731058
244 1 11.834824 29.431903 10.582293
245 1 20.650857 31.734227 7.173132
246 1 21.220750 19.732144 19.263235
247 1 32.226301 21.740917 15.540875
248 1 27.611951 27.813521 29.362336
249 1 21.646724 31.277288 26.058272
250 1 13.126168 6.897665 31.530100
251 1 26.676341 7.844776 30.381268
252 1 9.877472 3.885583 7.349058
253 1 14.266381 2.118112 16.751396
254 1 4.893246 1.236023 30.518195
255 1 25.627826 22.304548 5.429084
256 1 31.287691 23.995323 3.640651
257 1 28.851057 28.547611 10.973936
258 1 0.768500 27.070650 3.759600
259 1 0.928494 31.119553 19.046933
260 1 12.208931 25.068479 6.390552
261 1 16.875381 10.686479 20.878573
262 1 9.768591 5.799444 12.167131
263 1 7.776367 2.460031 21.014467
264 1 24.903520 8.296797 2.834300
265 1 6.017823 8.617590 2.435369
266 1 21.756603 0.890519 9.909533
267 1 16.484245 21.019656 5.867646
268 1 18.249709 23.209205 5.463123
269 1 5.380270 22.947648 22.184266
270 1 9.571229 17.275490 23.287606
271 1 22.433357 23.524784 29.818737
272 1 14.422380 8.947095 20.401645
273 1 12.937430 15.268346 11.808337
274 1 0.573433 18.096913 8.928029
275 1 17.464100 21.464238 16.582150
276 1 0.420209 5.442166 1.166602
277 1 7.552694 15.368306 10.109689
278 1 18.659312 26.671974 11.458607
279 1 5.473507 9.833633 25.116872
280 1 31.762938 31.093501 11.509545
281 1 1.903012 12.562301 13.847060
282 1 9.431458 15.012598 22.001006
283 1 22.012167 16.184732 1.472736
284 1 2.322513 30.244499 21.730712
285 1 30.992638 28.424507 12.989643
286 1 10.906699 5.731567 31.483935
287 1 8.471885 22.637243 14.261675
288 1 4.211951 29.371725 9.320369
289 1 7.615625 30.537803 4.278108
290 1 31.050120 17.281172 14.644355
291 1 17.264202 13.244202 5.892848
292 1 4.846569 17.351769 28.657140
293 1 23.076458 32.670823 12.174612
294 1 22.132840 22.145650 18.767418
295 1 14.470565 30.848869 23.490118
296 1 15.025183 10.726295 18.075316
297 1 8.585205 6.262171 7.698162
298 1 21.499214 30.608274 16.320348
299 1 14.204447 4.248237 27.512914
300 1 13.661997 29.975218 29.125923
301 1 15.589626 4.384630 18.676770
302 1 3.729729 8.242101 16.346228
303 1 24.023903 25.648079 15.730409
304 1 15.040887 23.324575 19.809056
305 1 12.570934 26.142277 24.271304
306 1 13.741669 21.464413 4.800426
307 1 23.222547 2.567272 30.694760
308 1 23.429455 1.300033 13.852959
309 1 15.589678 7.553962 22.638706
310 1 12.689545 6.960147 23.904769
311 1 30.455057 5.137037 18.492538
312 1 32.022338 21.589607 29.963563
313 1 25.865533 24.133053 17.056224
314 1 32.230473 21.413853 2.034117
315 1 9.525314 4.887416 20.537098
316 1 10.843428 9.888850 32.352101
317 1 29.320226 3.914924 32.817602
318 1 6.786827 14.474157 19.209256
319 1 4.427236 9.096279 30.991021
320 1 20.366712 31.022322 30.437500
321 1 19.502726 27.396784 26.102209
322 1 5.252328 26.666156 2.148843
323 1 0.728726 19.016580 6.547407
324 1 6.741348 12.691228 4.080671
325 1 9.874818 9.310097 13.209658
326 1 21.514072 0.135284 5.260519
327 1 4.200280 0.003868 16.332352
328 1 11.087379 19.706608 30.533488
329 1 31.466532 5.178550 6.172281
330 1 7.897258 23.936818 22.395731
331 1 20.304750 18.104062 9.230152
332 1 31.827479 7.796104 5.175072
333 1 4.426446 19.892686 10.309396
334 1 27.679918 6.099688 7.160590
335 1 14.788542 18.856214 0.853338
336 1 30.181137 2.709262 13.102149
337 1 10.837086 2.092895 16.293069
338 1 32.665005 11.058918 5.378909
339 1 29.202556 32.715448 20.951327
340 1 29.077707 11.258105 22.828449
341 1 10.580510 7.426807 19.357889
342 1 12.913450 19.498777 24.800680
343 1 24.127246 8.159147 31.051189
344 1 12.831982 4.563421 18.260772
345 1 27.824069 29.244231 13.441512
346 1 15.829959 31.746368 29.175303
347 1 6.956946 8.051220 16.340840
348 1 23.424861 2.918088 25.360622
349 1 8.171545 17.396828 8.628625
350 1 13.227122 18.530139 29.764934
351 1 4.056127 21.366053 2.566891
352 1 7.745087 1.030692 28.157368
353 1 30.639233 5.079811 11.572921
354 1 2.593752 14.586601 5.055921
355 1 18.670244 19.997546 7.657000
356 1 16.116056 14.298793 16.594326
357 1 11.204893 25.071513 13.276210
358 1 17.075846 19.292967 15.242214
359 1 6.758373 15.093843 14.492709
360 1 6.819561 18.337659 21.968221
361 1 26.169472 28.140675 33.075906
362 1 11.126971 10.358512 20.487099
363 1 4.951782 8.066883 12.110164
364 1 16.709507 17.979337 24.280536
365 1 32.022063 14.777099 12.868510
366 1 15.249310 23.090868 29.033416
367 1 20.787555 6.379213 4.920327
368 1 14.768207 30.206665 7.110162
369 1 21.574933 26.037911 25.423292
370 1 7.571812 2.186189 10.054061
371 1 10.215061 12.970639 23.416110
372 1 29.735439 29.181618 7.633127
373 1 1.825983 7.417867 24.704137
374 1 30.161440 9.803150 17.863925
375 1 8.332275 8.277134 5.500380
376 1 0.792343 7.249376 3.540070
377 1 32.260320 7.888644 23.416906
378 1 8.123986 23.652259 31.727930
379 1 18.906761 30.946643 2.605174
380 1 31.839047 27.661275 15.604322
381 1 6.653548 18.427052 26.936172
382 1 32.406402 10.553114 19.068938
383 1 17.902330 2.765952 0.276890
384 1 27.683382 11.268591 5.074960
385 1 17.406542 13.501528 21.108302
386 1 29.876542 25.831005 24.669439
387 1 1.779903 17.267050 3.723906
388 1 12.539094 9.926881 4.754446
389 1 7.557788 28.958417 13.413096
390 1 13.160863 15.427252 1.841993
391 1 16.189851 23.368807 22.319774
392 1 28.492397 19.144789 7.791164
393 1 4.384922 10.331273 8.303592
394 1 6.958465 32.891272 21.241234
395 1 11.305424 10.396713 23.140484
396 1 17.563057 16.042955 30.825433
397 1 32.863123 11.904584 29.712972
398 1 22.599223 3.862762 8.153140
399 1 3.407475 3.505407 10.153308
400 1 9.224734 7.362330 32.937024
401 1 28.597558 26.447347 26.868722
402 1 23.821182 1.116925 16.810244
403 1 11.253674 6.117570 14.376390
404 1 4.084501 8.343109 0.455711
405 1 25.353210 9.696329 5.019553
406 1 4.730976 16.829326 25.313117
407 1 3.942745 14.224918 15.152881
408 1 2.047698 27.544262 17.914538
409 1 1.033734 13.792408 23.520287
410 1 9.714025 11.836917 13.924375
411 1 0.974190 11.240541 17.390120
412 1 10.071220 2.869697 10.711168
413 1 6.572238 28.501036 21.136415
414 1 26.625165 21.611097 27.931890
415 1 12.001255 11.851138 31.232563
416 1 9.148032 10.191481 30.677268
417 1 14.328070 16.473594 31.730671
418 1 27.634611 23.279458 30.566397
419 1 2.936195 29.197308 19.524491
420 1 31.626047 1.279463 32.770930
421 1 24.343257 14.308843 11.717841
422 1 21.890741 4.509819 0.496153
423 1 16.699069 3.777150 24.015187
424 1 16.948270 23.441817 10.303621
425 1 25.155202 32.113398 29.790487
426 1 12.753091 16.211012 15.581557
427 1 23.154114 13.899093 6.055340
428 1 29.981750 19.454284 9.777275
429 1 5.358804 15.449721 30.733411
430 1 10.357563 29.240889 23.411953
431 1 29.398677 22.151250 13.268489
432 1 12.887980 29.133067 2.548768
433 1 2.209486 7.927967 29.858505
434 1 25.880414 13.069186 2.435179
435 1 23.288568 6.310641 15.341826
436 1 12.766034 14.330254 32.790873
437 1 15.670832 7.624015 31.384648
438 1 28.479748 15.277519 23.049390
439 1 28.572650 19.027849 24.285923
440 1 8.821654 28.630797 29.364859
441 1 6.854200 13.604754 28.981461
442 1 18.934884 31.223982 17.254885
443 1 4.821913 26.991250 19.497746
444 1 9.401876 2.779650 30.984275
445 1 13.038491 8.881124 28.783822
446 1 15.641989 0.993833 1.490766
447 1 21.895370 11.488063 9.640356
448 1 11.849594 0.091801 2.035994
449 1 12.770170 9.345942 18.330481
450 1 9.142753 27.634429 4.031291
451 1 30.936765 9.800176 13.238108
452 1 4.446679 23.255029 27.172054
453 1 30.177170 1.237035 23.294276
454 1 29.457351 31.076866 9.583355
455 1 0.526538 29.173406 25.668651
456 1 22.632767 24.655357 8.575368
457 1 1.602000 2.147225 26.390089
458 1 11.403346 21.397177 26.013249
459 1 0.417459 20.440244 27.614702
460 1 30.499588 17.651216 21.887246
461 1 7.187645 8.619186 31.153169
462 1 2.534750 27.892173 27.980481
463 1 3.451135 30.232846 17.156063
464 1 24.113717 19.991754 21.219824
465 1 2.766402 24.663882 9.754245
466 1 25.575375 22.075694 10.582232
467 1 1.912396 21.462388 6.296625
468 1 2.820937 14.873549 21.817582
469 1 1.753420 26.077015 15.758809
470 1 14.330313 3.133007 30.063317
471 1 31.657081 12.514103 17.384345
472 1 17.094280 3.584059 20.836950
473 1 23.773560 28.223420 1.966020
474 1 16.207685 10.726740 4.892362
475 1 16.466898 9.253596 16.241458
476 1 20.861254 32.702881 2.677251
477 1 28.300131 2.389736 4.037009
478 1 17.738066 6.267315 23.680044
479 1 0.214107 8.670934 13.617688
480 1 30.275919 23.732586 31.002208
481 1 27.110900 28.991861 8.971466
482 1 11.303378 1.728473 24.443699
483 1 27.571027 0.931824 19.584043
484 1 6.364414 12.397092 14.670510
485 1 10.143743 4.001300 0.174723
486 1 15.668353 10.012765 0.144343
487 1 8.596072 14.032486 1.285816
488 1 31.975527 13.257013 0.514124
489 1 2.631484 4.643372 17.926674
490 1 6.211343 31.728979 17.067456
491 1 3.988446 11.942538 26.304975
492 1 17.486968 7.771859 0.399998
493 1 16.663118 18.376738 12.848413
494 1 7.116947 24.611860 1.008656
495 1 26.421240 3.799121 9.094281
496 1 0.484050 23.481616 25.418988
497 1 11.396696 10.668746 2.811091
498 1 7.806230 3.718057 25.185720
499 1 15.665848 11.891261 7.665251
500 1 4.839261 3.310586 1.840534
501 1 8.231867 31.493604 6.975671
502 1 26.007481 1.593466 30.645056
503 1 18.759528 0.099990 30.278791
504 1 5.601017 25.948571 26.854278
505 1 32.241268 13.642404 25.494643
506 1 13.660240 20.747252 27.051939
507 1 1.775510 0.484937 14.424544
508 1 5.147945 5.322564 24.137598
509 1 19.598415 25.489398 1.557013
510 1 11.598745 0.001344 9.329317
511 1 22.354615 14.964677 20.448957
512 1 4.543540 21.212781 5.246826
513 1 12.736481 31.956141 31.282377
514 1 22.797457 8.577759 18.867105
515 1 25.227410 6.096690 0.432734
516 1 7.761561 9.143282 23.209137
517 1 26.242049 25.241361 32.610352
518 1 0.182324 24.623180 5.491428
519 1 32.781495 14.785751 31.696902
520 1 15.200925 32.714561 13.165118
521 1 5.554736 7.022702 4.742491
522 1 23.764807 25.312340 26.376959
523 1 2.314390 29.638537 11.753183
524 1 17.864444 18.503830 19.435684
525 1 21.177279 2.275170 23.284548
526 1 15.982628 29.980508 12.601071
527 1 29.814141 0.158910 25.862686
528 1 16.397608 0.753261 25.332528
529 1 21.341926 5.375784 12.334742
530 1 5.748075 4.571365 9.845243
531 1 9.536549 14.816222 14.473253
532 1 29.141344 28.269874 15.310653
533 1 29.593712 5.015305 2.407039
534 1 16.678143 1.503377 17.728007
535 1 3.261177 18.768090 5.490780
536 1 26.087814 27.460167 10.750293
537 1 11.770527 32.034318 28.935021
538 1 4.803563 5.687144 21.239324
539 1 0.436530 2.898209 17.932006
540 1 15.557700 19.920193 11.058940
541 1 20.368124 12.192260 24.416959
542 1 32.637429 2.659466 5.724949
543 1 9.282503 28.303354 11.039358
544 1 28.663604 12.572367 18.373295
545 1 33.174344 14.398654 18.274999
546 1 30.374657 10.532679 29.913089
547 1 1.553207 22.832086 15.480215
548 1 5.779926 32.402005 5.267466
549 1 1.537638 32.715396 11.999288
550 1 14.806402 14.433848 10.121226
551 1 10.528928 31.308343 12.086450
552 1 31.062052 24.818467 19.418083
553 1 25.622726 16.605227 27.521829
554 1 19.193040 20.163178 20.840993
555 1 32.718000 25.485691 10.203369
556 1 6.421666 28.132513 25.499805
557 1 26.599951 14.284957 15.198470
558 1 32.298572 4.417359 13.490448
559 1 0.770578 28.185587 14.088438
560 1 13.109843 21.208693 16.006091
561 1 10.840735 0.592195 13.579272
562 1 24.230797 17.081662 2.613431
563 1 12.447297 12.280320 19.365525
564 1 2.749169 18.281163 0.000424
565 1 2.429679 30.784248 14.745208
566 1 27.818380 9.354032 3.214063
567 1 26.578613 19.965941 19.447235
568 1 9.235062 31.714972 2.654497
569 1 13.886681 4.852476 9.182868
570 1 12.431618 21.211038 9.691319
571 1 23.092988 24.942717 23.112274
572 1 10.163643 8.761502 1.523694
573 1 2.729311 5.083018 23.446962
574 1 19.521092 3.192398 12.640186
575 1 8.296017 19.571829 29.110388
576 1 1.638341 18.284642 25.622310
577 1 7.342655 17.262215 18.680584
578 1 3.667254 3.289001 25.582385
579 1 31.257822 20.156699 22.875932
580 1 5.786256 24.571818 29.316663
581 1 19.507480 21.541567 18.491207
582 1 2.937513 25.511214 5.044863
583 1 13.982466 16.870375 7.802452
584 1 14.771930 1.797079 19.900760
585 1 27.542819 17.214113 29.700685
586 1 28.520131 12.407989 7.221757
587 1 11.866981 0.717533 4.749256
588 1 26.304737 2.432162 17.556706
589 1 2.229305 26.380106 11.980161
590 1 28.146065 8.823427 9.272869
591 1 29.318503 7.421917 5.017375
592 1 13.129847 20.698205 33.119588
593 1 25.835468 2.324102 14.982271
594 1 11.828622 3.920812 26.259057
595 1 4.047364 4.276520 30.570019
596 1 22.673260 10.598716 16.617522
597 1 20.578490 9.799369 30.968998
598 1 14.386790 3.315137 0.924844
599 1 17.700306 1.036811 19.995624
600 1 20.499331 9.867997 18.563099
601 1 2.538933 23.109850 0.550253
602 1 29.036431 26.621171 7.696534
603 1 1.331584 32.261807 9.457858
604 1 26.517860 1.505914 2.221781
605 1 30.721432 27.227781 28.623077
606 1 28.566613 4.858205 30.406312
607 1 18.079260 8.228026 21.848862
608 1 22.817526 6.272020 2.366787
609 1 10.361882 8.147084 3.979956
610 1 9.836368 0.808959 20.594837
611 1 16.394384 31.685525 2.812017
612 1 26.813128 16.092716 32.324262
613 1 30.176324 26.497677 17.455243
614 1 5.285716 19.768831 0.739349
615 1 15.094534 8.789245 3.152420
616 1 17.267173 8.223841 11.543329
617 1 17.507749 33.153065 32.826869
618 1 9.786490 20.718325 2.460188
619 1 1.065176 25.613673 29.578271
620 1 9.153460 21.447491 31.292162
621 1 18.087760 3.498789 18.034435
622 1 13.965537 19.627782 6.819646
623 1 10.968840 27.058349 1.565231
624 1 7.128589 31.334654 9.645903
625 1 9.241215 29.607696 25.799012
626 1 15.070338 11.855001 15.287032
627 1 18.979360 29.931810 26.162496
628 1 19.500499 24.398816 25.270548
629 1 10.937246 23.468617 30.861850
630 1 3.014628 24.449966 25.847256
631 1 3.819286 18.685934 2.618530
632 1 29.190254 0.603167 10.296879
633 1 14.613671 27.361532 2.704929
634 1 2.295191 11.054118 30.135624
635 1 13.994490 31.891087 1.999959
636 1 22.230367 20.268126 16.574118
637 1 7.995584 5.079099 1.026818
638 1 1.780141 17.638482 28.378587
639 1 25.790462 19.403335 17.005163
640 1 5.724287 25.939033 22.238554
641 1 18.873222 31.346325 28.329429
642 1 8.239845 24.223075 5.771272
643 1 6.146031 21.647758 20.197695
644 1 7.518376 14.524613 24.369482
645 1 25.125762 19.817940 3.781021
646 1 13.025316 5.578335 0.749131
647 1 6.583412 0.728153 2.900180
648 1 29.720561 30.106380 29.303030
649 1 6.238885 32.129504 28.957056
650 1 14.847427 26.899634 25.453208
651 1 31.857755 16.375731 0.514175
652 1 16.306689 15.839689 18.868586
653 1 6.191056 14.735842 2.301525
654 1 13.149295 21.768733 23.025834
655 1 27.613126 31.743562 14.423097
656 1 6.823820 26.353323 31.572740
657 1 11.032756 11.761903 5.357021
658 1 5.422444 0.415715 19.253252
659 1 6.583277 11.961341 1.677567
660 1 20.829777 2.156349 17.816101
661 1 17.495659 16.475024 21.032146
662 1 25.222054 26.853065 22.253632
663 1 1.894390 7.871381 18.357676
664 1 10.413385 31.973606 32.722672
665 1 10.699772 25.530762 10.437052
666 1 32.151251 11.854544 7.893405
667 1 17.381082 15.450883 23.532380
668 1 32.024363 3.241523 19.981988
669 1 15.509095 17.113918 29.176981
670 1 19.256944 18.078868 22.628474
671 1 8.136557 3.510695 27.879719
672 1 4.791073 8.867646 28.360893
673 1 23.787493 27.725335 12.553702
674 1 15.857683 13.594857 3.640118
675 1 24.979725 15.246891 1.007464
676 1 0.358944 30.825478 23.310032
677 1 20.460323 22.243488 13.029345
678 1 11.970576 30.154588 7.675479
679 1 9.105031 22.240182 20.293549
680 1 28.786480 28.534155 24.529369
681 1 31.803081 10.830729 32.707609
682 1 17.556380 11.838125 16.167000
683 1 1.245840 0.572673 4.799701
684 1 14.796970 25.181852 0.406349
685 1 7.583139 0.477266 30.802114
686 1 1.664073 4.943698 31.518702
687 1 22.748759 8.326198 23.281371
688 1 14.223919 15.137484 5.504821
689 1 30.865043 6.003519 0.077465
690 1 27.601327 30.750110 4.273418
691 1 8.171384 33.046819 15.937124
692 1 23.857792 3.122794 18.540711
693 1 15.359847 1.242268 28.019588
694 1 27.710006 7.223885 1.993277
695 1 23.022725 18.936454 7.541379
696 1 6.582135 12.257806 7.340171
697 1 18.062849 22.873066 20.349511
698 1 23.408732 23.862584 17.643494
699 1 13.573913 22.908761 14.079177
700 1 3.440597 1.971359 4.260725
701 1 6.524359 7.058106 33.169743
702 1 9.161391 18.953181 6.489738
703 1 5.631312 32.770478 23.726684
704 1 8.875205 10.713051 3.298816
705 1 19.630101 10.317185 9.682173
706 1 10.452434 25.345805 3.862657
707 1 3.586899 15.580780 2.128039
708 1 30.990527 11.395940 27.008264
709 1 14.108866 11.668261 2.510328
710 1 15.337915 24.592379 24.393122
711 1 15.451412 26.948233 5.070076
712 1 17.508705 23.553943 27.948126
713 1 14.542841 7.783076 0.642263
714 1 12.255382 8.218668 21.767582
715 1 20.556066 7.454250 13.692809
716 1 19.068423 23.561816 15.098154
717 1 23.897475 13.175837 21.541379
718 1 7.954385 6.457269 24.299727
719 1 9.260679 2.476033 5.371415
720 1 14.739121 24.757386 27.117592
721 1 12.080517 27.394174 12.051911
722 1 16.298712 25.932022 28.913715
723 1 6.352592 17.604548 2.516431
724 1 9.963605 26.622002 6.236036
725 1 3.625666 0.339278 25.646029
726 1 26.166826 7.067640 21.868054
727 1 9.165192 31.966628 24.808711
728 1 29.365908 3.992069 23.175069
729 1 25.076086 10.652830 2.669341
730 1 0.023709 24.191905 21.122890
731 1 0.946137 16.474175 15.342174
732 1 16.480235 15.069694 7.949963
733 1 19.995573 10.410271 15.837274
734 1 19.323974 14.837770 19.327471
735 1 0.128075 5.105204 24.201633
736 1 5.485544 7.139594 14.390267
737 1 17.883379 14.403849 32.767589
738 1 6.523881 21.583400 27.360424
739 1 4.716572 16.602431 4.316891
740 1 23.888369 18.118351 15.354833
741 1 1.644966 9.943881 32.777108
742 1 30.011885 11.331632 15.662786
743 1 30.816016 25.069386 27.059049
744 1 20.058855 20.337675 15.173775
745 1 19.678203 14.545111 25.183005
746 1 15.857540 0.224940 22.525638
747 1 26.113322 17.367922 8.419143
748 1 8.071986 9.065375 26.116254
749 1 28.515838 21.679210 32.527524
750 1 19.561053 22.503169 2.779771
751 1 14.449336 29.662132 26.398388
752 1 21.876340 4.067290 19.856944
753 1 9.586788 30.293207 20.784623
754 1 25.825518 2.971964 20.473381
755 1 0.001695 0.214586 31.208420
756 1 10.034313 17.616431 15.397098
757 1 5.326057 14.251140 5.870567
758 1 31.221272 2.193737 7.694378
759 1 17.030551 32.587808 7.424878
760 1 4.265951 13.196216 3.625756
761 1 15.392202 28.043098 16.276531
762 1 3.962526 20.863273 12.816801
763 1 9.745658 16.196175 6.623019
764 1 24.147911 5.091732 31.121969
765 1 2.250995 9.192830 2.080733
766 1 29.011171 32.893206 3.750872
767 1 8.803604 22.237446 7.597506
768 1 16.917428 18.969126 21.789249
769 1 22.212235 26.802142 7.171234
770 1 19.602354 29.544261 10.309371
771 1 4.603365 16.797539 22.550424
772 1 26.822992 0.560834 5.277615
773 1 18.880532 32.386077 9.777622
774 1 33.193246 29.749598 32.045012
775 1 23.994817 21.275436 1.371284
776 1 32.938774 15.407995 2.820830
777 1 29.835619 8.139359 1.065610
778 1 14.753718 13.269372 22.926217
779 1 2.496437 21.637188 8.943650
780 1 18.429680 30.588115 19.690155
781 1 22.994730 25.179736 12.103470
782 1 21.369588 6.669327 20.326852
783 1 20.461416 10.868443 3.620105
784 1 27.526839 3.803843 13.779973
785 1 21.743130 14.338626 12.820220
786 1 0.191555 21.698235 13.191967
787 1 24.172408 6.987908 28.251899
788 1 20.755300 4.883926 25.153199
789 1 22.686844 26.362953 18.412146
790 1 20.105688 2.062207 20.473109
791 1 14.407867 18.808276 22.654352
792 1 18.989919 0.955934 6.850472
793 1 2.749643 7.549084 13.584054
794 1 28.933028 3.753900 6.129787
795 1 23.010893 20.780321 23.611701
796 1 29.095127 26.650350 19.702106
797 1 26.303128 29.828028 11.396561
798 1 19.100360 25.891028 14.055313
799 1 17.819241 9.857241 18.557079
800 1 20.029700 0.239005 0.039341
801 1 17.930862 29.662204 4.887354
802 1 27.824413 5.018538 4.125455
803 1 30.536607 32.347725 7.701460
804 1 25.126439 0.812482 25.990141
805 1 29.629642 13.912074 15.394876
806 1 6.457442 22.244674 6.756420
807 1 14.392380 12.239018 32.610984
808 1 3.244747 32.133567 4.264355
809 1 32.507932 19.112226 20.613612
810 1 10.247856 15.332864 25.203711
811 1 2.441888 6.371250 10.858283
812 1 3.223298 3.051599 14.084736
813 1 6.899474 27.102409 17.327295
814 1 3.777451 10.475424 18.536556
815 1 9.671975 30.804435 9.213740
816 1 25.032695 4.978110 16.837059
817 1 25.436022 23.933546 24.630604
818 1 24.971188 9.567523 28.933181
819 1 22.071366 2.782596 11.792725
820 1 32.795900 16.832570 4.889330
821 1 24.588217 27.985909 20.083942
822 1 1.930189 10.638262 27.550102
823 1 23.209390 21.819446 6.695925
824 1 29.304638 10.282136 20.290963
825 1 12.915457 17.399410 19.796109
826 1 23.959383 9.338729 0.098900
827 1 11.720510 15.829484 30.767106
828 1 22.668233 23.022420 25.248869
829 1 18.227198 3.736029 30.909311
830 1 10.385203 11.097100 26.114201
831 1 17.425593 10.022848 2.584237
832 1 1.090381 30.175828 28.069454
833 1 11.525000 28.411058 27.838540
834 1 25.649766 21.505665 32.446801
835 1 24.287658 8.390379 6.940604
836 1 5.317297 15.531441 17.270038
837 1 21.693760 0.206549 30.956226
838 1 25.883923 32.325446 11.988549
839 1 8.061967 28.511732 32.226928
840 1 30.900397 19.221323 0.753286
841 1 27.459521 23.547461 11.690606
842 1 13.165114 10.292718 0.811954
843 1 31.968439 22.336869 7.242535
844 1 17.779999 29.142490 15.396961
845 1 10.967309 27.575560 8.519389
846 1 21.991588 14.970435 17.609549
847 1 31.223733 14.349889 7.914303
848 1 24.891689 22.236153 19.467894
849 1 25.837560 11.100402 7.180421
850 1 11.879804 5.736349 21.406173
851 1 3.196503 11.591569 15.827301
852 1 24.856353 5.514562 6.607544
853 1 18.407455 1.745146 22.551657
854 1 14.791920 4.832577 16.069733
855 1 15.041978 6.422619 7.034965
856 1 24.337577 5.284403 20.599918
857 1 7.326636 4.500910 5.278846
858 1 30.794904 15.447516 29.947896
859 1 21.449823 31.593010 9.783518
860 1 28.390790 24.546738 17.816907
861 1 33.210957 31.203888 2.786537
862 1 19.413432 9.321657 23.774267
863 1 5.526409 1.993214 27.693911
864 1 20.416808 4.537232 9.715246
865 1 20.560524 2.615280 31.902361
866 1 3.300706 15.324903 10.317623
867 1 26.838693 5.401914 19.558720
868 1 12.237641 3.324039 20.532869
869 1 0.135506 4.553062 21.751734
870 1 24.403969 10.386365 12.282044
871 1 16.408240 25.115129 12.605618
872 1 11.805272 3.508784 5.322017
873 1 12.125384 2.193771 8.327259
874 1 0.100941 0.264097 7.632133
875 1 0.369464 0.539267 18.972802
876 1 32.913629 1.371545 12.589389
877 1 6.380718 10.927695 27.317353
878 1 24.992887 9.987676 17.656114
879 1 17.299886 17.478376 17.149821
880 1 6.297081 23.419043 12.832431
881 1 28.513717 9.998408 32.266626
882 1 31.912806 30.169568 8.937972
883 1 18.145629 1.216155 13.564272
884 1 15.016696 17.049349 14.855446
885 1 22.782610 18.147729 10.126442
886 1 24.313556 24.000464 3.426707
887 1 5.598989 4.747861 27.014239
888 1 3.539114 21.036668 19.458243
889 1 17.574129 30.621639 30.878605
890 1 30.898519 15.668560 27.277676
891 1 14.579018 9.353793 11.025988
892 1 16.921668 11.815479 31.519458
893 1 25.687127 26.692770 30.449790
894 1 8.351147 13.172079 26.582371
895 1 26.627135 29.078117 2.367540
896 1 6.961290 15.606060 21.462661
897 1 25.894936 31.693062 32.169802
898 1 20.246865 15.249028 28.406699
899 1 32.865074 4.611372 3.442887
900 1 31.366527 19.790807 28.185524
901 1 2.549822 7.750052 22.119052
902 1 4.277770 29.550055 1.961281
903 1 1.300076 20.399784 17.847422
904 1 29.387091 22.656498 9.923462
905 1 7.714583 8.520988 28.639110
906 1 8.519248 28.227179 8.426403
907 1 19.758174 13.666992 14.920573
908 1 2.019742 2.448709 7.100432
909 1 25.008013 29.487673 31.044120
910 1 5.715967 18.269030 7.902265
911 1 3.049722 22.816350 23.174865
912 1 1.315949 29.761229 9.009547
913 1 12.397996 14.758478 20.273451
914 1 13.599620 25.141293 29.548838
915 1 28.042085 31.603509 6.733919
916 1 28.483042 9.039785 12.366152
917 1 10.689045 30.243692 30.683860
918 1 32.845440 18.139907 32.370680
919 1 10.868749 28.042922 32.323194
920 1 17.205229 25.695894 26.233981
921 1 8.167608 25.281454 29.852459
922 1 15.925213 11.982173 27.951611
923 1 28.199258 16.428216 13.535275
924 1 9.859226 12.884632 29.684063
925 1 6.032153 10.977558 22.340008
926 1 23.844697 3.708788 2.024594
927 1 12.265083 29.872844 21.510674
928 1 11.102342 22.535017 0.365300
929 1 10.618785 20.157904 0.156603
930 1 14.445061 0.670613 9.388382
931 1 29.594674 1.629239 1.608935
932 1 14.339895 0.376463 30.302735
933 1 2.262824 17.636765 10.796268
934 1 25.643997 32.919189 7.525524
935 1 17.231027 26.075343 0.244021
936 1 20.924432 25.798734 16.579661
937 1 3.227250 3.164176 28.230924
938 1 22.985788 33.170496 24.607196
939 1 12.570777 4.918491 29.636441
940 1 23.770748 14.895623 32.045884
941 1 2.252091 29.003292 23.985955
942 1 14.792382 25.107845 6.554044
943 1 22.260099 29.118456 5.970055
944 1 3.803506 23.190498 12.061053
945 1 19.478639 16.833586 0.142842
946 1 26.166363 23.289334 1.372462
947 1 13.834692 32.339102 21.180142
948 1 9.543529 21.804977 12.097140
949 1 0.270510 18.262342 1.624113
950 1 28.557205 2.312482 30.550680
951 1 10.223707 16.828028 10.310531
952 1 9.068922 24.837627 8.092223
953 1 10.099805 20.094503 16.123752
954 1 1.448672 16.646819 30.991733
955 1 30.456683 30.682798 32.068978
956 1 23.891378 12.925409 30.531878
957 1 29.071390 17.123509 1.009934
958 1 7.445067 24.064080 27.162174
959 1 27.557588 11.205365 14.157577
960 1 5.416702 12.641559 17.227288
961 1 20.287841 6.760613 22.843156
962 1 0.474072 16.232472 7.496679
963 1 9.701022 29.332984 1.043814
964 1 11.208566 28.164670 19.079976
965 1 18.332521 0.613688 2.409508
966 1 1.402147 15.769769 0.622192
967 1 2.949429 15.264063 28.233517
968 1 11.667893 12.697632 9.096579
969 1 4.495258 7.407421 26.072160
970 1 3.110729 25.329706 28.254795
971 1 15.348686 17.056867 10.158361
972 1 16.749739 28.717230 2.682639
973 1 8.358790 27.203066 27.233924
974 1 32.182796 24.375325 29.238840
975 1 12.486604 23.619014 25.128837
976 1 13.803991 2.134571 6.000701
977 1 6.344763 0.443920 7.661817
978 1 28.459378 6.363020 23.363989
979 1 22.848937 17.375196 20.429171
980 1 10.937703 18.985545 11.630207
981 1 3.185926 19.271871 23.931621
982 1 10.117479 5.979013 5.515998
983 1 14.370847 14.224470 13.889669
984 1 7.859222 19.183336 0.581401
985 1 4.018713 12.694167 0.856091
986 1 24.969748 23.418667 14.491008
987 1 13.322431 1.005975 33.161807
988 1 31.496618 26.100985 31.031025
989 1 8.811435 18.413688 3.950926
990 1 19.683731 23.767543 29.461395
991 1 9.778422 4.206367 3.293650
992 1 29.538432 17.243595 31.613304
993 1 32.782907 3.870228 26.881371
994 1 13.832207 23.971948 4.407449
995 1 16.168690 22.507949 14.538231
996 1 7.676546 32.440271 0.207903
997 1 33.019234 28.485932 10.821598
998 1 30.471397 4.072916 28.820489
999 1 28.303512 11.219527 27.061816
1000 1 0.793414 3.067986 29.168651
1001 1 29.486911 21.713986 7.137064
1002 1 2.978828 25.262436 2.245894
1003 1 12.995565 11.850861 16.892990
1004 1 9.533289 27.761717 21.111622
1005 1 32.082471 1.643254 25.677830
1006 1 25.096676 15.087727 4.121175
1007 1 11.005199 21.208725 13.851987
1008 1 21.204787 4.033360 3.075520
1009 1 12.581340 24.859276 2.163531
1010 1 23.218307 18.285526 26.974925
1011 1 10.652764 8.479539 26.947746
1012 1 26.445685 6.692696 24.848660
1013 1 2.431843 1.292516 30.427710
1014 1 23.238438 28.624520 26.483764
1015 1 25.607258 29.958526 18.443840
1016 1 18.367431 26.359749 30.777753
1017 1 8.041343 6.333695 26.913902
1018 1 14.298692 23.350091 9.579508
1019 1 14.471824 4.508467 5.193370
1020 1 4.316461 3.084442 20.280089
1021 1 5.074245 30.354813 12.422154
1022 1 26.132092 13.443138 32.252925
1023 1 11.528650 19.101697 27.666728
1024 1 12.617272 2.377530 10.854357
1025 1 25.045321 23.290506 22.134604
1026 1 15.943076 3.375877 3.339061
1027 1 25.218598 23.475456 7.969580
1028 1 2.811158 13.396996 18.657417
1029 1 5.874296 18.713499 5.214173
1030 1 21.467589 24.283784 32.752314
1031 1 14.087664 12.275792 5.264744
1032 1 18.488397 10.038418 33.049859
1033 1 5.202543 32.023831 2.129895
1034 1 1.894958 12.740241 10.987609
1035 1 20.734299 24.146682 18.885143
1036 1 14.288272 6.742904 29.107714
1037 1 0.098904 4.038425 10.902244
1038 1 0.793360 28.417940 1.488740
1039 1 12.769137 23.062907 27.833310
1040 1 3.352463 15.078985 32.416966
1041 1 20.152231 6.369215 2.024276
1042 1 24.474265 19.336295 12.075644
1043 1 9.433739 1.910590 26.266899
1044 1 12.321088 1.633286 18.457639
1045 1 24.273392 12.593816 23.920756
1046 1 10.985433 18.260373 2.421559
1047 1 22.949231 30.901280 23.489196
1048 1 3.021340 3.037007 32.815302
1049 1 21.939543 13.869402 23.126713
1050 1 21.267783 9.602771 20.983891
1051 1 23.997249 11.717024 0.385622
1052 1 4.175471 26.421605 24.103570
1053 1 20.213669 5.018918 17.595126
1054 1 15.188729 32.877019 5.495261
1055 1 16.569907 30.463999 21.977514
1056 1 31.289218 2.734390 15.464546
1057 1 15.895448 9.811573 30.036119
1058 1 12.749078 9.641114 25.414315
1059 1 20.629566 2.470050 29.302015
1060 1 28.491151 29.221277 27.130475
1061 1 5.535354 30.836658 21.245279
1062 1 21.011646 16.153142 14.490028
1063 1 3.270444 33.105824 28.318621
1064 1 21.889889 15.997419 24.882597
1065 1 26.401536 16.039042 10.882756
1066 1 0.690519 1.718202 9.818321
1067 1 9.604512 4.131957 15.081559
1068 1 10.648010 23.177362 18.539765
1069 1 21.785271 13.533713 0.100586
1070 1 32.728882 9.302899 26.041179
1071 1 19.365935 1.678705 9.933988
1072 1 15.038978 8.277529 25.038571
1073 1 20.353304 28.536809 14.716688
1074 1 5.152422 14.559566 26.847504
1075 1 4.445296 13.056107 12.825240
1076 1 13.355619 27.317243 0.458319
1077 1 22.227363 1.671577 3.104733
1078 1 27.249328 28.299314 20.505147
1079 1 8.354711 19.496194 20.092760
1080 1 10.854022 8.209921 9.236216
1081 1 4.491639 0.852814 9.482764
1082 1 27.714319 28.627828 5.768897
1083 1 4.237314 31.622158 7.793303
1084 1 30.150050 30.562942 5.065264
1085 1 27.627986 23.981039 14.506322
1086 1 25.789996 10.606952 31.557639
1087 1 16.922431 25.016196 3.604601
1088 1 21.790344 26.585058 14.189569
1089 1 15.282173 31.761794 32.620553
1090 1 27.809948 31.734410 1.277248
1091 1 32.730593 27.226846 18.640621
1092 1 25.980989 28.671597 25.525375
1093 1 17.966346 14.752594 2.046610
1094 1 6.311120 4.195397 14.544686
1095 1 16.843918 20.865783 19.000539
1096 1 11.691398 23.648762 8.713484
1097 1 21.353951 17.670011 16.558737
1098 1 33.180626 6.634469 26.235350
1099 1 5.218078 20.411556 22.650782
1100 1 18.682951 0.537225 16.311590
1101 1 30.784197 27.040862 10.630248
1102 1 2.916825 1.188989 18.923709
1103 1 11.890615 17.867482 5.916318
1104 1 15.645836 25.770238 17.903789
1105 1 20.945591 12.423586 17.439628
1106 1 18.072669 3.098909 15.412770
1107 1 24.020224 32.377004 9.669210
1108 1 1.330794 21.740813 20.662236
1109 1 28.571315 15.939069 3.716349
1110 1 2.392138 2.308934 16.468636
1111 1 11.817469 31.917918 23.996354
1112 1 10.843323 23.322644 15.821173
1113 1 10.806814 26.461618 29.957210
1114 1 33.015147 22.347141 23.069017
1115 1 31.220489 27.190064 0.118579
1116 1 21.122275 12.192344 29.887020
1117 1 9.474554 29.317640 6.330817
1118 1 19.433926 12.130148 31.860826
1119 1 20.146842 7.560636 32.580105
1120 1 20.766367 16.764182 11.757947
1121 1 25.255063 7.283480 18.606364
1122 1 11.360093 20.213645 4.749828
1123 1 23.259918 2.176245 21.590120
1124 1 30.496071 30.401470 24.956665
1125 1 0.437177 2.930579 32.460144
1126 1 8.100810 6.738071 3.492385
1127 1 31.050141 13.487498 22.961646
1128 1 19.329320 4.737446 20.066517
1129 1 5.804818 8.739557 20.898642
1130 1 14.588949 5.937072 2.969330
1131 1 12.086341 30.049999 0.112171
1132 1 24.287452 6.136507 23.536284
1133 1 16.117988 0.950107 15.209439
1134 1 0.022615 25.967184 1.327385
1135 1 32.915670 6.790669 11.815690
1136 1 4.967808 7.865622 23.216114
1137 1 16.790236 16.096292 26.077486
1138 1 8.436064 10.773783 16.218961
1139 1 19.689380 8.370266 28.283186
1140 1 17.994639 23.278598 12.713154
1141 1 17.811425 13.963973 27.150963
1142 1 3.934233 13.033380 8.289522
1143 1 12.315424 15.423450 9.283578
1144 1 26.696209 17.413980 1.754584
1145 1 15.415764 4.842432 31.806209
1146 1 13.479535 12.281403 27.292763
1147 1 28.202155 12.155371 30.755653
1148 1 5.467386 1.164910 33.204747
1149 1 29.300659 20.294701 20.192520
1150 1 13.996094 14.223980 18.025404
1151 1 23.606043 31.570488 6.186575
1152 1 21.041160 27.760757 3.650949
1153 1 15.803531 6.006003 26.578232
1154 1 15.713860 17.449692 5.536974
1155 1 32.417142 32.145467 26.569938
1156 1 2.759256 2.113045 22.991114
1157 1 5.841083 1.531633 14.779289
1158 1 11.705823 13.054519 1.618909
1159 1 10.530568 21.806832 28.782698
1160 1 4.153854 7.159423 8.805184
1161 1 30.795617 23.281207 24.895541
1162 1 25.180926 12.269946 4.836765
1163 1 18.197170 19.480790 10.430062
1164 1 5.724271 8.666225 6.838473
1165 1 5.845175 12.855962 10.147517
1166 1 30.415943 24.290758 12.040823
1167 1 23.521096 26.658513 32.654055
1168 1 19.853051 17.192405 3.440860
1169 1 21.508991 20.453073 26.177522
1170 1 33.113395 5.419497 19.160565
1171 1 32.523763 12.527499 14.869544
1172 1 27.530652 15.931813 20.650757
1173 1 30.674253 26.265341 2.438697
1174 1 10.033739 24.567202 25.792925
1175 1 7.869835 31.448000 19.329858
1176 1 12.094643 1.469202 30.480368
1177 1 13.174590 6.991443 26.581929
1178 1 26.331896 17.332227 18.611575
1179 1 28.522284 25.753956 5.151608
1180 1 27.512487 10.628288 16.903004
1181 1 23.714979 31.020756 28.176888
1182 1 23.544920 17.727198 29.306223
1183 1 29.890267 19.980022 30.708416
1184 1 18.586241 5.914962 12.284087
1185 1 30.039350 25.829663 14.596631
1186 1 9.567618 19.896064 24.540888
1187 1 31.526497 27.462860 25.658141
1188 1 20.125033 19.954203 28.512516
1189 1 30.306184 22.638497 18.355891
1190 1 6.826996 20.320544 31.837139
1191 1 21.439651 24.775417 27.757159
1192 1 20.321426 12.864793 5.319229
1193 1 15.341271 16.198809 2.996541
1194 1 11.240430 26.934645 14.851605
1195 1 5.721310 5.668278 7.037704
1196 1 5.442649 22.332258 17.810002
1197 1 7.773057 21.360327 22.397397
1198 1 4.595366 20.694200 8.017405
1199 1 31.111286 17.421199 17.169606
1200 1 5.355582 10.660010 32.896034
1201 1 3.270813 21.205761 32.044794
1202 1 17.654864 30.680678 0.416061
1203 1 22.761073 11.365666 28.135551
1204 1 32.962531 22.002699 4.533474
1205 1 13.838134 28.519673 9.560599
1206 1 26.650694 8.204107 16.135938
1207 1 17.045572 31.677978 15.178107
1208 1 19.074099 12.286409 18.982144
1209 1 22.525956 0.786088 19.576358
1210 1 18.326729 17.234104 7.232434
1211 1 18.013109 32.389465 24.325809
1212 1 28.498371 26.241933 31.330218
1213 1 16.097742 32.130641 10.485870
1214 1 23.912750 28.351354 29.220184
1215 1 11.822134 18.025369 22.142144
1216 1 8.472664 12.484580 9.287163
1217 1 12.521630 13.683809 3.908566
1218 1 6.868897 10.024483 18.550755
1219 1 32.149299 13.493476 10.271631
1220 1 5.832591 14.262552 32.923180
1221 1 24.281554 29.964059 8.657933
1222 1 13.031243 25.328992 19.821518
1223 1 5.533441 5.565317 2.470674
1224 1 13.893859 0.408338 24.243487
1225 1 7.838057 13.306263 16.795163
1226 1 7.164535 5.062000 22.080123
1227 1 12.589862 7.975306 2.684412
1228 1 30.429609 10.793131 1.906093
1229 1 32.162227 9.963220 15.854669
1230 1 14.293489 12.049725 30.024335
1231 1 14.220821 17.035235 17.290311
1232 1 8.912429 0.192873 8.637233
1233 1 3.143522 24.006782 31.305824
1234 1 19.748973 8.276769 7.623047
1235 1 16.817339 7.469703 28.608193
1236 1 17.800665 2.028783 28.955015
1237 1 14.002933 27.390185 28.172403
1238 1 30.394556 24.089194 6.095163
1239 1 22.684763 12.109542 12.035937
1240 1 3.935722 31.969454 10.697376
1241 1 4.757009 27.517450 5.724851
1242 1 23.064058 5.753638 26.161891
1243 1 15.392011 18.541340 19.732991
1244 1 27.274216 3.918186 25.225181
1245 1 16.352533 21.245953 26.967697
1246 1 15.150453 26.638349 31.207129
1247 1 2.454084 32.046194 1.806831
1248 1 18.230177 24.301420 17.707663
1249 1 27.318288 8.939833 23.440291
1250 1 21.032714 2.640225 26.814117
1251 1 3.376725 31.871728 23.557260
1252 1 25.738688 16.822470 13.226162
1253 1 27.034892 7.129644 28.027665
1254 1 3.390885 27.679545 3.607612
1255 1 11.018132 25.622574 18.194590
1256 1 24.104932 13.195054 8.996888
1257 1 15.032147 15.496649 21.485838
1258 1 20.625417 21.536250 30.650630
1259 1 22.164594 16.104384 4.459570
1260 1 0.907520 15.692826 25.901042
1261 1 17.849995 18.781893 0.301952
1262 1 4.187603 32.671433 13.572732
1263 1 15.555712 19.750849 3.375911
1264 1 4.243367 25.202897 17.000258
1265 1 7.663548 5.518211 16.840256
1266 1 29.406777 22.229058 28.433433
1267 1 25.020450 10.058021 24.243260
1268 1 32.197775 27.149086 8.331181
1269 1 15.744714 6.180250 11.521443
1270 1 30.829303 24.143777 22.324482
1271 1 7.474246 17.958057 15.598054
1272 1 17.589876 26.045047 6.345575
1273 1 14.776679 3.817425 11.519825
1274 1 22.413088 8.983955 27.830195
1275 1 26.926729 31.766668 9.465694
1276 1 21.245379 33.184039 21.732895
1277 1 20.320245 17.598553 27.097390
1278 1 12.108780 5.329921 7.133721
1279 1 20.433568 29.985828 33.038385
1280 1 22.109988 4.811090 22.717632
1281 1 19.027798 22.496758 8.200642
1282 1 26.611245 1.268911 10.122181
1283 1 1.864619 20.628486 11.411542
1284 1 19.177447 21.665793 26.717766
1285 1 29.328621 7.056634 29.679782
1286 1 25.070204 1.897579 23.593699
1287 1 24.837892 14.648324 17.539357
1288 1 12.751030 33.191663 11.875687
1289 1 31.497551 2.741729 30.778238
1290 1 19.689418 14.242657 22.182834
1291 1 30.706539 0.128010 12.393172
1292 1 19.325491 11.403815 21.953083
1293 1 29.069221 25.107009 28.884871
1294 1 10.499078 31.533314 5.122065
1295 1 31.231822 19.697275 6.941867
1296 1 30.463171 0.753289 5.648111
1297 1 26.764273 26.185675 24.415130
1298 1 30.073228 10.072138 7.898952
1299 1 26.679866 32.641605 27.715371
1300 1 1.429811 13.930947 8.771977
1301 1 7.303063 19.789141 17.693183
1302 1 10.646008 5.665289 28.087957
1303 1 17.250127 17.776117 2.547872
1304 1 19.766454 31.684405 14.702580
1305 1 18.043572 13.417761 29.561748
1306 1 26.130185 12.082593 28.907514
1307 1 1.494578 24.335388 13.555256
1308 1 22.916215 28.208465 22.369590
1309 1 21.668979 29.685808 2.297908
1310 1 16.445183 29.351210 9.928146
1311 1 17.935966 19.100679 27.399395
1312 1 21.172590 2.211569 14.549855
1313 1 18.835774 2.765420 25.198585
1314 1 28.930293 12.628172 2.890213
1315 1 22.708576 12.886409 15.193028
1316 1 28.257305 28.132086 17.720357
1317 1 24.216221 10.363596 9.589596
1318 1 4.111261 27.473400 11.119334
1319 1 5.157805 16.914658 33.057320
1320 1 21.385162 12.251277 20.382902
1321 1 16.638826 24.400898 31.258670
1322 1 21.867411 9.296454 8.586047
1323 1 7.506724 15.728189 26.664575
1324 1 16.432589 5.225356 1.163599
1325 1 5.050382 18.408659 16.925510
1326 1 18.938341 8.821964 4.500186
1327 1 30.540896 7.678003 10.361412
1328 1 11.097131 13.861250 6.858495
1329 1 3.819840 11.946268 23.575588
1330 1 5.070809 29.835681 14.920074
1331 1 25.515018 15.346766 30.099119
1332 1 6.459583 28.271200 3.724321
1333 1 21.958477 14.956104 10.203798
1334 1 3.067545 6.829123 6.122127
1335 1 18.588908 32.405476 4.945245
1336 1 31.228253 6.133393 27.667992
1337 1 28.365862 6.847318 32.130140
1338 1 22.186881 10.924713 22.986048
1339 1 2.737460 19.204411 21.213871
1340 1 30.909487 16.908218 7.156230
1341 1 27.074209 21.327568 25.243138
1342 1 0.908472 27.280037 32.056871
1343 1 14.669274 5.341036 24.110079
1344 1 0.513091 4.074955 15.581311
1345 1 18.397975 4.178890 2.509625
1346 1 15.406826 19.507579 17.336376
1347 1 26.746938 13.882756 27.008834
1348 1 0.518493 6.428011 6.621983
1349 1 13.966435 32.251831 26.498906
1350 1 26.115669 4.688161 29.421623
1351 1 2.967466 1.604744 11.653045
1352 1 20.429212 14.273786 3.015721
1353 1 33.019583 14.030077 5.183196
1354 1 12.970290 7.949322 7.673475
1355 1 23.813840 15.854288 23.040220
1356 1 21.117488 7.354582 25.504275
1357 1 1.968077 20.396253 1.059922
1358 1 21.621699 28.580286 30.568439
1359 1 9.849077 0.721613 29.469752
1360 1 3.477558 1.136138 1.741956
1361 1 9.696826 18.170742 17.916420
1362 1 0.073869 26.313757 27.259202
1363 1 26.739167 9.248436 26.254796
1364 1 11.850471 31.689319 19.375296
1365 1 12.051687 4.161620 23.497144
1366 1 3.846984 23.701130 7.024726
1367 1 1.794397 19.912512 14.154672
1368 1 19.867107 10.671588 6.590325
1369 1 13.939722 25.665795 11.478711
1370 1 8.269711 15.246431 31.188341
1371 1 11.145668 10.874889 28.868224
1372 1 22.346579 9.905987 2.444393
1373 1 3.035602 27.549122 0.499610
1374 1 24.183905 1.919627 9.467637
1375 1 4.045818 23.127678 15.107663
1376 1 25.321054 2.038845 12.394993
1377 1 13.077725 6.842229 5.183652
1378 1 6.997061 20.679216 2.985129
1379 1 1.807687 12.634281 6.556547
1380 1 12.581605 17.391991 0.110126
1381 1 23.634917 15.307369 14.972319
1382 1 10.620638 8.896390 6.505778
1383 1 9.391512 17.893488 26.312630
1384 1 3.900951 6.092080 28.528173
1385 1 12.232394 10.098021 10.233092
1386 1 16.779525 12.878723 18.782823
1387 1 30.380896 0.003289 30.305784
1388 1 18.018860 16.960924 10.362520
1389 1 5.531395 19.854742 29.291231
1390 1 30.778896 0.012296 14.972916
1391 1 26.825237 4.107147 1.464304
1392 1 9.078432 31.593585 28.094279
1393 1 16.434547 20.872993 1.063495
1394 1 9.676033 14.789382 8.728387
1395 1 1.791971 3.535762 2.356488
1396 1 17.843645 21.319239 22.582700
1397 1 7.053120 4.289787 19.449937
1398 1 32.050891 5.755536 16.225180
1399 1 0.896149 5.419254 28.579695
1400 1 15.606877 12.070572 12.147682
1401 1 0.687304 19.864825 22.804461
1402 1 25.798913 30.371791 6.551859
1403 1 18.190582 18.621601 29.923675
1404 1 19.733693 15.204417 6.002869
1405 1 10.850732 18.386931 8.341048
1406 1 1.356971 19.680522 30.679181
1407 1 18.671824 32.481096 21.588282
1408 1 27.632529 5.494115 16.758250
1409 1 23.364283 12.684259 18.191601
1410 1 2.380246 22.871068 4.009762
1411 1 16.403516 18.646644 8.487378
1412 1 26.427256 17.095177 23.750280
1413 1 31.887108 21.538886 20.504534
1414 1 21.492475 29.167988 8.360739
1415 1 26.158725 5.215691 11.497325
1416 1 7.628786 11.068430 11.858898
1417 1 3.201595 15.670079 7.508866
1418 1 8.488612 21.941963 0.480475
1419 1 7.203165 17.447495 24.522593
1420 1 16.195368 15.780356 12.174300
1421 1 16.990220 6.800865 19.554196
1422 1 0.106111 2.239360 23.156273
1423 1 12.315715 31.360159 14.105018
1424 1 19.778351 5.807631 7.136678
1425 1 14.627570 25.721675 22.060468
1426 1 15.595067 20.095710 29.243422
1427 1 19.063703 4.149045 27.942601
1428 1 10.263366 11.657732 11.011380
1429 1 22.796867 29.360707 14.517418
1430 1 28.714904 19.024739 14.232388
1431 1 7.376396 16.970981 29.030635
1432 1 9.969457 24.724266 1.258924
1433 1 31.512673 3.395988 1.224556
1434 1 22.651443 15.407933 29.634220
1435 1 10.071545 3.042020 18.779461
1436 1 2.137567 5.593213 20.641296
1437 1 14.855689 8.847469 5.995390
1438 1 28.822179 14.507133 31.938607
1439 1 0.861859 28.128378 22.182838
1440 1 7.221492 16.336023 5.735023
1441 1 21.202018 13.416393 7.938837
1442 1 6.985986 29.933940 27.691902
1443 1 6.595652 5.890179 29.587603
1444 1 20.940617 19.709417 11.706783
1445 1 21.232560 32.599402 28.340119
1446 1 5.190466 22.410110 33.124147
1447 1 13.015449 25.912831 8.871347
1448 1 2.709263 31.009322 26.271429
1449 1 14.723526 28.385943 22.622466
1450 1 21.198676 22.939371 5.575738
1451 1 9.805511 14.586804 19.444327
1452 1 14.412179 22.264054 1.769446
1453 1 24.454562 21.587508 16.787043
1454 1 11.666249 16.226860 27.981310
1455 1 18.483325 30.209456 7.909691
1456 1 9.157083 21.082384 26.770850
1457 1 22.324325 1.991217 0.428004
1458 1 13.485033 21.628622 18.516509
1459 1 7.632043 22.643606 24.686757
1460 1 26.495821 12.940799 9.484648
1461 1 8.586711 24.001985 11.500383
1462 1 18.852668 8.003339 16.941953
1463 1 18.165897 26.669731 16.634391
1464 1 24.849986 2.650259 32.833117
1465 1 21.681177 10.757881 0.038504
1466 1 28.926447 4.433365 20.387729
1467 1 8.106359 29.830084 16.054620
1468 1 1.583273 26.514280 25.381926
1469 1 22.818338 15.863165 27.147505
1470 1 7.777622 13.639925 12.256989
1471 1 10.253519 27.151274 25.282176
1472 1 7.280442 32.478815 26.485345
1473 1 27.674569 13.376310 11.823244
1474 1 18.580907 26.942513 3.915861
1475 1 12.900870 32.491612 6.932876
1476 1 13.847281 25.841158 14.305728
1477 1 26.025749 2.519833 28.012004
1478 1 2.555298 28.918077 30.555979
1479 1 17.896266 12.831223 23.757994
1480 1 4.312198 29.584332 28.618386
1481 1 24.191633 22.962066 27.687898
1482 1 20.259155 28.430390 17.411105
1483 1 32.409715 11.653700 12.244851
1484 1 9.866229 13.279789 3.561541
1485 1 31.975636 22.555072 27.261778
1486 1 7.746240 3.896554 12.507162
1487 1 20.847956 30.554978 21.243492
1488 1 21.818432 18.466031 13.934099
1489 1 1.596499 12.882488 32.823554
1490 1 3.150440 26.533765 7.398560
1491 1 27.972099 16.230321 6.920898
1492 1 0.837160 1.244288 1.543932
1493 1 4.275739 18.635497 31.070859
1494 1 8.354028 15.694491 3.343400
1495 1 26.606402 24.422341 28.008895
1496 1 3.767378 9.915927 22.092693
1497 1 2.734958 18.229101 15.745529
1498 1 18.153547 20.701717 13.192245
1499 1 15.137953 3.327411 7.654498
1500 1 28.405464 30.806168 18.819566
1501 1 14.726180 12.050330 20.347526
1502 1 14.279477 2.889723 25.259833
1503 1 6.676028 7.095854 9.394379
1504 1 2.922526 24.135366 20.685944
1505 1 10.356050 28.865938 13.705543
1506 1 5.780498 30.896424 32.884330
1507 1 19.204981 24.737408 9.358633
1508 1 24.210173 27.055082 24.508726
1509 1 23.909900 19.865833 18.725646
1510 1 6.934616 21.079448 11.237742
1511 1 32.009363 12.816695 3.114877
1512 1 17.415469 22.541681 24.699142
1513 1 23.970814 4.091454 13.775672
1514 1 23.138002 13.809630 2.453925
1515 1 23.632933 17.305060 17.787896
1516 1 7.846094 16.577193 0.597205
1517 1 29.468398 12.266772 0.001397
1518 1 1.165574 22.680314 30.005538
1519 1 31.823557 1.584055 28.387063
1520 1 31.616543 29.545687 27.409036
1521 1 31.883320 28.886617 3.765930
1522 1 5.571058 10.076940 16.288725
1523 1 10.506659 15.909300 1.469966
1524 1 29.267805 30.755566 16.200403
1525 1 13.515640 9.491783 31.641457
1526 1 25.257939 5.534335 3.504171
1527 1 27.124764 20.442089 1.338818
1528 1 14.744248 32.828756 17.553792
1529 1 17.383610 15.510073 4.855368
1530 1 21.367785 0.227242 16.501298
1531 1 20.541780 18.345345 5.886295
1532 1 14.543423 30.623087 15.032748
1533 1 22.388049 18.644230 0.725767
1534 1 5.811731 3.693737 32.423220
1535 1 12.275663 24.473621 22.474733
1536 1 30.929169 32.256989 1.559712
1537 1 21.316057 2.651973 6.012448
1538 1 17.205104 6.497706 3.488752
1539 1 22.428031 31.696185 0.449575
1540 1 25.010675 20.932035 29.889029
1541 1 30.028994 9.893015 4.704040
1542 1 28.611746 24.121768 2.949524
1543 1 23.679540 27.268988 9.777882
1544 1 14.033274 10.305096 22.925078
1545 1 27.920066 0.977725 12.963840
1546 1 28.008660 23.533210 23.332428
1547 1 22.752027 5.945745 18.063455
1548 1 2.132252 7.907612 27.162844
1549 1 16.992493 28.088700 18.781378
1550 1 28.420018 5.981020 9.717420
1551 1 4.396989 11.684168 5.862546
1552 1 20.091585 4.739959 14.529736
1553 1 28.168164 5.037387 27.343616
1554 1 25.404417 25.734600 1.760723
1555 1 8.323133 9.003650 8.113892
1556 1 11.632945 8.020028 11.892469
1557 1 16.239929 1.489878 11.541279
1558 1 13.163880 14.997741 26.099084
1559 1 18.754931 29.362521 23.636104
1560 1 23.360429 16.817895 12.293534
1561 1 28.654498 1.740692 27.978872
1562 1 25.889508 7.216183 8.640484
1563 1 10.432288 10.069167 17.948626
1564 1 10.502441 6.268296 1.557255
1565 1 28.266213 25.598868 10.173727
1566 1 28.421398 23.677942 20.275091
1567 1 12.096119 15.320104 22.931169
1568 1 4.800091 21.733381 25.061668
1569 1 9.715898 11.419015 0.758302
1570 1 29.634903 4.943903 15.060174
1571 1 13.576182 22.559910 7.281545
1572 1 19.940468 20.933418 4.967731
1573 1 0.701027 6.865558 9.070013
1574 1 18.319280 27.166764 8.861954
1575 1 21.097090 29.981552 28.074216
1576 1 32.604277 17.615779 24.129786
1577 1 21.638715 7.907452 16.459898
1578 1 2.708682 33.145409 32.780611
1579 1 1.738271 11.309367 8.891561
1580 1 30.796195 5.408812 25.145982
1581 1 28.581589 6.959691 20.645800
1582 1 19.884301 8.950736 1.962861
1583 1 32.911339 28.416946 29.679295
1584 1 27.490852 18.176368 11.773140
1585 1 9.238000 32.139562 22.478374
1586 1 23.198384 11.091000 6.991435
1587 1 28.705530 2.046041 15.596484
1588 1 18.616846 29.114286 12.784783
1589 1 21.050294 23.108976 10.019666
1590 1 30.087216 17.687736 28.995104
1591 1 31.676303 16.652870 9.761281
1592 1 3.709838 9.221385 4.915194
1593 1 6.271433 29.599676 6.805472
1594 1 1.438488 13.857952 16.029006
1595 1 28.512969 28.519506 0.338728
1596 1 4.413576 5.447192 12.451791
1597 1 29.018924 17.902787 5.365120
1598 1 23.196389 24.671360 5.978667
1599 1 11.118323 5.305980 9.696397
1600 1 6.180291 21.833811 15.419573
1601 1 1.870017 4.176143 5.093326
1602 1 32.818810 29.743417 20.683281
1603 1 19.229008 26.368270 19.322000
1604 1 7.524021 26.129362 19.925108
1605 1 12.211423 22.548841 20.617041
1606 1 26.850951 21.343584 7.666757
1607 1 20.732665 30.729274 4.526463
1608 1 27.586025 14.569317 1.310191
1609 1 14.036397 28.421580 13.706541
1610 1 7.094352 9.260375 14.035996
1611 1 13.905012 17.981699 12.206571
1612 1 5.811328 27.407225 8.512302
1613 1 12.429007 12.549583 21.938194
1614 1 22.691457 21.340734 14.173595
1615 1 12.739157 28.681899 24.482216
1616 1 22.519551 13.194942 25.943262
1617 1 23.170631 18.470041 5.003098
1618 1 20.142573 12.833026 10.987889
1619 1 29.510256 13.314817 25.482284
1620 1 19.027578 5.236392 32.755015
1621 1 24.188683 13.727441 28.091897
1622 1 0.906877 22.973207 10.965132
1623 1 18.878185 6.320915 26.629511
1624 1 16.366266 29.488723 24.608010
1625 1 25.216394 19.715835 9.236537
1626 1 15.006241 14.952874 27.756169
1627 1 15.000839 19.989502 13.946863
1628 1 4.160731 5.221817 15.876486
1629 1 23.237116 29.132818 32.879727
1630 1 1.324800 32.921305 24.949478
1631 1 7.960005 7.169390 18.876172
1632 1 32.947673 7.801277 0.746723
1633 1 21.362053 30.680478 12.582092
1634 1 21.055683 20.946297 7.563983
1635 1 12.290825 18.871884 17.585396
1636 1 3.995462 19.589172 26.510611
1637 1 7.150454 22.766103 9.409177
1638 1 15.395460 14.513542 30.469987
1639 1 18.715181 20.067166 2.566538
1640 1 5.257586 15.201183 11.909243
1641 1 16.296768 3.666996 13.428524
1642 1 12.212684 29.181909 15.454388
1643 1 23.157269 22.593563 11.988786
1644 1 20.158725 23.063685 21.884669
1645 1 25.979829 32.230505 24.012319
1646 1 26.396042 31.671369 20.927644
1647 1 32.406004 18.999388 10.885662
1648 1 26.905612 21.890687 3.438786
1649 1 10.489736 30.301089 17.749223
1650 1 17.740441 11.294874 26.076841
1651 1 21.658597 28.592736 19.471567
1652 1 18.518633 25.229972 22.097515
1653 1 2.781974 18.184046 7.961636
1654 1 3.717998 20.600077 16.662387
1655 1 10.048414 24.927929 20.685209
1656 1 22.739530 31.959416 14.619709
1657 1 6.183038 17.638845 12.558833
1658 1 6.479080 11.082643 30.200789
1659 1 0.859232 0.421727 28.168561
1660 1 14.640901 16.117930 24.257217
1661 1 25.987173 18.712369 25.562530
1662 1 20.045776 2.271731 1.454263
1663 1 19.879417 33.057445 19.060749
1664 1 30.680574 8.317609 31.652004
1665 1 27.820507 20.733729 10.864804
1666 1 26.137239 12.012014 19.117246
1667 1 30.430226 18.252450 25.810323
1668 1 24.786836 31.051173 25.866112
1669 1 3.939923 0.861900 6.822694
1670 1 8.311183 4.813728 9.822315
1671 1 22.591181 25.788631 1.899314
1672 1 13.814050 7.182260 10.083046
1673 1 0.402293 21.499614 32.247051
1674 1 30.968003 6.939237 13.661034
1675 1 17.569175 23.429769 1.269254
1676 1 14.029990 31.209436 9.215438
1677 1 1.885111 26.664765 20.406773
1678 1 16.734938 28.349042 7.020309
1679 1 20.349678 27.293607 32.730996
1680 1 25.952126 24.913187 5.809033
1681 1 9.755232 17.317922 20.478765
1682 1 26.152467 29.952620 28.107619
1683 1 15.096999 11.330394 25.359105
1684 1 10.751317 20.521127 18.945446
1685 1 12.317643 29.211688 5.431583
1686 1 1.102349 9.272097 5.049674
1687 1 13.000338 6.934215 16.467810
1688 1 20.003404 25.271554 6.604104
1689 1 15.392150 29.940892 4.695100
1690 1 16.070286 28.656412 29.474408
1691 1 15.887494 21.516015 8.523050
1692 1 16.842715 27.230182 14.093452
1693 1 24.453367 15.785263 9.081180
1694 1 21.132815 5.141969 30.641448
1695 1 25.592512 19.088006 6.418075
1696 1 16.056806 27.510993 11.501061
1697 1 2.423177 15.333910 13.047199
1698 1 16.411759 25.066613 15.476722
1699 1 27.353121 10.937863 1.289062
1700 1 17.766487 3.671629 10.793235
1701 1 21.867038 7.730571 30.142074
1702 1 24.877792 30.480857 0.923851
1703 1 13.399076 27.561858 7.044513
1704 1 15.995215 18.644327 31.610804
1705 1 17.618963 9.868450 7.083480
1706 1 7.865285 27.693113 23.211612
1707 1 28.002787 20.209994 5.338463
1708 1 6.380471 24.909935 7.559015
1709 1 8.095344 27.102200 1.383142
1710 1 13.998580 6.965978 13.858190
1711 1 12.577181 5.583460 12.166273
1712 1 23.908020 10.839005 20.149753
1713 1 18.799402 21.474271 32.675761
1714 1 19.058401 21.773506 10.907551
1715 1 0.307014 24.644869 32.295529
1716 1 7.752558 9.676771 0.496152
1717 1 25.567380 19.045917 28.240686
1718 1 21.853089 9.281157 5.399035
1719 1 22.226785 24.098911 14.558395
1720 1 8.110362 30.932955 30.898929
1721 1 7.555591 20.136350 8.191618
1722 1 15.339536 9.457636 27.381291
1723 1 0.398066 9.151739 10.682454
1724 1 26.360517 25.394075 19.513505
1725 1 25.533122 25.480075 13.327624
1726 1 16.507373 3.264660 26.735372
1727 1 0.500113 23.582254 2.228123
1728 1 7.295650 3.512042 7.548152
1729 1 8.245668 1.306760 23.501787
1730 1 30.846223 15.737755 24.469105
1731 1 17.622088 21.521137 30.212377
1732 1 29.877146 23.672878 15.910961
1733 1 0.064072 31.232164 13.614084
1734 1 12.867808 9.846601 13.311028
1735 1 7.518873 25.601723 24.934406
1736 1 23.686162 26.767107 4.231327
1737 1 12.278587 1.048553 21.951079
1738 1 31.189423 1.553508 18.072999
1739 1 26.601327 32.368758 17.523709
1740 1 28.524900 14.618416 9.002124
1741 1 25.389003 12.023999 16.322544
1742 1 33.091681 0.945766 16.024054
1743 1 29.972810 29.206166 20.415872
1744 1 24.926493 30.570195 13.715729
1745 1 3.987130 26.549423 30.351131
1746 1 26.461925 9.493845 20.912361
1747 1 12.870258 14.078437 29.008524
1748 1 27.739649 25.723350 22.181356
1749 1 30.230391 14.744110 1.827961
1750 1 28.415447 18.620025 27.310955
1751 1 19.373121 7.911917 19.617937
1752 1 10.276657 10.873422 8.297100
1753 1 20.545721 0.596196 25.408120
1754 1 0.787819 29.271334 16.774271
1755 1 19.062365 24.205359 32.255818
1756 1 24.709816 14.837722 25.243528
1757 1 19.880924 11.787413 13.222570
1758 1 25.817157 20.385145 23.441107
1759 1 31.813881 28.898282 23.092862
1760 1 13.899096 1.948704 13.480349
1761 1 27.697136 13.730789 5.135800
1762 1 0.044140 12.777851 21.167933
1763 1 13.932524 23.308702 31.891955
1764 1 28.096902 29.878039 22.162588
1765 1 13.298629 6.964422 19.520416
1766 1 25.764731 26.962582 27.511143
1767 1 3.313312 14.368498 24.982722
1768 1 23.150660 21.934705 31.647782
1769 1 13.126862 20.577769 12.349228
1770 1 16.830987 31.327675 26.584890
1771 1 16.873393 27.782783 21.301519
1772 1 31.867502 23.847622 14.058222
1773 1 11.548145 20.648917 7.167634
1774 1 25.132810 11.442603 26.525361
1775 1 16.728221 6.315762 13.957671
1776 1 10.947846 8.392462 30.131638
1777 1 2.524438 30.308055 32.876731
1778 1 18.610515 0.370398 26.892292
1779 1 21.469358 27.229779 28.244374
1780 1 13.031261 27.669644 30.589144
1781 1 9.621743 1.100257 2.656471
1782 1 23.168174 0.834068 7.468308
1783 1 3.292988 31.590699 19.653334
1784 1 1.714094 27.216625 9.547812
1785 1 1.683649 23.266910 27.785853
1786 1 15.675406 26.513033 8.849286
1787 1 1.510196 9.304601 15.782298
1788 1 1.596604 31.476904 30.500075
1789 1 29.794890 2.927442 25.586883
1790 1 23.730156 24.709425 20.074245
1791 1 16.659655 5.435835 9.157088
1792 1 1.791749 7.228377 32.509404
1793 1 28.605900 3.147240 18.053083
1794 1 31.145354 31.583955 19.368748
1795 1 31.003732 12.954191 31.105788
1796 1 12.410654 12.904409 24.845633
1797 1 28.717479 17.020145 9.582547
1798 1 17.161715 13.448311 10.325079
1799 1 3.913730 28.034969 21.813554
1800 1 18.773832 12.620455 8.032923
1801 1 16.880473 4.684929 6.417209
1802 1 9.959210 17.567030 29.501545
1803 1 16.148435 32.229983 19.879498
1804 1 31.081903 21.766323 32.715882
1805 1 9.030267 25.613734 15.184465
1806 1 30.349498 8.910330 27.751295
1807 1 3.243890 28.267787 13.651721
1808 1 30.348774 21.567200 4.642932
1809 1 32.869020 8.171867 28.450224
1810 1 26.158893 7.954866 11.305411
1811 1 15.238291 7.918776 17.872541
1812 1 31.751428 0.086356 9.938603
1813 1 8.861822 19.549392 13.662272
1814 1 14.453422 29.308470 31.806582
1815 1 27.577902 20.560474 30.239453
1816 1 20.190723 10.082260 26.374441
1817 1 26.821639 4.416228 32.124443
1818 1 20.579013 17.347834 29.784388
1819 1 31.643108 11.104479 24.126514
1820 1 28.525226 19.210726 17.339825
1821 1 22.666955 20.402251 29.003945
1822 1 32.111027 1.159055 3.352601
1823 1 10.189524 13.981088 32.259766
1824 1 4.385816 16.258605 19.808125
1825 1 22.948639 10.395738 30.791270
1826 1 8.105189 23.169649 3.278643
1827 1 9.336065 25.895962 32.330206
1828 1 1.685072 29.439135 4.476440
1829 1 25.001464 0.479190 19.441460
1830 1 27.655819 30.154283 31.287484
1831 1 5.168980 2.879201 12.204066
1832 1 5.991321 29.437036 30.526523
1833 1 6.287743 27.415406 28.917627
1834 1 22.622812 11.957968 4.280573
1835 1 33.139817 3.785706 8.244903
1836 1 4.516146 10.880562 11.575071
1837 1 6.557057 31.849018 14.158910
1838 1 17.053281 10.589321 9.991591
1839 1 0.664438 15.506865 10.861339
1840 1 28.748095 7.173075 25.933967
1841 1 22.839023 20.937053 9.764915
1842 1 27.238580 11.824882 24.505763
1843 1 8.138260 31.523204 12.170320
1844 1 29.099346 8.993853 14.867964
1845 1 4.454317 10.717548 2.652269
1846 1 9.505643 27.853418 16.858214
1847 1 18.325181 12.456825 3.540709
1848 1 1.281362 16.486070 20.469243
1849 1 33.171701 9.426363 30.671666
1850 1 10.723019 3.292165 28.724816
1851 1 8.381587 24.723565 17.715643
1852 1 9.154311 0.400991 11.334259
1853 1 9.577514 7.167684 22.218343
1854 1 29.673278 20.969275 16.045445
1855 1 32.616552 7.839489 17.761725
1856 1 1.290219 10.777484 23.223621
1857 1 13.111365 21.392338 29.935995
1858 1 25.099358 24.877563 10.166137
1859 1 2.686633 12.553150 21.270614
1860 1 16.886417 23.834290 7.716097
1861 1 19.196180 18.247916 13.683503
1862 1 14.410931 3.002018 22.199510
1863 1 4.870981 25.503600 32.908675
1864 1 6.646523 28.919211 10.665118
1865 1 15.830927 2.329258 32.070605
1866 1 27.559026 1.240991 25.031516
1867 1 6.490350 0.480698 11.871866
1868 1 13.452365 18.811972 9.818314
1869 1 30.484336 17.760109 12.074544
1870 1 0.799889 27.139366 6.746409
1871 1 3.094991 18.539803 18.519470
1872 1 28.195760 9.683436 29.244871
1873 1 19.741182 11.961825 1.387819
1874 1 4.034768 7.666372 19.497375
1875 1 2.254861 10.542335 12.251305
1876 1 23.811260 6.940120 12.681448
1877 1 27.781314 14.922129 17.883937
1878 1 32.317040 32.192110 5.119096
1879 1 10.390363 33.080582 17.639863
1880 1 4.361402 29.895547 4.784213
1881 1 10.503301 20.172371 21.804879
1882 1 26.140069 8.940920 13.512622
1883 1 8.269391 8.557036 11.399195
1884 1 3.694007 18.128315 12.982764
1885 1 11.982149 22.576662 2.933222
1886 1 22.752674 6.972586 32.894832
1887 1 32.019944 15.222214 15.982214
1888 1 9.935896 17.691312 32.282284
1889 1 20.624061 7.148234 9.846353
1890 1 11.285434 33.120115 26.386806
1891 1 16.847414 25.289173 20.154886
1892 1 13.676757 30.743660 11.876717
1893 1 0.961728 11.718034 25.476033
1894 1 16.914188 12.183352 1.042655
1895 1 0.259719 17.363571 12.783944
1896 1 27.836391 18.558170 21.618271
1897 1 17.814152 18.988651 4.986743
1898 1 12.832952 10.873777 7.588295
1899 1 16.752520 2.145779 5.724397
1900 1 27.354315 0.856992 22.211310
1901 1 18.974944 17.067562 25.112733
1902 1 29.762991 1.970569 20.682576
1903 1 5.148431 2.632827 17.606786
1904 1 18.123084 8.533367 30.702676
1905 1 11.810183 25.061900 32.630337
1906 1 14.141970 1.482229 3.490664
1907 1 29.456692 21.696515 1.814800
1908 1 5.532408 18.922238 19.809881
1909 1 4.359498 4.428871 4.653729
1910 1 6.085603 2.138918 5.345298
1911 1 22.978908 21.223717 4.113804
1912 1 0.187930 15.450290 28.748774
1913 1 22.552907 19.286355 31.397904
1914 1 31.452094 13.496491 28.293283
1915 1 11.338132 10.507620 15.374400
1916 1 23.190834 7.272217 4.749666
1917 1 24.049795 23.668016 0.009155
1918 1 25.361330 14.900889 20.036334
1919 1 27.857298 21.875641 17.839777
1920 1 7.711948 12.986604 21.397012
1921 1 10.871648 23.215690 5.757766
1922 1 5.704380 15.066867 8.164750
1923 1 19.629916 15.408548 8.799407
1924 1 31.458889 20.112948 18.370064
1925 1 10.621200 5.820814 25.213231
1926 1 24.273302 0.211950 0.992198
1927 1 32.097544 32.841456 24.038568
1928 1 8.061407 2.613256 0.196692
1929 1 26.348446 8.762664 0.217634
1930 1 11.852678 15.946805 17.941807
1931 1 29.249706 27.862068 3.993222
1932 1 10.585333 1.362967 32.947415
1933 1 28.983922 21.219360 22.685848
1934 1 7.536326 25.706861 3.574781
1935 1 6.985442 20.016277 24.521065
1936 1 8.732944 11.029097 28.214993
1937 1 11.973604 17.300417 25.029156
1938 1 5.980403 12.721866 25.183268
1939 1 5.579746 24.854606 5.131204
1940 1 29.459446 17.629565 19.298559
1941 1 30.542049 30.908764 13.773668
1942 1 32.943647 22.552653 18.061167
1943 1 22.553856 10.571405 25.446693
1944 1 7.823835 22.596874 29.549246
1945 1 26.778495 4.567896 22.406488
1946 1 6.968415 29.549770 1.739174
1947 1 26.417958 26.715229 4.043112
1948 1 15.325386 14.242725 0.894716
1949 1 22.208154 6.557112 7.594211
1950 1 26.105232 5.957538 14.374295
1951 1 31.086691 28.867548 17.758615
1952 1 2.326185 21.822755 25.714219
1953 1 24.474484 29.473076 4.279094
1954 1 17.680605 8.555871 25.696245
1955 1 29.515321 30.133180 2.528048
1956 1 19.892158 28.256911 6.233664
1957 1 11.355423 3.183606 13.165533
1958 1 31.471316 24.203569 0.798929
1959 1 32.260571 10.083573 21.606393
1960 1 1.670469 13.643862 2.264588
1961 1 28.142679 23.145805 5.315790
1962 1 23.421991 29.205670 17.247098
1963 1 32.033109 0.579568 20.893927
1964 1 1.537492 25.369688 23.045833
1965 1 1.550901 32.326871 16.796566
1966 1 32.737111 17.511724 27.236737
1967 1 13.486977 17.536434 3.676491
1968 1 19.978751 19.236741 32.174603
1969 1 2.297277 15.914952 18.100364
1970 1 23.201402 31.339952 31.369626
1971 1 16.833848 1.623729 8.780848
1972 1 19.342829 15.815001 16.361619
1973 1 2.111747 13.906614 30.381607
1974 1 2.247144 5.055286 8.015259
1975 1 24.240873 32.724559 22.134363
1976 1 17.250174 26.762495 23.885098
1977 1 11.799450 30.461614 26.284191
1978 1 6.446672 27.009855 14.776195
1979 1 25.139683 27.508702 14.858828
1980 1 2.142675 16.598635 23.368120
1981 1 20.246552 26.957827 23.278142
1982 1 5.553295 28.065687 32.932047
1983 1 8.478251 10.746724 6.060839
1984 1 31.463621 6.640965 2.802455
1985 1 26.663793 21.539179 15.351688
1986 1 4.097290 0.148696 21.621220
1987 1 4.242394 12.609762 28.550397
1988 1 28.320494 23.897459 25.939585
1989 1 31.952822 16.381124 19.613595
1990 1 25.918070 16.655709 15.753648
1991 1 32.714684 8.928165 7.503493
1992 1 30.436134 10.106022 10.875963
1993 1 15.466882 20.689279 23.998973
1994 1 4.062732 27.855749 16.257138
1995 1 24.012408 0.994045 4.970377
1996 1 12.554823 18.936260 14.653852
1997 1 21.294316 21.210781 0.617875
1998 1 5.925995 1.850582 25.218990
1999 1 28.473574 6.176367 12.621326
2000 1 30.005824 8.856122 22.531393
2001 1 31.655389 29.913532 1.057871
2002 1 27.556485 18.854343 32.573250
2003 1 30.454733 14.834344 18.118663
2004 1 32.933858 25.993430 12.966739
2005 1 12.051427 25.900528 26.810217
2006 1 29.350175 32.015006 27.978334
2007 1 31.534138 26.684099 5.527039
2008 1 16.959611 28.450463 26.996067
2009 1 25.231438 33.020891 14.973264
2010 1 1.521125 5.371686 13.227416
2011 1 25.938463 11.680038 22.073383
2012 1 16.441902 22.366009 3.625588
2013 1 1.420932 19.875725 3.820296
2014 1 12.152176 13.293321 14.729285
2015 1 8.269602 13.695806 6.187916
2016 1 7.936990 12.405577 31.813771
2017 1 15.166357 29.508396 0.803411
2018 1 27.585121 31.114769 25.538119
2019 1 19.389026 28.410097 20.881642
2020 1 12.255434 4.947643 3.285843
2021 1 28.793986 31.342464 12.171448
2022 1 29.514208 33.093981 17.400040
2023 1 10.701237 29.580103 3.439876
2024 1 4.834003 16.761196 14.914912
2025 1 6.356186 26.361602 12.288943
2026 1 27.920991 26.482653 1.713013
2027 1 27.964561 23.922864 7.932145
2028 1 21.233125 22.869114 16.336479
2029 1 17.332373 10.670732 13.653428
2030 1 17.138759 13.556693 13.946867
2031 1 30.972988 6.010138 21.864745
2032 1 9.882259 20.463395 9.617017
2033 1 10.526485 14.015044 11.599256
2034 1 30.832443 5.006054 8.668185
2035 1 1.633357 31.726470 6.506769
2036 1 25.827193 3.087851 4.147521
2037 1 30.076846 28.147372 31.201761
2038 1 22.150882 9.118323 11.287250
2039 1 20.338331 31.547275 23.831812
2040 1 21.522070 19.412813 2.860544
2041 1 18.126349 16.483820 28.199604
2042 1 28.716820 16.835625 15.987794
2043 1 22.868213 3.441151 28.271027
2044 1 16.522861 16.501883 0.215664
2045 1 23.748580 30.311414 20.831257
2046 1 21.324800 22.373930 27.704215
2047 1 5.314640 24.203743 24.371565
2048 1 27.677610 1.500508 7.512814
