2048
Lattice="32.4 0.0 0.0 0.0 32.4 0.0 0.0 0.0 32.4" Properties=species:S:1:pos:R:3 pbc="T T T"
Al       0.00000000       0.00000000       0.00000000
Al       0.00000000       2.02500000       2.02500000
Al       2.02500000       0.00000000       2.02500000
Al       2.02500000       2.02500000       0.00000000
Al       0.00000000       0.00000000       4.05000000
Al       0.00000000       2.02500000       6.07500000
Al       2.02500000       0.00000000       6.07500000
Al       2.02500000       2.02500000       4.05000000
Al       0.00000000       0.00000000       8.10000000
Al       0.00000000       2.02500000      10.12500000
Al       2.02500000       0.00000000      10.12500000
Al       2.02500000       2.02500000       8.10000000
Al       0.00000000       0.00000000      12.15000000
Al       0.00000000       2.02500000      14.17500000
Al       2.02500000       0.00000000      14.17500000
Al       2.02500000       2.02500000      12.15000000
Al       0.00000000       0.00000000      16.20000000
Al       0.00000000       2.02500000      18.22500000
Al       2.02500000       0.00000000      18.22500000
Al       2.02500000       2.02500000      16.20000000
Al       0.00000000       0.00000000      20.25000000
Al       0.00000000       2.02500000      22.27500000
Al       2.02500000       0.00000000      22.27500000
Al       2.02500000       2.02500000      20.25000000
Al       0.00000000       0.00000000      24.30000000
Al       0.00000000       2.02500000      26.32500000
Al       2.02500000       0.00000000      26.32500000
Al       2.02500000       2.02500000      24.30000000
Al       0.00000000       0.00000000      28.35000000
Al       0.00000000       2.02500000      30.37500000
Al       2.02500000       0.00000000      30.37500000
Al       2.02500000       2.02500000      28.35000000
Al       0.00000000       4.05000000       0.00000000
Al       0.00000000       6.07500000       2.02500000
Al       2.02500000       4.05000000       2.02500000
Al       2.02500000       6.07500000       0.00000000
Al       0.00000000       4.05000000       4.05000000
Al       0.00000000       6.07500000       6.07500000
Al       2.02500000       4.05000000       6.07500000
Al       2.02500000       6.07500000       4.05000000
Al       0.00000000       4.05000000       8.10000000
Al       0.00000000       6.07500000      10.12500000
Al       2.02500000       4.05000000      10.12500000
Al       2.02500000       6.07500000       8.10000000
Al       0.00000000       4.05000000      12.15000000
Al       0.00000000       6.07500000      14.17500000
Al       2.02500000       4.05000000      14.17500000
Al       2.02500000       6.07500000      12.15000000
Al       0.00000000       4.05000000      16.20000000
Al       0.00000000       6.07500000      18.22500000
Al       2.02500000       4.05000000      18.22500000
Al       2.02500000       6.07500000      16.20000000
Al       0.00000000       4.05000000      20.25000000
Al       0.00000000       6.07500000      22.27500000
Al       2.02500000       4.05000000      22.27500000
Al       2.02500000       6.07500000      20.25000000
Al       0.00000000       4.05000000      24.30000000
Al       0.00000000       6.07500000      26.32500000
Al       2.02500000       4.05000000      26.32500000
Al       2.02500000       6.07500000      24.30000000
Al       0.00000000       4.05000000      28.35000000
Al       0.00000000       6.07500000      30.37500000
Al       2.02500000       4.05000000      30.37500000
Al       2.02500000       6.07500000      28.35000000
Al       0.00000000       8.10000000       0.00000000
Al       0.00000000      10.12500000       2.02500000
Al       2.02500000       8.10000000       2.02500000
Al       2.02500000      10.12500000       0.00000000
Al       0.00000000       8.10000000       4.05000000
Al       0.00000000      10.12500000       6.07500000
Al       2.02500000       8.10000000       6.07500000
Al       2.02500000      10.12500000       4.05000000
Al       0.00000000       8.10000000       8.10000000
Al       0.00000000      10.12500000      10.12500000
Al       2.02500000       8.10000000      10.12500000
Al       2.02500000      10.12500000       8.10000000
Al       0.00000000       8.10000000      12.15000000
Al       0.00000000      10.12500000      14.17500000
Al       2.02500000       8.10000000      14.17500000
Al       2.02500000      10.12500000      12.15000000
Al       0.00000000       8.10000000      16.20000000
Al       0.00000000      10.12500000      18.22500000
Al       2.02500000       8.10000000      18.22500000
Al       2.02500000      10.12500000      16.20000000
Al       0.00000000       8.10000000      20.25000000
Al       0.00000000      10.12500000      22.27500000
Al       2.02500000       8.10000000      22.27500000
Al       2.02500000      10.12500000      20.25000000
Al       0.00000000       8.10000000      24.30000000
Al       0.00000000      10.12500000      26.32500000
Al       2.02500000       8.10000000      26.32500000
Al       2.02500000      10.12500000      24.30000000
Al       0.00000000       8.10000000      28.35000000
Al       0.00000000      10.12500000      30.37500000
Al       2.02500000       8.10000000      30.37500000
Al       2.02500000      10.12500000      28.35000000
Al       0.00000000      12.15000000       0.00000000
Al       0.00000000      14.17500000       2.02500000
Al       2.02500000      12.15000000       2.02500000
Al       2.02500000      14.17500000       0.00000000
Al       0.00000000      12.15000000       4.05000000
Al       0.00000000      14.17500000       6.07500000
Al       2.02500000      12.15000000       6.07500000
Al       2.02500000      14.17500000       4.05000000
Al       0.00000000      12.15000000       8.10000000
Al       0.00000000      14.17500000      10.12500000
Al       2.02500000      12.15000000      10.12500000
Al       2.02500000      14.17500000       8.10000000
Al       0.00000000      12.15000000      12.15000000
Al       0.00000000      14.17500000      14.17500000
Al       2.02500000      12.15000000      14.17500000
Al       2.02500000      14.17500000      12.15000000
Al       0.00000000      12.15000000      16.20000000
Al       0.00000000      14.17500000      18.22500000
Al       2.02500000      12.15000000      18.22500000
Al       2.02500000      14.17500000      16.20000000
Al       0.00000000      12.15000000      20.25000000
Al       0.00000000      14.17500000      22.27500000
Al       2.02500000      12.15000000      22.27500000
Al       2.02500000      14.17500000      20.25000000
Al       0.00000000      12.15000000      24.30000000
Al       0.00000000      14.17500000      26.32500000
Al       2.02500000      12.15000000      26.32500000
Al       2.02500000      14.17500000      24.30000000
Al       0.00000000      12.15000000      28.35000000
Al       0.00000000      14.17500000      30.37500000
Al       2.02500000      12.15000000      30.37500000
Al       2.02500000      14.17500000      28.35000000
Al       0.00000000      16.20000000       0.00000000
Al       0.00000000      18.22500000       2.02500000
Al       2.02500000      16.20000000       2.02500000
Al       2.02500000      18.22500000       0.00000000
Al       0.00000000      16.20000000       4.05000000
Al       0.00000000      18.22500000       6.07500000
Al       2.02500000      16.20000000       6.07500000
Al       2.02500000      18.22500000       4.05000000
Al       0.00000000      16.20000000       8.10000000
Al       0.00000000      18.22500000      10.12500000
Al       2.02500000      16.20000000      10.12500000
Al       2.02500000      18.22500000       8.10000000
Al       0.00000000      16.20000000      12.15000000
Al       0.00000000      18.22500000      14.17500000
Al       2.02500000      16.20000000      14.17500000
Al       2.02500000      18.22500000      12.15000000
Al       0.00000000      16.20000000      16.20000000
Al       0.00000000      18.22500000      18.22500000
Al       2.02500000      16.20000000      18.22500000
Al       2.02500000      18.22500000      16.20000000
Al       0.00000000      16.20000000      20.25000000
Al       0.00000000      18.22500000      22.27500000
Al       2.02500000      16.20000000      22.27500000
Al       2.02500000      18.22500000      20.25000000
Al       0.00000000      16.20000000      24.30000000
Al       0.00000000      18.22500000      26.32500000
Al       2.02500000      16.20000000      26.32500000
Al       2.02500000      18.22500000      24.30000000
Al       0.00000000      16.20000000      28.35000000
Al       0.00000000      18.22500000      30.37500000
Al       2.02500000      16.20000000      30.37500000
Al       2.02500000      18.22500000      28.35000000
Al       0.00000000      20.25000000       0.00000000
Al       0.00000000      22.27500000       2.02500000
Al       2.02500000      20.25000000       2.02500000
Al       2.02500000      22.27500000       0.00000000
Al       0.00000000      20.25000000       4.05000000
Al       0.00000000      22.27500000       6.07500000
Al       2.02500000      20.25000000       6.07500000
Al       2.02500000      22.27500000       4.05000000
Al       0.00000000      20.25000000       8.10000000
Al       0.00000000      22.27500000      10.12500000
Al       2.02500000      20.25000000      10.12500000
Al       2.02500000      22.27500000       8.10000000
Al       0.00000000      20.25000000      12.15000000
Al       0.00000000      22.27500000      14.17500000
Al       2.02500000      20.25000000      14.17500000
Al       2.02500000      22.27500000      12.15000000
Al       0.00000000      20.25000000      16.20000000
Al       0.00000000      22.27500000      18.22500000
Al       2.02500000      20.25000000      18.22500000
Al       2.02500000      22.27500000      16.20000000
Al       0.00000000      20.25000000      20.25000000
Al       0.00000000      22.27500000      22.27500000
Al       2.02500000      20.25000000      22.27500000
Al       2.02500000      22.27500000      20.25000000
Al       0.00000000      20.25000000      24.30000000
Al       0.00000000      22.27500000      26.32500000
Al       2.02500000      20.25000000      26.32500000
Al       2.02500000      22.27500000      24.30000000
Al       0.00000000      20.25000000      28.35000000
Al       0.00000000      22.27500000      30.37500000
Al       2.02500000      20.25000000      30.37500000
Al       2.02500000      22.27500000      28.35000000
Al       0.00000000      24.30000000       0.00000000
Al       0.00000000      26.32500000       2.02500000
Al       2.02500000      24.30000000       2.02500000
Al       2.02500000      26.32500000       0.00000000
Al       0.00000000      24.30000000       4.05000000
Al       0.00000000      26.32500000       6.07500000
Al       2.02500000      24.30000000       6.07500000
Al       2.02500000      26.32500000       4.05000000
Al       0.00000000      24.30000000       8.10000000
Al       0.00000000      26.32500000      10.12500000
Al       2.02500000      24.30000000      10.12500000
Al       2.02500000      26.32500000       8.10000000
Al       0.00000000      24.30000000      12.15000000
Al       0.00000000      26.32500000      14.17500000
Al       2.02500000      24.30000000      14.17500000
Al       2.02500000      26.32500000      12.15000000
Al       0.00000000      24.30000000      16.20000000
Al       0.00000000      26.32500000      18.22500000
Al       2.02500000      24.30000000      18.22500000
Al       2.02500000      26.32500000      16.20000000
Al       0.00000000      24.30000000      20.25000000
Al       0.00000000      26.32500000      22.27500000
Al       2.02500000      24.30000000      22.27500000
Al       2.02500000      26.32500000      20.25000000
Al       0.00000000      24.30000000      24.30000000
Al       0.00000000      26.32500000      26.32500000
Al       2.02500000      24.30000000      26.32500000
Al       2.02500000      26.32500000      24.30000000
Al       0.00000000      24.30000000      28.35000000
Al       0.00000000      26.32500000      30.37500000
Al       2.02500000      24.30000000      30.37500000
Al       2.02500000      26.32500000      28.35000000
Al       0.00000000      28.35000000       0.00000000
Al       0.00000000      30.37500000       2.02500000
Al       2.02500000      28.35000000       2.02500000
Al       2.02500000      30.37500000       0.00000000
Al       0.00000000      28.35000000       4.05000000
Al       0.00000000      30.37500000       6.07500000
Al       2.02500000      28.35000000       6.07500000
Al       2.02500000      30.37500000       4.05000000
Al       0.00000000      28.35000000       8.10000000
Al       0.00000000      30.37500000      10.12500000
Al       2.02500000      28.35000000      10.12500000
Al       2.02500000      30.37500000       8.10000000
Al       0.00000000      28.35000000      12.15000000
Al       0.00000000      30.37500000      14.17500000
Al       2.02500000      28.35000000      14.17500000
Al       2.02500000      30.37500000      12.15000000
Al       0.00000000      28.35000000      16.20000000
Al       0.00000000      30.37500000      18.22500000
Al       2.02500000      28.35000000      18.22500000
Al       2.02500000      30.37500000      16.20000000
Al       0.00000000      28.35000000      20.25000000
Al       0.00000000      30.37500000      22.27500000
Al       2.02500000      28.35000000      22.27500000
Al       2.02500000      30.37500000      20.25000000
Al       0.00000000      28.35000000      24.30000000
Al       0.00000000      30.37500000      26.32500000
Al       2.02500000      28.35000000      26.32500000
Al       2.02500000      30.37500000      24.30000000
Al       0.00000000      28.35000000      28.35000000
Al       0.00000000      30.37500000      30.37500000
Al       2.02500000      28.35000000      30.37500000
Al       2.02500000      30.37500000      28.35000000
Al       4.05000000       0.00000000       0.00000000
Al       4.05000000       2.02500000       2.02500000
Al       6.07500000       0.00000000       2.02500000
Al       6.07500000       2.02500000       0.00000000
Al       4.05000000       0.00000000       4.05000000
Al       4.05000000       2.02500000       6.07500000
Al       6.07500000       0.00000000       6.07500000
Al       6.07500000       2.02500000       4.05000000
Al       4.05000000       0.00000000       8.10000000
Al       4.05000000       2.02500000      10.12500000
Al       6.07500000       0.00000000      10.12500000
Al       6.07500000       2.02500000       8.10000000
Al       4.05000000       0.00000000      12.15000000
Al       4.05000000       2.02500000      14.17500000
Al       6.07500000       0.00000000      14.17500000
Al       6.07500000       2.02500000      12.15000000
Al       4.05000000       0.00000000      16.20000000
Al       4.05000000       2.02500000      18.22500000
Al       6.07500000       0.00000000      18.22500000
Al       6.07500000       2.02500000      16.20000000
Al       4.05000000       0.00000000      20.25000000
Al       4.05000000       2.02500000      22.27500000
Al       6.07500000       0.00000000      22.27500000
Al       6.07500000       2.02500000      20.25000000
Al       4.05000000       0.00000000      24.30000000
Al       4.05000000       2.02500000      26.32500000
Al       6.07500000       0.00000000      26.32500000
Al       6.07500000       2.02500000      24.30000000
Al       4.05000000       0.00000000      28.35000000
Al       4.05000000       2.02500000      30.37500000
Al       6.07500000       0.00000000      30.37500000
Al       6.07500000       2.02500000      28.35000000
Al       4.05000000       4.05000000       0.00000000
Al       4.05000000       6.07500000       2.02500000
Al       6.07500000       4.05000000       2.02500000
Al       6.07500000       6.07500000       0.00000000
Al       4.05000000       4.05000000       4.05000000
Al       4.05000000       6.07500000       6.07500000
Al       6.07500000       4.05000000       6.07500000
Al       6.07500000       6.07500000       4.05000000
Al       4.05000000       4.05000000       8.10000000
Al       4.05000000       6.07500000      10.12500000
Al       6.07500000       4.05000000      10.12500000
Al       6.07500000       6.07500000       8.10000000
Al       4.05000000       4.05000000      12.15000000
Al       4.05000000       6.07500000      14.17500000
Al       6.07500000       4.05000000      14.17500000
Al       6.07500000       6.07500000      12.15000000
Al       4.05000000       4.05000000      16.20000000
Al       4.05000000       6.07500000      18.22500000
Al       6.07500000       4.05000000      18.22500000
Al       6.07500000       6.07500000      16.20000000
Al       4.05000000       4.05000000      20.25000000
Al       4.05000000       6.07500000      22.27500000
Al       6.07500000       4.05000000      22.27500000
Al       6.07500000       6.07500000      20.25000000
Al       4.05000000       4.05000000      24.30000000
Al       4.05000000       6.07500000      26.32500000
Al       6.07500000       4.05000000      26.32500000
Al       6.07500000       6.07500000      24.30000000
Al       4.05000000       4.05000000      28.35000000
Al       4.05000000       6.07500000      30.37500000
Al       6.07500000       4.05000000      30.37500000
Al       6.07500000       6.07500000      28.35000000
Al       4.05000000       8.10000000       0.00000000
Al       4.05000000      10.12500000       2.02500000
Al       6.07500000       8.10000000       2.02500000
Al       6.07500000      10.12500000       0.00000000
Al       4.05000000       8.10000000       4.05000000
Al       4.05000000      10.12500000       6.07500000
Al       6.07500000       8.10000000       6.07500000
Al       6.07500000      10.12500000       4.05000000
Al       4.05000000       8.10000000       8.10000000
Al       4.05000000      10.12500000      10.12500000
Al       6.07500000       8.10000000      10.12500000
Al       6.07500000      10.12500000       8.10000000
Al       4.05000000       8.10000000      12.15000000
Al       4.05000000      10.12500000      14.17500000
Al       6.07500000       8.10000000      14.17500000
Al       6.07500000      10.12500000      12.15000000
Al       4.05000000       8.10000000      16.20000000
Al       4.05000000      10.12500000      18.22500000
Al       6.07500000       8.10000000      18.22500000
Al       6.07500000      10.12500000      16.20000000
Al       4.05000000       8.10000000      20.25000000
Al       4.05000000      10.12500000      22.27500000
Al       6.07500000       8.10000000      22.27500000
Al       6.07500000      10.12500000      20.25000000
Al       4.05000000       8.10000000      24.30000000
Al       4.05000000      10.12500000      26.32500000
Al       6.07500000       8.10000000      26.32500000
Al       6.07500000      10.12500000      24.30000000
Al       4.05000000       8.10000000      28.35000000
Al       4.05000000      10.12500000      30.37500000
Al       6.07500000       8.10000000      30.37500000
Al       6.07500000      10.12500000      28.35000000
Al       4.05000000      12.15000000       0.00000000
Al       4.05000000      14.17500000       2.02500000
Al       6.07500000      12.15000000       2.02500000
Al       6.07500000      14.17500000       0.00000000
Al       4.05000000      12.15000000       4.05000000
Al       4.05000000      14.17500000       6.07500000
Al       6.07500000      12.15000000       6.07500000
Al       6.07500000      14.17500000       4.05000000
Al       4.05000000      12.15000000       8.10000000
Al       4.05000000      14.17500000      10.12500000
Al       6.07500000      12.15000000      10.12500000
Al       6.07500000      14.17500000       8.10000000
Al       4.05000000      12.15000000      12.15000000
Al       4.05000000      14.17500000      14.17500000
Al       6.07500000      12.15000000      14.17500000
Al       6.07500000      14.17500000      12.15000000
Al       4.05000000      12.15000000      16.20000000
Al       4.05000000      14.17500000      18.22500000
Al       6.07500000      12.15000000      18.22500000
Al       6.07500000      14.17500000      16.20000000
Al       4.05000000      12.15000000      20.25000000
Al       4.05000000      14.17500000      22.27500000
Al       6.07500000      12.15000000      22.27500000
Al       6.07500000      14.17500000      20.25000000
Al       4.05000000      12.15000000      24.30000000
Al       4.05000000      14.17500000      26.32500000
Al       6.07500000      12.15000000      26.32500000
Al       6.07500000      14.17500000      24.30000000
Al       4.05000000      12.15000000      28.35000000
Al       4.05000000      14.17500000      30.37500000
Al       6.07500000      12.15000000      30.37500000
Al       6.07500000      14.17500000      28.35000000
Al       4.05000000      16.20000000       0.00000000
Al       4.05000000      18.22500000       2.02500000
Al       6.07500000      16.20000000       2.02500000
Al       6.07500000      18.22500000       0.00000000
Al       4.05000000      16.20000000       4.05000000
Al       4.05000000      18.22500000       6.07500000
Al       6.07500000      16.20000000       6.07500000
Al       6.07500000      18.22500000       4.05000000
Al       4.05000000      16.20000000       8.10000000
Al       4.05000000      18.22500000      10.12500000
Al       6.07500000      16.20000000      10.12500000
Al       6.07500000      18.22500000       8.10000000
Al       4.05000000      16.20000000      12.15000000
Al       4.05000000      18.22500000      14.17500000
Al       6.07500000      16.20000000      14.17500000
Al       6.07500000      18.22500000      12.15000000
Al       4.05000000      16.20000000      16.20000000
Al       4.05000000      18.22500000      18.22500000
Al       6.07500000      16.20000000      18.22500000
Al       6.07500000      18.22500000      16.20000000
Al       4.05000000      16.20000000      20.25000000
Al       4.05000000      18.22500000      22.27500000
Al       6.07500000      16.20000000      22.27500000
Al       6.07500000      18.22500000      20.25000000
Al       4.05000000      16.20000000      24.30000000
Al       4.05000000      18.22500000      26.32500000
Al       6.07500000      16.20000000      26.32500000
Al       6.07500000      18.22500000      24.30000000
Al       4.05000000      16.20000000      28.35000000
Al       4.05000000      18.22500000      30.37500000
Al       6.07500000      16.20000000      30.37500000
Al       6.07500000      18.22500000      28.35000000
Al       4.05000000      20.25000000       0.00000000
Al       4.05000000      22.27500000       2.02500000
Al       6.07500000      20.25000000       2.02500000
Al       6.07500000      22.27500000       0.00000000
Al       4.05000000      20.25000000       4.05000000
Al       4.05000000      22.27500000       6.07500000
Al       6.07500000      20.25000000       6.07500000
Al       6.07500000      22.27500000       4.05000000
Al       4.05000000      20.25000000       8.10000000
Al       4.05000000      22.27500000      10.12500000
Al       6.07500000      20.25000000      10.12500000
Al       6.07500000      22.27500000       8.10000000
Al       4.05000000      20.25000000      12.15000000
Al       4.05000000      22.27500000      14.17500000
Al       6.07500000      20.25000000      14.17500000
Al       6.07500000      22.27500000      12.15000000
Al       4.05000000      20.25000000      16.20000000
Al       4.05000000      22.27500000      18.22500000
Al       6.07500000      20.25000000      18.22500000
Al       6.07500000      22.27500000      16.20000000
Al       4.05000000      20.25000000      20.25000000
Al       4.05000000      22.27500000      22.27500000
Al       6.07500000      20.25000000      22.27500000
Al       6.07500000      22.27500000      20.25000000
Al       4.05000000      20.25000000      24.30000000
Al       4.05000000      22.27500000      26.32500000
Al       6.07500000      20.25000000      26.32500000
Al       6.07500000      22.27500000      24.30000000
Al       4.05000000      20.25000000      28.35000000
Al       4.05000000      22.27500000      30.37500000
Al       6.07500000      20.25000000      30.37500000
Al       6.07500000      22.27500000      28.35000000
Al       4.05000000      24.30000000       0.00000000
Al       4.05000000      26.32500000       2.02500000
Al       6.07500000      24.30000000       2.02500000
Al       6.07500000      26.32500000       0.00000000
Al       4.05000000      24.30000000       4.05000000
Al       4.05000000      26.32500000       6.07500000
Al       6.07500000      24.30000000       6.07500000
Al       6.07500000      26.32500000       4.05000000
Al       4.05000000      24.30000000       8.10000000
Al       4.05000000      26.32500000      10.12500000
Al       6.07500000      24.30000000      10.12500000
Al       6.07500000      26.32500000       8.10000000
Al       4.05000000      24.30000000      12.15000000
Al       4.05000000      26.32500000      14.17500000
Al       6.07500000      24.30000000      14.17500000
Al       6.07500000      26.32500000      12.15000000
Al       4.05000000      24.30000000      16.20000000
Al       4.05000000      26.32500000      18.22500000
Al       6.07500000      24.30000000      18.22500000
Al       6.07500000      26.32500000      16.20000000
Al       4.05000000      24.30000000      20.25000000
Al       4.05000000      26.32500000      22.27500000
Al       6.07500000      24.30000000      22.27500000
Al       6.07500000      26.32500000      20.25000000
Al       4.05000000      24.30000000      24.30000000
Al       4.05000000      26.32500000      26.32500000
Al       6.07500000      24.30000000      26.32500000
Al       6.07500000      26.32500000      24.30000000
Al       4.05000000      24.30000000      28.35000000
Al       4.05000000      26.32500000      30.37500000
Al       6.07500000      24.30000000      30.37500000
Al       6.07500000      26.32500000      28.35000000
Al       4.05000000      28.35000000       0.00000000
Al       4.05000000      30.37500000       2.02500000
Al       6.07500000      28.35000000       2.02500000
Al       6.07500000      30.37500000       0.00000000
Al       4.05000000      28.35000000       4.05000000
Al       4.05000000      30.37500000       6.07500000
Al       6.07500000      28.35000000       6.07500000
Al       6.07500000      30.37500000       4.05000000
Al       4.05000000      28.35000000       8.10000000
Al       4.05000000      30.37500000      10.12500000
Al       6.07500000      28.35000000      10.12500000
Al       6.07500000      30.37500000       8.10000000
Al       4.05000000      28.35000000      12.15000000
Al       4.05000000      30.37500000      14.17500000
Al       6.07500000      28.35000000      14.17500000
Al       6.07500000      30.37500000      12.15000000
Al       4.05000000      28.35000000      16.20000000
Al       4.05000000      30.37500000      18.22500000
Al       6.07500000      28.35000000      18.22500000
Al       6.07500000      30.37500000      16.20000000
Al       4.05000000      28.35000000      20.25000000
Al       4.05000000      30.37500000      22.27500000
Al       6.07500000      28.35000000      22.27500000
Al       6.07500000      30.37500000      20.25000000
Al       4.05000000      28.35000000      24.30000000
Al       4.05000000      30.37500000      26.32500000
Al       6.07500000      28.35000000      26.32500000
Al       6.07500000      30.37500000      24.30000000
Al       4.05000000      28.35000000      28.35000000
Al       4.05000000      30.37500000      30.37500000
Al       6.07500000      28.35000000      30.37500000
Al       6.07500000      30.37500000      28.35000000
Al       8.10000000       0.00000000       0.00000000
Al       8.10000000       2.02500000       2.02500000
Al      10.12500000       0.00000000       2.02500000
Al      10.12500000       2.02500000       0.00000000
Al       8.10000000       0.00000000       4.05000000
Al       8.10000000       2.02500000       6.07500000
Al      10.12500000       0.00000000       6.07500000
Al      10.12500000       2.02500000       4.05000000
Al       8.10000000       0.00000000       8.10000000
Al       8.10000000       2.02500000      10.12500000
Al      10.12500000       0.00000000      10.12500000
Al      10.12500000       2.02500000       8.10000000
Al       8.10000000       0.00000000      12.15000000
Al       8.10000000       2.02500000      14.17500000
Al      10.12500000       0.00000000      14.17500000
Al      10.12500000       2.02500000      12.15000000
Al       8.10000000       0.00000000      16.20000000
Al       8.10000000       2.02500000      18.22500000
Al      10.12500000       0.00000000      18.22500000
Al      10.12500000       2.02500000      16.20000000
Al       8.10000000       0.00000000      20.25000000
Al       8.10000000       2.02500000      22.27500000
Al      10.12500000       0.00000000      22.27500000
Al      10.12500000       2.02500000      20.25000000
Al       8.10000000       0.00000000      24.30000000
Al       8.10000000       2.02500000      26.32500000
Al      10.12500000       0.00000000      26.32500000
Al      10.12500000       2.02500000      24.30000000
Al       8.10000000       0.00000000      28.35000000
Al       8.10000000       2.02500000      30.37500000
Al      10.12500000       0.00000000      30.37500000
Al      10.12500000       2.02500000      28.35000000
Al       8.10000000       4.05000000       0.00000000
Al       8.10000000       6.07500000       2.02500000
Al      10.12500000       4.05000000       2.02500000
Al      10.12500000       6.07500000       0.00000000
Al       8.10000000       4.05000000       4.05000000
Al       8.10000000       6.07500000       6.07500000
Al      10.12500000       4.05000000       6.07500000
Al      10.12500000       6.07500000       4.05000000
Al       8.10000000       4.05000000       8.10000000
Al       8.10000000       6.07500000      10.12500000
Al      10.12500000       4.05000000      10.12500000
Al      10.12500000       6.07500000       8.10000000
Al       8.10000000       4.05000000      12.15000000
Al       8.10000000       6.07500000      14.17500000
Al      10.12500000       4.05000000      14.17500000
Al      10.12500000       6.07500000      12.15000000
Al       8.10000000       4.05000000      16.20000000
Al       8.10000000       6.07500000      18.22500000
Al      10.12500000       4.05000000      18.22500000
Al      10.12500000       6.07500000      16.20000000
Al       8.10000000       4.05000000      20.25000000
Al       8.10000000       6.07500000      22.27500000
Al      10.12500000       4.05000000      22.27500000
Al      10.12500000       6.07500000      20.25000000
Al       8.10000000       4.05000000      24.30000000
Al       8.10000000       6.07500000      26.32500000
Al      10.12500000       4.05000000      26.32500000
Al      10.12500000       6.07500000      24.30000000
Al       8.10000000       4.05000000      28.35000000
Al       8.10000000       6.07500000      30.37500000
Al      10.12500000       4.05000000      30.37500000
Al      10.12500000       6.07500000      28.35000000
Al       8.10000000       8.10000000       0.00000000
Al       8.10000000      10.12500000       2.02500000
Al      10.12500000       8.10000000       2.02500000
Al      10.12500000      10.12500000       0.00000000
Al       8.10000000       8.10000000       4.05000000
Al       8.10000000      10.12500000       6.07500000
Al      10.12500000       8.10000000       6.07500000
Al      10.12500000      10.12500000       4.05000000
Al       8.10000000       8.10000000       8.10000000
Al       8.10000000      10.12500000      10.12500000
Al      10.12500000       8.10000000      10.12500000
Al      10.12500000      10.12500000       8.10000000
Al       8.10000000       8.10000000      12.15000000
Al       8.10000000      10.12500000      14.17500000
Al      10.12500000       8.10000000      14.17500000
Al      10.12500000      10.12500000      12.15000000
Al       8.10000000       8.10000000      16.20000000
Al       8.10000000      10.12500000      18.22500000
Al      10.12500000       8.10000000      18.22500000
Al      10.12500000      10.12500000      16.20000000
Al       8.10000000       8.10000000      20.25000000
Al       8.10000000      10.12500000      22.27500000
Al      10.12500000       8.10000000      22.27500000
Al      10.12500000      10.12500000      20.25000000
Al       8.10000000       8.10000000      24.30000000
Al       8.10000000      10.12500000      26.32500000
Al      10.12500000       8.10000000      26.32500000
Al      10.12500000      10.12500000      24.30000000
Al       8.10000000       8.10000000      28.35000000
Al       8.10000000      10.12500000      30.37500000
Al      10.12500000       8.10000000      30.37500000
Al      10.12500000      10.12500000      28.35000000
Al       8.10000000      12.15000000       0.00000000
Al       8.10000000      14.17500000       2.02500000
Al      10.12500000      12.15000000       2.02500000
Al      10.12500000      14.17500000       0.00000000
Al       8.10000000      12.15000000       4.05000000
Al       8.10000000      14.17500000       6.07500000
Al      10.12500000      12.15000000       6.07500000
Al      10.12500000      14.17500000       4.05000000
Al       8.10000000      12.15000000       8.10000000
Al       8.10000000      14.17500000      10.12500000
Al      10.12500000      12.15000000      10.12500000
Al      10.12500000      14.17500000       8.10000000
Al       8.10000000      12.15000000      12.15000000
Al       8.10000000      14.17500000      14.17500000
Al      10.12500000      12.15000000      14.17500000
Al      10.12500000      14.17500000      12.15000000
Al       8.10000000      12.15000000      16.20000000
Al       8.10000000      14.17500000      18.22500000
Al      10.12500000      12.15000000      18.22500000
Al      10.12500000      14.17500000      16.20000000
Al       8.10000000      12.15000000      20.25000000
Al       8.10000000      14.17500000      22.27500000
Al      10.12500000      12.15000000      22.27500000
Al      10.12500000      14.17500000      20.25000000
Al       8.10000000      12.15000000      24.30000000
Al       8.10000000      14.17500000      26.32500000
Al      10.12500000      12.15000000      26.32500000
Al      10.12500000      14.17500000      24.30000000
Al       8.10000000      12.15000000      28.35000000
Al       8.10000000      14.17500000      30.37500000
Al      10.12500000      12.15000000      30.37500000
Al      10.12500000      14.17500000      28.35000000
Al       8.10000000      16.20000000       0.00000000
Al       8.10000000      18.22500000       2.02500000
Al      10.12500000      16.20000000       2.02500000
Al      10.12500000      18.22500000       0.00000000
Al       8.10000000      16.20000000       4.05000000
Al       8.10000000      18.22500000       6.07500000
Al      10.12500000      16.20000000       6.07500000
Al      10.12500000      18.22500000       4.05000000
Al       8.10000000      16.20000000       8.10000000
Al       8.10000000      18.22500000      10.12500000
Al      10.12500000      16.20000000      10.12500000
Al      10.12500000      18.22500000       8.10000000
Al       8.10000000      16.20000000      12.15000000
Al       8.10000000      18.22500000      14.17500000
Al      10.12500000      16.20000000      14.17500000
Al      10.12500000      18.22500000      12.15000000
Al       8.10000000      16.20000000      16.20000000
Al       8.10000000      18.22500000      18.22500000
Al      10.12500000      16.20000000      18.22500000
Al      10.12500000      18.22500000      16.20000000
Al       8.10000000      16.20000000      20.25000000
Al       8.10000000      18.22500000      22.27500000
Al      10.12500000      16.20000000      22.27500000
Al      10.12500000      18.22500000      20.25000000
Al       8.10000000      16.20000000      24.30000000
Al       8.10000000      18.22500000      26.32500000
Al      10.12500000      16.20000000      26.32500000
Al      10.12500000      18.22500000      24.30000000
Al       8.10000000      16.20000000      28.35000000
Al       8.10000000      18.22500000      30.37500000
Al      10.12500000      16.20000000      30.37500000
Al      10.12500000      18.22500000      28.35000000
Al       8.10000000      20.25000000       0.00000000
Al       8.10000000      22.27500000       2.02500000
Al      10.12500000      20.25000000       2.02500000
Al      10.12500000      22.27500000       0.00000000
Al       8.10000000      20.25000000       4.05000000
Al       8.10000000      22.27500000       6.07500000
Al      10.12500000      20.25000000       6.07500000
Al      10.12500000      22.27500000       4.05000000
Al       8.10000000      20.25000000       8.10000000
Al       8.10000000      22.27500000      10.12500000
Al      10.12500000      20.25000000      10.12500000
Al      10.12500000      22.27500000       8.10000000
Al       8.10000000      20.25000000      12.15000000
Al       8.10000000      22.27500000      14.17500000
Al      10.12500000      20.25000000      14.17500000
Al      10.12500000      22.27500000      12.15000000
Al       8.10000000      20.25000000      16.20000000
Al       8.10000000      22.27500000      18.22500000
Al      10.12500000      20.25000000      18.22500000
Al      10.12500000      22.27500000      16.20000000
Al       8.10000000      20.25000000      20.25000000
Al       8.10000000      22.27500000      22.27500000
Al      10.12500000      20.25000000      22.27500000
Al      10.12500000      22.27500000      20.25000000
Al       8.10000000      20.25000000      24.30000000
Al       8.10000000      22.27500000      26.32500000
Al      10.12500000      20.25000000      26.32500000
Al      10.12500000      22.27500000      24.30000000
Al       8.10000000      20.25000000      28.35000000
Al       8.10000000      22.27500000      30.37500000
Al      10.12500000      20.25000000      30.37500000
Al      10.12500000      22.27500000      28.35000000
Al       8.10000000      24.30000000       0.00000000
Al       8.10000000      26.32500000       2.02500000
Al      10.12500000      24.30000000       2.02500000
Al      10.12500000      26.32500000       0.00000000
Al       8.10000000      24.30000000       4.05000000
Al       8.10000000      26.32500000       6.07500000
Al      10.12500000      24.30000000       6.07500000
Al      10.12500000      26.32500000       4.05000000
Al       8.10000000      24.30000000       8.10000000
Al       8.10000000      26.32500000      10.12500000
Al      10.12500000      24.30000000      10.12500000
Al      10.12500000      26.32500000       8.10000000
Al       8.10000000      24.30000000      12.15000000
Al       8.10000000      26.32500000      14.17500000
Al      10.12500000      24.30000000      14.17500000
Al      10.12500000      26.32500000      12.15000000
Al       8.10000000      24.30000000      16.20000000
Al       8.10000000      26.32500000      18.22500000
Al      10.12500000      24.30000000      18.22500000
Al      10.12500000      26.32500000      16.20000000
Al       8.10000000      24.30000000      20.25000000
Al       8.10000000      26.32500000      22.27500000
Al      10.12500000      24.30000000      22.27500000
Al      10.12500000      26.32500000      20.25000000
Al       8.10000000      24.30000000      24.30000000
Al       8.10000000      26.32500000      26.32500000
Al      10.12500000      24.30000000      26.32500000
Al      10.12500000      26.32500000      24.30000000
Al       8.10000000      24.30000000      28.35000000
Al       8.10000000      26.32500000      30.37500000
Al      10.12500000      24.30000000      30.37500000
Al      10.12500000      26.32500000      28.35000000
Al       8.10000000      28.35000000       0.00000000
Al       8.10000000      30.37500000       2.02500000
Al      10.12500000      28.35000000       2.02500000
Al      10.12500000      30.37500000       0.00000000
Al       8.10000000      28.35000000       4.05000000
Al       8.10000000      30.37500000       6.07500000
Al      10.12500000      28.35000000       6.07500000
Al      10.12500000      30.37500000       4.05000000
Al       8.10000000      28.35000000       8.10000000
Al       8.10000000      30.37500000      10.12500000
Al      10.12500000      28.35000000      10.12500000
Al      10.12500000      30.37500000       8.10000000
Al       8.10000000      28.35000000      12.15000000
Al       8.10000000      30.37500000      14.17500000
Al      10.12500000      28.35000000      14.17500000
Al      10.12500000      30.37500000      12.15000000
Al       8.10000000      28.35000000      16.20000000
Al       8.10000000      30.37500000      18.22500000
Al      10.12500000      28.35000000      18.22500000
Al      10.12500000      30.37500000      16.20000000
Al       8.10000000      28.35000000      20.25000000
Al       8.10000000      30.37500000      22.27500000
Al      10.12500000      28.35000000      22.27500000
Al      10.12500000      30.37500000      20.25000000
Al       8.10000000      28.35000000      24.30000000
Al       8.10000000      30.37500000      26.32500000
Al      10.12500000      28.35000000      26.32500000
Al      10.12500000      30.37500000      24.30000000
Al       8.10000000      28.35000000      28.35000000
Al       8.10000000      30.37500000      30.37500000
Al      10.12500000      28.35000000      30.37500000
Al      10.12500000      30.37500000      28.35000000
Al      12.15000000       0.00000000       0.00000000
Al      12.15000000       2.02500000       2.02500000
Al      14.17500000       0.00000000       2.02500000
Al      14.17500000       2.02500000       0.00000000
Al      12.15000000       0.00000000       4.05000000
Al      12.15000000       2.02500000       6.07500000
Al      14.17500000       0.00000000       6.07500000
Al      14.17500000       2.02500000       4.05000000
Al      12.15000000       0.00000000       8.10000000
Al      12.15000000       2.02500000      10.12500000
Al      14.17500000       0.00000000      10.12500000
Al      14.17500000       2.02500000       8.10000000
Al      12.15000000       0.00000000      12.15000000
Al      12.15000000       2.02500000      14.17500000
Al      14.17500000       0.00000000      14.17500000
Al      14.17500000       2.02500000      12.15000000
Al      12.15000000       0.00000000      16.20000000
Al      12.15000000       2.02500000      18.22500000
Al      14.17500000       0.00000000      18.22500000
Al      14.17500000       2.02500000      16.20000000
Al      12.15000000       0.00000000      20.25000000
Al      12.15000000       2.02500000      22.27500000
Al      14.17500000       0.00000000      22.27500000
Al      14.17500000       2.02500000      20.25000000
Al      12.15000000       0.00000000      24.30000000
Al      12.15000000       2.02500000      26.32500000
Al      14.17500000       0.00000000      26.32500000
Al      14.17500000       2.02500000      24.30000000
Al      12.15000000       0.00000000      28.35000000
Al      12.15000000       2.02500000      30.37500000
Al      14.17500000       0.00000000      30.37500000
Al      14.17500000       2.02500000      28.35000000
Al      12.15000000       4.05000000       0.00000000
Al      12.15000000       6.07500000       2.02500000
Al      14.17500000       4.05000000       2.02500000
Al      14.17500000       6.07500000       0.00000000
Al      12.15000000       4.05000000       4.05000000
Al      12.15000000       6.07500000       6.07500000
Al      14.17500000       4.05000000       6.07500000
Al      14.17500000       6.07500000       4.05000000
Al      12.15000000       4.05000000       8.10000000
Al      12.15000000       6.07500000      10.12500000
Al      14.17500000       4.05000000      10.12500000
Al      14.17500000       6.07500000       8.10000000
Al      12.15000000       4.05000000      12.15000000
Al      12.15000000       6.07500000      14.17500000
Al      14.17500000       4.05000000      14.17500000
Al      14.17500000       6.07500000      12.15000000
Al      12.15000000       4.05000000      16.20000000
Al      12.15000000       6.07500000      18.22500000
Al      14.17500000       4.05000000      18.22500000
Al      14.17500000       6.07500000      16.20000000
Al      12.15000000       4.05000000      20.25000000
Al      12.15000000       6.07500000      22.27500000
Al      14.17500000       4.05000000      22.27500000
Al      14.17500000       6.07500000      20.25000000
Al      12.15000000       4.05000000      24.30000000
Al      12.15000000       6.07500000      26.32500000
Al      14.17500000       4.05000000      26.32500000
Al      14.17500000       6.07500000      24.30000000
Al      12.15000000       4.05000000      28.35000000
Al      12.15000000       6.07500000      30.37500000
Al      14.17500000       4.05000000      30.37500000
Al      14.17500000       6.07500000      28.35000000
Al      12.15000000       8.10000000       0.00000000
Al      12.15000000      10.12500000       2.02500000
Al      14.17500000       8.10000000       2.02500000
Al      14.17500000      10.12500000       0.00000000
Al      12.15000000       8.10000000       4.05000000
Al      12.15000000      10.12500000       6.07500000
Al      14.17500000       8.10000000       6.07500000
Al      14.17500000      10.12500000       4.05000000
Al      12.15000000       8.10000000       8.10000000
Al      12.15000000      10.12500000      10.12500000
Al      14.17500000       8.10000000      10.12500000
Al      14.17500000      10.12500000       8.10000000
Al      12.15000000       8.10000000      12.15000000
Al      12.15000000      10.12500000      14.17500000
Al      14.17500000       8.10000000      14.17500000
Al      14.17500000      10.12500000      12.15000000
Al      12.15000000       8.10000000      16.20000000
Al      12.15000000      10.12500000      18.22500000
Al      14.17500000       8.10000000      18.22500000
Al      14.17500000      10.12500000      16.20000000
Al      12.15000000       8.10000000      20.25000000
Al      12.15000000      10.12500000      22.27500000
Al      14.17500000       8.10000000      22.27500000
Al      14.17500000      10.12500000      20.25000000
Al      12.15000000       8.10000000      24.30000000
Al      12.15000000      10.12500000      26.32500000
Al      14.17500000       8.10000000      26.32500000
Al      14.17500000      10.12500000      24.30000000
Al      12.15000000       8.10000000      28.35000000
Al      12.15000000      10.12500000      30.37500000
Al      14.17500000       8.10000000      30.37500000
Al      14.17500000      10.12500000      28.35000000
Al      12.15000000      12.15000000       0.00000000
Al      12.15000000      14.17500000       2.02500000
Al      14.17500000      12.15000000       2.02500000
Al      14.17500000      14.17500000       0.00000000
Al      12.15000000      12.15000000       4.05000000
Al      12.15000000      14.17500000       6.07500000
Al      14.17500000      12.15000000       6.07500000
Al      14.17500000      14.17500000       4.05000000
Al      12.15000000      12.15000000       8.10000000
Al      12.15000000      14.17500000      10.12500000
Al      14.17500000      12.15000000      10.12500000
Al      14.17500000      14.17500000       8.10000000
Al      12.15000000      12.15000000      12.15000000
Al      12.15000000      14.17500000      14.17500000
Al      14.17500000      12.15000000      14.17500000
Al      14.17500000      14.17500000      12.15000000
Al      12.15000000      12.15000000      16.20000000
Al      12.15000000      14.17500000      18.22500000
Al      14.17500000      12.15000000      18.22500000
Al      14.17500000      14.17500000      16.20000000
Al      12.15000000      12.15000000      20.25000000
Al      12.15000000      14.17500000      22.27500000
Al      14.17500000      12.15000000      22.27500000
Al      14.17500000      14.17500000      20.25000000
Al      12.15000000      12.15000000      24.30000000
Al      12.15000000      14.17500000      26.32500000
Al      14.17500000      12.15000000      26.32500000
Al      14.17500000      14.17500000      24.30000000
Al      12.15000000      12.15000000      28.35000000
Al      12.15000000      14.17500000      30.37500000
Al      14.17500000      12.15000000      30.37500000
Al      14.17500000      14.17500000      28.35000000
Al      12.15000000      16.20000000       0.00000000
Al      12.15000000      18.22500000       2.02500000
Al      14.17500000      16.20000000       2.02500000
Al      14.17500000      18.22500000       0.00000000
Al      12.15000000      16.20000000       4.05000000
Al      12.15000000      18.22500000       6.07500000
Al      14.17500000      16.20000000       6.07500000
Al      14.17500000      18.22500000       4.05000000
Al      12.15000000      16.20000000       8.10000000
Al      12.15000000      18.22500000      10.12500000
Al      14.17500000      16.20000000      10.12500000
Al      14.17500000      18.22500000       8.10000000
Al      12.15000000      16.20000000      12.15000000
Al      12.15000000      18.22500000      14.17500000
Al      14.17500000      16.20000000      14.17500000
Al      14.17500000      18.22500000      12.15000000
Al      12.15000000      16.20000000      16.20000000
Al      12.15000000      18.22500000      18.22500000
Al      14.17500000      16.20000000      18.22500000
Al      14.17500000      18.22500000      16.20000000
Al      12.15000000      16.20000000      20.25000000
Al      12.15000000      18.22500000      22.27500000
Al      14.17500000      16.20000000      22.27500000
Al      14.17500000      18.22500000      20.25000000
Al      12.15000000      16.20000000      24.30000000
Al      12.15000000      18.22500000      26.32500000
Al      14.17500000      16.20000000      26.32500000
Al      14.17500000      18.22500000      24.30000000
Al      12.15000000      16.20000000      28.35000000
Al      12.15000000      18.22500000      30.37500000
Al      14.17500000      16.20000000      30.37500000
Al      14.17500000      18.22500000      28.35000000
Al      12.15000000      20.25000000       0.00000000
Al      12.15000000      22.27500000       2.02500000
Al      14.17500000      20.25000000       2.02500000
Al      14.17500000      22.27500000       0.00000000
Al      12.15000000      20.25000000       4.05000000
Al      12.15000000      22.27500000       6.07500000
Al      14.17500000      20.25000000       6.07500000
Al      14.17500000      22.27500000       4.05000000
Al      12.15000000      20.25000000       8.10000000
Al      12.15000000      22.27500000      10.12500000
Al      14.17500000      20.25000000      10.12500000
Al      14.17500000      22.27500000       8.10000000
Al      12.15000000      20.25000000      12.15000000
Al      12.15000000      22.27500000      14.17500000
Al      14.17500000      20.25000000      14.17500000
Al      14.17500000      22.27500000      12.15000000
Al      12.15000000      20.25000000      16.20000000
Al      12.15000000      22.27500000      18.22500000
Al      14.17500000      20.25000000      18.22500000
Al      14.17500000      22.27500000      16.20000000
Al      12.15000000      20.25000000      20.25000000
Al      12.15000000      22.27500000      22.27500000
Al      14.17500000      20.25000000      22.27500000
Al      14.17500000      22.27500000      20.25000000
Al      12.15000000      20.25000000      24.30000000
Al      12.15000000      22.27500000      26.32500000
Al      14.17500000      20.25000000      26.32500000
Al      14.17500000      22.27500000      24.30000000
Al      12.15000000      20.25000000      28.35000000
Al      12.15000000      22.27500000      30.37500000
Al      14.17500000      20.25000000      30.37500000
Al      14.17500000      22.27500000      28.35000000
Al      12.15000000      24.30000000       0.00000000
Al      12.15000000      26.32500000       2.02500000
Al      14.17500000      24.30000000       2.02500000
Al      14.17500000      26.32500000       0.00000000
Al      12.15000000      24.30000000       4.05000000
Al      12.15000000      26.32500000       6.07500000
Al      14.17500000      24.30000000       6.07500000
Al      14.17500000      26.32500000       4.05000000
Al      12.15000000      24.30000000       8.10000000
Al      12.15000000      26.32500000      10.12500000
Al      14.17500000      24.30000000      10.12500000
Al      14.17500000      26.32500000       8.10000000
Al      12.15000000      24.30000000      12.15000000
Al      12.15000000      26.32500000      14.17500000
Al      14.17500000      24.30000000      14.17500000
Al      14.17500000      26.32500000      12.15000000
Al      12.15000000      24.30000000      16.20000000
Al      12.15000000      26.32500000      18.22500000
Al      14.17500000      24.30000000      18.22500000
Al      14.17500000      26.32500000      16.20000000
Al      12.15000000      24.30000000      20.25000000
Al      12.15000000      26.32500000      22.27500000
Al      14.17500000      24.30000000      22.27500000
Al      14.17500000      26.32500000      20.25000000
Al      12.15000000      24.30000000      24.30000000
Al      12.15000000      26.32500000      26.32500000
Al      14.17500000      24.30000000      26.32500000
Al      14.17500000      26.32500000      24.30000000
Al      12.15000000      24.30000000      28.35000000
Al      12.15000000      26.32500000      30.37500000
Al      14.17500000      24.30000000      30.37500000
Al      14.17500000      26.32500000      28.35000000
Al      12.15000000      28.35000000       0.00000000
Al      12.15000000      30.37500000       2.02500000
Al      14.17500000      28.35000000       2.02500000
Al      14.17500000      30.37500000       0.00000000
Al      12.15000000      28.35000000       4.05000000
Al      12.15000000      30.37500000       6.07500000
Al      14.17500000      28.35000000       6.07500000
Al      14.17500000      30.37500000       4.05000000
Al      12.15000000      28.35000000       8.10000000
Al      12.15000000      30.37500000      10.12500000
Al      14.17500000      28.35000000      10.12500000
Al      14.17500000      30.37500000       8.10000000
Al      12.15000000      28.35000000      12.15000000
Al      12.15000000      30.37500000      14.17500000
Al      14.17500000      28.35000000      14.17500000
Al      14.17500000      30.37500000      12.15000000
Al      12.15000000      28.35000000      16.20000000
Al      12.15000000      30.37500000      18.22500000
Al      14.17500000      28.35000000      18.22500000
Al      14.17500000      30.37500000      16.20000000
Al      12.15000000      28.35000000      20.25000000
Al      12.15000000      30.37500000      22.27500000
Al      14.17500000      28.35000000      22.27500000
Al      14.17500000      30.37500000      20.25000000
Al      12.15000000      28.35000000      24.30000000
Al      12.15000000      30.37500000      26.32500000
Al      14.17500000      28.35000000      26.32500000
Al      14.17500000      30.37500000      24.30000000
Al      12.15000000      28.35000000      28.35000000
Al      12.15000000      30.37500000      30.37500000
Al      14.17500000      28.35000000      30.37500000
Al      14.17500000      30.37500000      28.35000000
Al      16.20000000       0.00000000       0.00000000
Al      16.20000000       2.02500000       2.02500000
Al      18.22500000       0.00000000       2.02500000
Al      18.22500000       2.02500000       0.00000000
Al      16.20000000       0.00000000       4.05000000
Al      16.20000000       2.02500000       6.07500000
Al      18.22500000       0.00000000       6.07500000
Al      18.22500000       2.02500000       4.05000000
Al      16.20000000       0.00000000       8.10000000
Al      16.20000000       2.02500000      10.12500000
Al      18.22500000       0.00000000      10.12500000
Al      18.22500000       2.02500000       8.10000000
Al      16.20000000       0.00000000      12.15000000
Al      16.20000000       2.02500000      14.17500000
Al      18.22500000       0.00000000      14.17500000
Al      18.22500000       2.02500000      12.15000000
Al      16.20000000       0.00000000      16.20000000
Al      16.20000000       2.02500000      18.22500000
Al      18.22500000       0.00000000      18.22500000
Al      18.22500000       2.02500000      16.20000000
Al      16.20000000       0.00000000      20.25000000
Al      16.20000000       2.02500000      22.27500000
Al      18.22500000       0.00000000      22.27500000
Al      18.22500000       2.02500000      20.25000000
Al      16.20000000       0.00000000      24.30000000
Al      16.20000000       2.02500000      26.32500000
Al      18.22500000       0.00000000      26.32500000
Al      18.22500000       2.02500000      24.30000000
Al      16.20000000       0.00000000      28.35000000
Al      16.20000000       2.02500000      30.37500000
Al      18.22500000       0.00000000      30.37500000
Al      18.22500000       2.02500000      28.35000000
Al      16.20000000       4.05000000       0.00000000
Al      16.20000000       6.07500000       2.02500000
Al      18.22500000       4.05000000       2.02500000
Al      18.22500000       6.07500000       0.00000000
Al      16.20000000       4.05000000       4.05000000
Al      16.20000000       6.07500000       6.07500000
Al      18.22500000       4.05000000       6.07500000
Al      18.22500000       6.07500000       4.05000000
Al      16.20000000       4.05000000       8.10000000
Al      16.20000000       6.07500000      10.12500000
Al      18.22500000       4.05000000      10.12500000
Al      18.22500000       6.07500000       8.10000000
Al      16.20000000       4.05000000      12.15000000
Al      16.20000000       6.07500000      14.17500000
Al      18.22500000       4.05000000      14.17500000
Al      18.22500000       6.07500000      12.15000000
Al      16.20000000       4.05000000      16.20000000
Al      16.20000000       6.07500000      18.22500000
Al      18.22500000       4.05000000      18.22500000
Al      18.22500000       6.07500000      16.20000000
Al      16.20000000       4.05000000      20.25000000
Al      16.20000000       6.07500000      22.27500000
Al      18.22500000       4.05000000      22.27500000
Al      18.22500000       6.07500000      20.25000000
Al      16.20000000       4.05000000      24.30000000
Al      16.20000000       6.07500000      26.32500000
Al      18.22500000       4.05000000      26.32500000
Al      18.22500000       6.07500000      24.30000000
Al      16.20000000       4.05000000      28.35000000
Al      16.20000000       6.07500000      30.37500000
Al      18.22500000       4.05000000      30.37500000
Al      18.22500000       6.07500000      28.35000000
Al      16.20000000       8.10000000       0.00000000
Al      16.20000000      10.12500000       2.02500000
Al      18.22500000       8.10000000       2.02500000
Al      18.22500000      10.12500000       0.00000000
Al      16.20000000       8.10000000       4.05000000
Al      16.20000000      10.12500000       6.07500000
Al      18.22500000       8.10000000       6.07500000
Al      18.22500000      10.12500000       4.05000000
Al      16.20000000       8.10000000       8.10000000
Al      16.20000000      10.12500000      10.12500000
Al      18.22500000       8.10000000      10.12500000
Al      18.22500000      10.12500000       8.10000000
Al      16.20000000       8.10000000      12.15000000
Al      16.20000000      10.12500000      14.17500000
Al      18.22500000       8.10000000      14.17500000
Al      18.22500000      10.12500000      12.15000000
Al      16.20000000       8.10000000      16.20000000
Al      16.20000000      10.12500000      18.22500000
Al      18.22500000       8.10000000      18.22500000
Al      18.22500000      10.12500000      16.20000000
Al      16.20000000       8.10000000      20.25000000
Al      16.20000000      10.12500000      22.27500000
Al      18.22500000       8.10000000      22.27500000
Al      18.22500000      10.12500000      20.25000000
Al      16.20000000       8.10000000      24.30000000
Al      16.20000000      10.12500000      26.32500000
Al      18.22500000       8.10000000      26.32500000
Al      18.22500000      10.12500000      24.30000000
Al      16.20000000       8.10000000      28.35000000
Al      16.20000000      10.12500000      30.37500000
Al      18.22500000       8.10000000      30.37500000
Al      18.22500000      10.12500000      28.35000000
Al      16.20000000      12.15000000       0.00000000
Al      16.20000000      14.17500000       2.02500000
Al      18.22500000      12.15000000       2.02500000
Al      18.22500000      14.17500000       0.00000000
Al      16.20000000      12.15000000       4.05000000
Al      16.20000000      14.17500000       6.07500000
Al      18.22500000      12.15000000       6.07500000
Al      18.22500000      14.17500000       4.05000000
Al      16.20000000      12.15000000       8.10000000
Al      16.20000000      14.17500000      10.12500000
Al      18.22500000      12.15000000      10.12500000
Al      18.22500000      14.17500000       8.10000000
Al      16.20000000      12.15000000      12.15000000
Al      16.20000000      14.17500000      14.17500000
Al      18.22500000      12.15000000      14.17500000
Al      18.22500000      14.17500000      12.15000000
Al      16.20000000      12.15000000      16.20000000
Al      16.20000000      14.17500000      18.22500000
Al      18.22500000      12.15000000      18.22500000
Al      18.22500000      14.17500000      16.20000000
Al      16.20000000      12.15000000      20.25000000
Al      16.20000000      14.17500000      22.27500000
Al      18.22500000      12.15000000      22.27500000
Al      18.22500000      14.17500000      20.25000000
Al      16.20000000      12.15000000      24.30000000
Al      16.20000000      14.17500000      26.32500000
Al      18.22500000      12.15000000      26.32500000
Al      18.22500000      14.17500000      24.30000000
Al      16.20000000      12.15000000      28.35000000
Al      16.20000000      14.17500000      30.37500000
Al      18.22500000      12.15000000      30.37500000
Al      18.22500000      14.17500000      28.35000000
Al      16.20000000      16.20000000       0.00000000
Al      16.20000000      18.22500000       2.02500000
Al      18.22500000      16.20000000       2.02500000
Al      18.22500000      18.22500000       0.00000000
Al      16.20000000      16.20000000       4.05000000
Al      16.20000000      18.22500000       6.07500000
Al      18.22500000      16.20000000       6.07500000
Al      18.22500000      18.22500000       4.05000000
Al      16.20000000      16.20000000       8.10000000
Al      16.20000000      18.22500000      10.12500000
Al      18.22500000      16.20000000      10.12500000
Al      18.22500000      18.22500000       8.10000000
Al      16.20000000      16.20000000      12.15000000
Al      16.20000000      18.22500000      14.17500000
Al      18.22500000      16.20000000      14.17500000
Al      18.22500000      18.22500000      12.15000000
Al      16.20000000      16.20000000      16.20000000
Al      16.20000000      18.22500000      18.22500000
Al      18.22500000      16.20000000      18.22500000
Al      18.22500000      18.22500000      16.20000000
Al      16.20000000      16.20000000      20.25000000
Al      16.20000000      18.22500000      22.27500000
Al      18.22500000      16.20000000      22.27500000
Al      18.22500000      18.22500000      20.25000000
Al      16.20000000      16.20000000      24.30000000
Al      16.20000000      18.22500000      26.32500000
Al      18.22500000      16.20000000      26.32500000
Al      18.22500000      18.22500000      24.30000000
Al      16.20000000      16.20000000      28.35000000
Al      16.20000000      18.22500000      30.37500000
Al      18.22500000      16.20000000      30.37500000
Al      18.22500000      18.22500000      28.35000000
Al      16.20000000      20.25000000       0.00000000
Al      16.20000000      22.27500000       2.02500000
Al      18.22500000      20.25000000       2.02500000
Al      18.22500000      22.27500000       0.00000000
Al      16.20000000      20.25000000       4.05000000
Al      16.20000000      22.27500000       6.07500000
Al      18.22500000      20.25000000       6.07500000
Al      18.22500000      22.27500000       4.05000000
Al      16.20000000      20.25000000       8.10000000
Al      16.20000000      22.27500000      10.12500000
Al      18.22500000      20.25000000      10.12500000
Al      18.22500000      22.27500000       8.10000000
Al      16.20000000      20.25000000      12.15000000
Al      16.20000000      22.27500000      14.17500000
Al      18.22500000      20.25000000      14.17500000
Al      18.22500000      22.27500000      12.15000000
Al      16.20000000      20.25000000      16.20000000
Al      16.20000000      22.27500000      18.22500000
Al      18.22500000      20.25000000      18.22500000
Al      18.22500000      22.27500000      16.20000000
Al      16.20000000      20.25000000      20.25000000
Al      16.20000000      22.27500000      22.27500000
Al      18.22500000      20.25000000      22.27500000
Al      18.22500000      22.27500000      20.25000000
Al      16.20000000      20.25000000      24.30000000
Al      16.20000000      22.27500000      26.32500000
Al      18.22500000      20.25000000      26.32500000
Al      18.22500000      22.27500000      24.30000000
Al      16.20000000      20.25000000      28.35000000
Al      16.20000000      22.27500000      30.37500000
Al      18.22500000      20.25000000      30.37500000
Al      18.22500000      22.27500000      28.35000000
Al      16.20000000      24.30000000       0.00000000
Al      16.20000000      26.32500000       2.02500000
Al      18.22500000      24.30000000       2.02500000
Al      18.22500000      26.32500000       0.00000000
Al      16.20000000      24.30000000       4.05000000
Al      16.20000000      26.32500000       6.07500000
Al      18.22500000      24.30000000       6.07500000
Al      18.22500000      26.32500000       4.05000000
Al      16.20000000      24.30000000       8.10000000
Al      16.20000000      26.32500000      10.12500000
Al      18.22500000      24.30000000      10.12500000
Al      18.22500000      26.32500000       8.10000000
Al      16.20000000      24.30000000      12.15000000
Al      16.20000000      26.32500000      14.17500000
Al      18.22500000      24.30000000      14.17500000
Al      18.22500000      26.32500000      12.15000000
Al      16.20000000      24.30000000      16.20000000
Al      16.20000000      26.32500000      18.22500000
Al      18.22500000      24.30000000      18.22500000
Al      18.22500000      26.32500000      16.20000000
Al      16.20000000      24.30000000      20.25000000
Al      16.20000000      26.32500000      22.27500000
Al      18.22500000      24.30000000      22.27500000
Al      18.22500000      26.32500000      20.25000000
Al      16.20000000      24.30000000      24.30000000
Al      16.20000000      26.32500000      26.32500000
Al      18.22500000      24.30000000      26.32500000
Al      18.22500000      26.32500000      24.30000000
Al      16.20000000      24.30000000      28.35000000
Al      16.20000000      26.32500000      30.37500000
Al      18.22500000      24.30000000      30.37500000
Al      18.22500000      26.32500000      28.35000000
Al      16.20000000      28.35000000       0.00000000
Al      16.20000000      30.37500000       2.02500000
Al      18.22500000      28.35000000       2.02500000
Al      18.22500000      30.37500000       0.00000000
Al      16.20000000      28.35000000       4.05000000
Al      16.20000000      30.37500000       6.07500000
Al      18.22500000      28.35000000       6.07500000
Al      18.22500000      30.37500000       4.05000000
Al      16.20000000      28.35000000       8.10000000
Al      16.20000000      30.37500000      10.12500000
Al      18.22500000      28.35000000      10.12500000
Al      18.22500000      30.37500000       8.10000000
Al      16.20000000      28.35000000      12.15000000
Al      16.20000000      30.37500000      14.17500000
Al      18.22500000      28.35000000      14.17500000
Al      18.22500000      30.37500000      12.15000000
Al      16.20000000      28.35000000      16.20000000
Al      16.20000000      30.37500000      18.22500000
Al      18.22500000      28.35000000      18.22500000
Al      18.22500000      30.37500000      16.20000000
Al      16.20000000      28.35000000      20.25000000
Al      16.20000000      30.37500000      22.27500000
Al      18.22500000      28.35000000      22.27500000
Al      18.22500000      30.37500000      20.25000000
Al      16.20000000      28.35000000      24.30000000
Al      16.20000000      30.37500000      26.32500000
Al      18.22500000      28.35000000      26.32500000
Al      18.22500000      30.37500000      24.30000000
Al      16.20000000      28.35000000      28.35000000
Al      16.20000000      30.37500000      30.37500000
Al      18.22500000      28.35000000      30.37500000
Al      18.22500000      30.37500000      28.35000000
Al      20.25000000       0.00000000       0.00000000
Al      20.25000000       2.02500000       2.02500000
Al      22.27500000       0.00000000       2.02500000
Al      22.27500000       2.02500000       0.00000000
Al      20.25000000       0.00000000       4.05000000
Al      20.25000000       2.02500000       6.07500000
Al      22.27500000       0.00000000       6.07500000
Al      22.27500000       2.02500000       4.05000000
Al      20.25000000       0.00000000       8.10000000
Al      20.25000000       2.02500000      10.12500000
Al      22.27500000       0.00000000      10.12500000
Al      22.27500000       2.02500000       8.10000000
Al      20.25000000       0.00000000      12.15000000
Al      20.25000000       2.02500000      14.17500000
Al      22.27500000       0.00000000      14.17500000
Al      22.27500000       2.02500000      12.15000000
Al      20.25000000       0.00000000      16.20000000
Al      20.25000000       2.02500000      18.22500000
Al      22.27500000       0.00000000      18.22500000
Al      22.27500000       2.02500000      16.20000000
Al      20.25000000       0.00000000      20.25000000
Al      20.25000000       2.02500000      22.27500000
Al      22.27500000       0.00000000      22.27500000
Al      22.27500000       2.02500000      20.25000000
Al      20.25000000       0.00000000      24.30000000
Al      20.25000000       2.02500000      26.32500000
Al      22.27500000       0.00000000      26.32500000
Al      22.27500000       2.02500000      24.30000000
Al      20.25000000       0.00000000      28.35000000
Al      20.25000000       2.02500000      30.37500000
Al      22.27500000       0.00000000      30.37500000
Al      22.27500000       2.02500000      28.35000000
Al      20.25000000       4.05000000       0.00000000
Al      20.25000000       6.07500000       2.02500000
Al      22.27500000       4.05000000       2.02500000
Al      22.27500000       6.07500000       0.00000000
Al      20.25000000       4.05000000       4.05000000
Al      20.25000000       6.07500000       6.07500000
Al      22.27500000       4.05000000       6.07500000
Al      22.27500000       6.07500000       4.05000000
Al      20.25000000       4.05000000       8.10000000
Al      20.25000000       6.07500000      10.12500000
Al      22.27500000       4.05000000      10.12500000
Al      22.27500000       6.07500000       8.10000000
Al      20.25000000       4.05000000      12.15000000
Al      20.25000000       6.07500000      14.17500000
Al      22.27500000       4.05000000      14.17500000
Al      22.27500000       6.07500000      12.15000000
Al      20.25000000       4.05000000      16.20000000
Al      20.25000000       6.07500000      18.22500000
Al      22.27500000       4.05000000      18.22500000
Al      22.27500000       6.07500000      16.20000000
Al      20.25000000       4.05000000      20.25000000
Al      20.25000000       6.07500000      22.27500000
Al      22.27500000       4.05000000      22.27500000
Al      22.27500000       6.07500000      20.25000000
Al      20.25000000       4.05000000      24.30000000
Al      20.25000000       6.07500000      26.32500000
Al      22.27500000       4.05000000      26.32500000
Al      22.27500000       6.07500000      24.30000000
Al      20.25000000       4.05000000      28.35000000
Al      20.25000000       6.07500000      30.37500000
Al      22.27500000       4.05000000      30.37500000
Al      22.27500000       6.07500000      28.35000000
Al      20.25000000       8.10000000       0.00000000
Al      20.25000000      10.12500000       2.02500000
Al      22.27500000       8.10000000       2.02500000
Al      22.27500000      10.12500000       0.00000000
Al      20.25000000       8.10000000       4.05000000
Al      20.25000000      10.12500000       6.07500000
Al      22.27500000       8.10000000       6.07500000
Al      22.27500000      10.12500000       4.05000000
Al      20.25000000       8.10000000       8.10000000
Al      20.25000000      10.12500000      10.12500000
Al      22.27500000       8.10000000      10.12500000
Al      22.27500000      10.12500000       8.10000000
Al      20.25000000       8.10000000      12.15000000
Al      20.25000000      10.12500000      14.17500000
Al      22.27500000       8.10000000      14.17500000
Al      22.27500000      10.12500000      12.15000000
Al      20.25000000       8.10000000      16.20000000
Al      20.25000000      10.12500000      18.22500000
Al      22.27500000       8.10000000      18.22500000
Al      22.27500000      10.12500000      16.20000000
Al      20.25000000       8.10000000      20.25000000
Al      20.25000000      10.12500000      22.27500000
Al      22.27500000       8.10000000      22.27500000
Al      22.27500000      10.12500000      20.25000000
Al      20.25000000       8.10000000      24.30000000
Al      20.25000000      10.12500000      26.32500000
Al      22.27500000       8.10000000      26.32500000
Al      22.27500000      10.12500000      24.30000000
Al      20.25000000       8.10000000      28.35000000
Al      20.25000000      10.12500000      30.37500000
Al      22.27500000       8.10000000      30.37500000
Al      22.27500000      10.12500000      28.35000000
Al      20.25000000      12.15000000       0.00000000
Al      20.25000000      14.17500000       2.02500000
Al      22.27500000      12.15000000       2.02500000
Al      22.27500000      14.17500000       0.00000000
Al      20.25000000      12.15000000       4.05000000
Al      20.25000000      14.17500000       6.07500000
Al      22.27500000      12.15000000       6.07500000
Al      22.27500000      14.17500000       4.05000000
Al      20.25000000      12.15000000       8.10000000
Al      20.25000000      14.17500000      10.12500000
Al      22.27500000      12.15000000      10.12500000
Al      22.27500000      14.17500000       8.10000000
Al      20.25000000      12.15000000      12.15000000
Al      20.25000000      14.17500000      14.17500000
Al      22.27500000      12.15000000      14.17500000
Al      22.27500000      14.17500000      12.15000000
Al      20.25000000      12.15000000      16.20000000
Al      20.25000000      14.17500000      18.22500000
Al      22.27500000      12.15000000      18.22500000
Al      22.27500000      14.17500000      16.20000000
Al      20.25000000      12.15000000      20.25000000
Al      20.25000000      14.17500000      22.27500000
Al      22.27500000      12.15000000      22.27500000
Al      22.27500000      14.17500000      20.25000000
Al      20.25000000      12.15000000      24.30000000
Al      20.25000000      14.17500000      26.32500000
Al      22.27500000      12.15000000      26.32500000
Al      22.27500000      14.17500000      24.30000000
Al      20.25000000      12.15000000      28.35000000
Al      20.25000000      14.17500000      30.37500000
Al      22.27500000      12.15000000      30.37500000
Al      22.27500000      14.17500000      28.35000000
Al      20.25000000      16.20000000       0.00000000
Al      20.25000000      18.22500000       2.02500000
Al      22.27500000      16.20000000       2.02500000
Al      22.27500000      18.22500000       0.00000000
Al      20.25000000      16.20000000       4.05000000
Al      20.25000000      18.22500000       6.07500000
Al      22.27500000      16.20000000       6.07500000
Al      22.27500000      18.22500000       4.05000000
Al      20.25000000      16.20000000       8.10000000
Al      20.25000000      18.22500000      10.12500000
Al      22.27500000      16.20000000      10.12500000
Al      22.27500000      18.22500000       8.10000000
Al      20.25000000      16.20000000      12.15000000
Al      20.25000000      18.22500000      14.17500000
Al      22.27500000      16.20000000      14.17500000
Al      22.27500000      18.22500000      12.15000000
Al      20.25000000      16.20000000      16.20000000
Al      20.25000000      18.22500000      18.22500000
Al      22.27500000      16.20000000      18.22500000
Al      22.27500000      18.22500000      16.20000000
Al      20.25000000      16.20000000      20.25000000
Al      20.25000000      18.22500000      22.27500000
Al      22.27500000      16.20000000      22.27500000
Al      22.27500000      18.22500000      20.25000000
Al      20.25000000      16.20000000      24.30000000
Al      20.25000000      18.22500000      26.32500000
Al      22.27500000      16.20000000      26.32500000
Al      22.27500000      18.22500000      24.30000000
Al      20.25000000      16.20000000      28.35000000
Al      20.25000000      18.22500000      30.37500000
Al      22.27500000      16.20000000      30.37500000
Al      22.27500000      18.22500000      28.35000000
Al      20.25000000      20.25000000       0.00000000
Al      20.25000000      22.27500000       2.02500000
Al      22.27500000      20.25000000       2.02500000
Al      22.27500000      22.27500000       0.00000000
Al      20.25000000      20.25000000       4.05000000
Al      20.25000000      22.27500000       6.07500000
Al      22.27500000      20.25000000       6.07500000
Al      22.27500000      22.27500000       4.05000000
Al      20.25000000      20.25000000       8.10000000
Al      20.25000000      22.27500000      10.12500000
Al      22.27500000      20.25000000      10.12500000
Al      22.27500000      22.27500000       8.10000000
Al      20.25000000      20.25000000      12.15000000
Al      20.25000000      22.27500000      14.17500000
Al      22.27500000      20.25000000      14.17500000
Al      22.27500000      22.27500000      12.15000000
Al      20.25000000      20.25000000      16.20000000
Al      20.25000000      22.27500000      18.22500000
Al      22.27500000      20.25000000      18.22500000
Al      22.27500000      22.27500000      16.20000000
Al      20.25000000      20.25000000      20.25000000
Al      20.25000000      22.27500000      22.27500000
Al      22.27500000      20.25000000      22.27500000
Al      22.27500000      22.27500000      20.25000000
Al      20.25000000      20.25000000      24.30000000
Al      20.25000000      22.27500000      26.32500000
Al      22.27500000      20.25000000      26.32500000
Al      22.27500000      22.27500000      24.30000000
Al      20.25000000      20.25000000      28.35000000
Al      20.25000000      22.27500000      30.37500000
Al      22.27500000      20.25000000      30.37500000
Al      22.27500000      22.27500000      28.35000000
Al      20.25000000      24.30000000       0.00000000
Al      20.25000000      26.32500000       2.02500000
Al      22.27500000      24.30000000       2.02500000
Al      22.27500000      26.32500000       0.00000000
Al      20.25000000      24.30000000       4.05000000
Al      20.25000000      26.32500000       6.07500000
Al      22.27500000      24.30000000       6.07500000
Al      22.27500000      26.32500000       4.05000000
Al      20.25000000      24.30000000       8.10000000
Al      20.25000000      26.32500000      10.12500000
Al      22.27500000      24.30000000      10.12500000
Al      22.27500000      26.32500000       8.10000000
Al      20.25000000      24.30000000      12.15000000
Al      20.25000000      26.32500000      14.17500000
Al      22.27500000      24.30000000      14.17500000
Al      22.27500000      26.32500000      12.15000000
Al      20.25000000      24.30000000      16.20000000
Al      20.25000000      26.32500000      18.22500000
Al      22.27500000      24.30000000      18.22500000
Al      22.27500000      26.32500000      16.20000000
Al      20.25000000      24.30000000      20.25000000
Al      20.25000000      26.32500000      22.27500000
Al      22.27500000      24.30000000      22.27500000
Al      22.27500000      26.32500000      20.25000000
Al      20.25000000      24.30000000      24.30000000
Al      20.25000000      26.32500000      26.32500000
Al      22.27500000      24.30000000      26.32500000
Al      22.27500000      26.32500000      24.30000000
Al      20.25000000      24.30000000      28.35000000
Al      20.25000000      26.32500000      30.37500000
Al      22.27500000      24.30000000      30.37500000
Al      22.27500000      26.32500000      28.35000000
Al      20.25000000      28.35000000       0.00000000
Al      20.25000000      30.37500000       2.02500000
Al      22.27500000      28.35000000       2.02500000
Al      22.27500000      30.37500000       0.00000000
Al      20.25000000      28.35000000       4.05000000
Al      20.25000000      30.37500000       6.07500000
Al      22.27500000      28.35000000       6.07500000
Al      22.27500000      30.37500000       4.05000000
Al      20.25000000      28.35000000       8.10000000
Al      20.25000000      30.37500000      10.12500000
Al      22.27500000      28.35000000      10.12500000
Al      22.27500000      30.37500000       8.10000000
Al      20.25000000      28.35000000      12.15000000
Al      20.25000000      30.37500000      14.17500000
Al      22.27500000      28.35000000      14.17500000
Al      22.27500000      30.37500000      12.15000000
Al      20.25000000      28.35000000      16.20000000
Al      20.25000000      30.37500000      18.22500000
Al      22.27500000      28.35000000      18.22500000
Al      22.27500000      30.37500000      16.20000000
Al      20.25000000      28.35000000      20.25000000
Al      20.25000000      30.37500000      22.27500000
Al      22.27500000      28.35000000      22.27500000
Al      22.27500000      30.37500000      20.25000000
Al      20.25000000      28.35000000      24.30000000
Al      20.25000000      30.37500000      26.32500000
Al      22.27500000      28.35000000      26.32500000
Al      22.27500000      30.37500000      24.30000000
Al      20.25000000      28.35000000      28.35000000
Al      20.25000000      30.37500000      30.37500000
Al      22.27500000      28.35000000      30.37500000
Al      22.27500000      30.37500000      28.35000000
Al      24.30000000       0.00000000       0.00000000
Al      24.30000000       2.02500000       2.02500000
Al      26.32500000       0.00000000       2.02500000
Al      26.32500000       2.02500000       0.00000000
Al      24.30000000       0.00000000       4.05000000
Al      24.30000000       2.02500000       6.07500000
Al      26.32500000       0.00000000       6.07500000
Al      26.32500000       2.02500000       4.05000000
Al      24.30000000       0.00000000       8.10000000
Al      24.30000000       2.02500000      10.12500000
Al      26.32500000       0.00000000      10.12500000
Al      26.32500000       2.02500000       8.10000000
Al      24.30000000       0.00000000      12.15000000
Al      24.30000000       2.02500000      14.17500000
Al      26.32500000       0.00000000      14.17500000
Al      26.32500000       2.02500000      12.15000000
Al      24.30000000       0.00000000      16.20000000
Al      24.30000000       2.02500000      18.22500000
Al      26.32500000       0.00000000      18.22500000
Al      26.32500000       2.02500000      16.20000000
Al      24.30000000       0.00000000      20.25000000
Al      24.30000000       2.02500000      22.27500000
Al      26.32500000       0.00000000      22.27500000
Al      26.32500000       2.02500000      20.25000000
Al      24.30000000       0.00000000      24.30000000
Al      24.30000000       2.02500000      26.32500000
Al      26.32500000       0.00000000      26.32500000
Al      26.32500000       2.02500000      24.30000000
Al      24.30000000       0.00000000      28.35000000
Al      24.30000000       2.02500000      30.37500000
Al      26.32500000       0.00000000      30.37500000
Al      26.32500000       2.02500000      28.35000000
Al      24.30000000       4.05000000       0.00000000
Al      24.30000000       6.07500000       2.02500000
Al      26.32500000       4.05000000       2.02500000
Al      26.32500000       6.07500000       0.00000000
Al      24.30000000       4.05000000       4.05000000
Al      24.30000000       6.07500000       6.07500000
Al      26.32500000       4.05000000       6.07500000
Al      26.32500000       6.07500000       4.05000000
Al      24.30000000       4.05000000       8.10000000
Al      24.30000000       6.07500000      10.12500000
Al      26.32500000       4.05000000      10.12500000
Al      26.32500000       6.07500000       8.10000000
Al      24.30000000       4.05000000      12.15000000
Al      24.30000000       6.07500000      14.17500000
Al      26.32500000       4.05000000      14.17500000
Al      26.32500000       6.07500000      12.15000000
Al      24.30000000       4.05000000      16.20000000
Al      24.30000000       6.07500000      18.22500000
Al      26.32500000       4.05000000      18.22500000
Al      26.32500000       6.07500000      16.20000000
Al      24.30000000       4.05000000      20.25000000
Al      24.30000000       6.07500000      22.27500000
Al      26.32500000       4.05000000      22.27500000
Al      26.32500000       6.07500000      20.25000000
Al      24.30000000       4.05000000      24.30000000
Al      24.30000000       6.07500000      26.32500000
Al      26.32500000       4.05000000      26.32500000
Al      26.32500000       6.07500000      24.30000000
Al      24.30000000       4.05000000      28.35000000
Al      24.30000000       6.07500000      30.37500000
Al      26.32500000       4.05000000      30.37500000
Al      26.32500000       6.07500000      28.35000000
Al      24.30000000       8.10000000       0.00000000
Al      24.30000000      10.12500000       2.02500000
Al      26.32500000       8.10000000       2.02500000
Al      26.32500000      10.12500000       0.00000000
Al      24.30000000       8.10000000       4.05000000
Al      24.30000000      10.12500000       6.07500000
Al      26.32500000       8.10000000       6.07500000
Al      26.32500000      10.12500000       4.05000000
Al      24.30000000       8.10000000       8.10000000
Al      24.30000000      10.12500000      10.12500000
Al      26.32500000       8.10000000      10.12500000
Al      26.32500000      10.12500000       8.10000000
Al      24.30000000       8.10000000      12.15000000
Al      24.30000000      10.12500000      14.17500000
Al      26.32500000       8.10000000      14.17500000
Al      26.32500000      10.12500000      12.15000000
Al      24.30000000       8.10000000      16.20000000
Al      24.30000000      10.12500000      18.22500000
Al      26.32500000       8.10000000      18.22500000
Al      26.32500000      10.12500000      16.20000000
Al      24.30000000       8.10000000      20.25000000
Al      24.30000000      10.12500000      22.27500000
Al      26.32500000       8.10000000      22.27500000
Al      26.32500000      10.12500000      20.25000000
Al      24.30000000       8.10000000      24.30000000
Al      24.30000000      10.12500000      26.32500000
Al      26.32500000       8.10000000      26.32500000
Al      26.32500000      10.12500000      24.30000000
Al      24.30000000       8.10000000      28.35000000
Al      24.30000000      10.12500000      30.37500000
Al      26.32500000       8.10000000      30.37500000
Al      26.32500000      10.12500000      28.35000000
Al      24.30000000      12.15000000       0.00000000
Al      24.30000000      14.17500000       2.02500000
Al      26.32500000      12.15000000       2.02500000
Al      26.32500000      14.17500000       0.00000000
Al      24.30000000      12.15000000       4.05000000
Al      24.30000000      14.17500000       6.07500000
Al      26.32500000      12.15000000       6.07500000
Al      26.32500000      14.17500000       4.05000000
Al      24.30000000      12.15000000       8.10000000
Al      24.30000000      14.17500000      10.12500000
Al      26.32500000      12.15000000      10.12500000
Al      26.32500000      14.17500000       8.10000000
Al      24.30000000      12.15000000      12.15000000
Al      24.30000000      14.17500000      14.17500000
Al      26.32500000      12.15000000      14.17500000
Al      26.32500000      14.17500000      12.15000000
Al      24.30000000      12.15000000      16.20000000
Al      24.30000000      14.17500000      18.22500000
Al      26.32500000      12.15000000      18.22500000
Al      26.32500000      14.17500000      16.20000000
Al      24.30000000      12.15000000      20.25000000
Al      24.30000000      14.17500000      22.27500000
Al      26.32500000      12.15000000      22.27500000
Al      26.32500000      14.17500000      20.25000000
Al      24.30000000      12.15000000      24.30000000
Al      24.30000000      14.17500000      26.32500000
Al      26.32500000      12.15000000      26.32500000
Al      26.32500000      14.17500000      24.30000000
Al      24.30000000      12.15000000      28.35000000
Al      24.30000000      14.17500000      30.37500000
Al      26.32500000      12.15000000      30.37500000
Al      26.32500000      14.17500000      28.35000000
Al      24.30000000      16.20000000       0.00000000
Al      24.30000000      18.22500000       2.02500000
Al      26.32500000      16.20000000       2.02500000
Al      26.32500000      18.22500000       0.00000000
Al      24.30000000      16.20000000       4.05000000
Al      24.30000000      18.22500000       6.07500000
Al      26.32500000      16.20000000       6.07500000
Al      26.32500000      18.22500000       4.05000000
Al      24.30000000      16.20000000       8.10000000
Al      24.30000000      18.22500000      10.12500000
Al      26.32500000      16.20000000      10.12500000
Al      26.32500000      18.22500000       8.10000000
Al      24.30000000      16.20000000      12.15000000
Al      24.30000000      18.22500000      14.17500000
Al      26.32500000      16.20000000      14.17500000
Al      26.32500000      18.22500000      12.15000000
Al      24.30000000      16.20000000      16.20000000
Al      24.30000000      18.22500000      18.22500000
Al      26.32500000      16.20000000      18.22500000
Al      26.32500000      18.22500000      16.20000000
Al      24.30000000      16.20000000      20.25000000
Al      24.30000000      18.22500000      22.27500000
Al      26.32500000      16.20000000      22.27500000
Al      26.32500000      18.22500000      20.25000000
Al      24.30000000      16.20000000      24.30000000
Al      24.30000000      18.22500000      26.32500000
Al      26.32500000      16.20000000      26.32500000
Al      26.32500000      18.22500000      24.30000000
Al      24.30000000      16.20000000      28.35000000
Al      24.30000000      18.22500000      30.37500000
Al      26.32500000      16.20000000      30.37500000
Al      26.32500000      18.22500000      28.35000000
Al      24.30000000      20.25000000       0.00000000
Al      24.30000000      22.27500000       2.02500000
Al      26.32500000      20.25000000       2.02500000
Al      26.32500000      22.27500000       0.00000000
Al      24.30000000      20.25000000       4.05000000
Al      24.30000000      22.27500000       6.07500000
Al      26.32500000      20.25000000       6.07500000
Al      26.32500000      22.27500000       4.05000000
Al      24.30000000      20.25000000       8.10000000
Al      24.30000000      22.27500000      10.12500000
Al      26.32500000      20.25000000      10.12500000
Al      26.32500000      22.27500000       8.10000000
Al      24.30000000      20.25000000      12.15000000
Al      24.30000000      22.27500000      14.17500000
Al      26.32500000      20.25000000      14.17500000
Al      26.32500000      22.27500000      12.15000000
Al      24.30000000      20.25000000      16.20000000
Al      24.30000000      22.27500000      18.22500000
Al      26.32500000      20.25000000      18.22500000
Al      26.32500000      22.27500000      16.20000000
Al      24.30000000      20.25000000      20.25000000
Al      24.30000000      22.27500000      22.27500000
Al      26.32500000      20.25000000      22.27500000
Al      26.32500000      22.27500000      20.25000000
Al      24.30000000      20.25000000      24.30000000
Al      24.30000000      22.27500000      26.32500000
Al      26.32500000      20.25000000      26.32500000
Al      26.32500000      22.27500000      24.30000000
Al      24.30000000      20.25000000      28.35000000
Al      24.30000000      22.27500000      30.37500000
Al      26.32500000      20.25000000      30.37500000
Al      26.32500000      22.27500000      28.35000000
Al      24.30000000      24.30000000       0.00000000
Al      24.30000000      26.32500000       2.02500000
Al      26.32500000      24.30000000       2.02500000
Al      26.32500000      26.32500000       0.00000000
Al      24.30000000      24.30000000       4.05000000
Al      24.30000000      26.32500000       6.07500000
Al      26.32500000      24.30000000       6.07500000
Al      26.32500000      26.32500000       4.05000000
Al      24.30000000      24.30000000       8.10000000
Al      24.30000000      26.32500000      10.12500000
Al      26.32500000      24.30000000      10.12500000
Al      26.32500000      26.32500000       8.10000000
Al      24.30000000      24.30000000      12.15000000
Al      24.30000000      26.32500000      14.17500000
Al      26.32500000      24.30000000      14.17500000
Al      26.32500000      26.32500000      12.15000000
Al      24.30000000      24.30000000      16.20000000
Al      24.30000000      26.32500000      18.22500000
Al      26.32500000      24.30000000      18.22500000
Al      26.32500000      26.32500000      16.20000000
Al      24.30000000      24.30000000      20.25000000
Al      24.30000000      26.32500000      22.27500000
Al      26.32500000      24.30000000      22.27500000
Al      26.32500000      26.32500000      20.25000000
Al      24.30000000      24.30000000      24.30000000
Al      24.30000000      26.32500000      26.32500000
Al      26.32500000      24.30000000      26.32500000
Al      26.32500000      26.32500000      24.30000000
Al      24.30000000      24.30000000      28.35000000
Al      24.30000000      26.32500000      30.37500000
Al      26.32500000      24.30000000      30.37500000
Al      26.32500000      26.32500000      28.35000000
Al      24.30000000      28.35000000       0.00000000
Al      24.30000000      30.37500000       2.02500000
Al      26.32500000      28.35000000       2.02500000
Al      26.32500000      30.37500000       0.00000000
Al      24.30000000      28.35000000       4.05000000
Al      24.30000000      30.37500000       6.07500000
Al      26.32500000      28.35000000       6.07500000
Al      26.32500000      30.37500000       4.05000000
Al      24.30000000      28.35000000       8.10000000
Al      24.30000000      30.37500000      10.12500000
Al      26.32500000      28.35000000      10.12500000
Al      26.32500000      30.37500000       8.10000000
Al      24.30000000      28.35000000      12.15000000
Al      24.30000000      30.37500000      14.17500000
Al      26.32500000      28.35000000      14.17500000
Al      26.32500000      30.37500000      12.15000000
Al      24.30000000      28.35000000      16.20000000
Al      24.30000000      30.37500000      18.22500000
Al      26.32500000      28.35000000      18.22500000
Al      26.32500000      30.37500000      16.20000000
Al      24.30000000      28.35000000      20.25000000
Al      24.30000000      30.37500000      22.27500000
Al      26.32500000      28.35000000      22.27500000
Al      26.32500000      30.37500000      20.25000000
Al      24.30000000      28.35000000      24.30000000
Al      24.30000000      30.37500000      26.32500000
Al      26.32500000      28.35000000      26.32500000
Al      26.32500000      30.37500000      24.30000000
Al      24.30000000      28.35000000      28.35000000
Al      24.30000000      30.37500000      30.37500000
Al      26.32500000      28.35000000      30.37500000
Al      26.32500000      30.37500000      28.35000000
Al      28.35000000       0.00000000       0.00000000
Al      28.35000000       2.02500000       2.02500000
Al      30.37500000       0.00000000       2.02500000
Al      30.37500000       2.02500000       0.00000000
Al      28.35000000       0.00000000       4.05000000
Al      28.35000000       2.02500000       6.07500000
Al      30.37500000       0.00000000       6.07500000
Al      30.37500000       2.02500000       4.05000000
Al      28.35000000       0.00000000       8.10000000
Al      28.35000000       2.02500000      10.12500000
Al      30.37500000       0.00000000      10.12500000
Al      30.37500000       2.02500000       8.10000000
Al      28.35000000       0.00000000      12.15000000
Al      28.35000000       2.02500000      14.17500000
Al      30.37500000       0.00000000      14.17500000
Al      30.37500000       2.02500000      12.15000000
Al      28.35000000       0.00000000      16.20000000
Al      28.35000000       2.02500000      18.22500000
Al      30.37500000       0.00000000      18.22500000
Al      30.37500000       2.02500000      16.20000000
Al      28.35000000       0.00000000      20.25000000
Al      28.35000000       2.02500000      22.27500000
Al      30.37500000       0.00000000      22.27500000
Al      30.37500000       2.02500000      20.25000000
Al      28.35000000       0.00000000      24.30000000
Al      28.35000000       2.02500000      26.32500000
Al      30.37500000       0.00000000      26.32500000
Al      30.37500000       2.02500000      24.30000000
Al      28.35000000       0.00000000      28.35000000
Al      28.35000000       2.02500000      30.37500000
Al      30.37500000       0.00000000      30.37500000
Al      30.37500000       2.02500000      28.35000000
Al      28.35000000       4.05000000       0.00000000
Al      28.35000000       6.07500000       2.02500000
Al      30.37500000       4.05000000       2.02500000
Al      30.37500000       6.07500000       0.00000000
Al      28.35000000       4.05000000       4.05000000
Al      28.35000000       6.07500000       6.07500000
Al      30.37500000       4.05000000       6.07500000
Al      30.37500000       6.07500000       4.05000000
Al      28.35000000       4.05000000       8.10000000
Al      28.35000000       6.07500000      10.12500000
Al      30.37500000       4.05000000      10.12500000
Al      30.37500000       6.07500000       8.10000000
Al      28.35000000       4.05000000      12.15000000
Al      28.35000000       6.07500000      14.17500000
Al      30.37500000       4.05000000      14.17500000
Al      30.37500000       6.07500000      12.15000000
Al      28.35000000       4.05000000      16.20000000
Al      28.35000000       6.07500000      18.22500000
Al      30.37500000       4.05000000      18.22500000
Al      30.37500000       6.07500000      16.20000000
Al      28.35000000       4.05000000      20.25000000
Al      28.35000000       6.07500000      22.27500000
Al      30.37500000       4.05000000      22.27500000
Al      30.37500000       6.07500000      20.25000000
Al      28.35000000       4.05000000      24.30000000
Al      28.35000000       6.07500000      26.32500000
Al      30.37500000       4.05000000      26.32500000
Al      30.37500000       6.07500000      24.30000000
Al      28.35000000       4.05000000      28.35000000
Al      28.35000000       6.07500000      30.37500000
Al      30.37500000       4.05000000      30.37500000
Al      30.37500000       6.07500000      28.35000000
Al      28.35000000       8.10000000       0.00000000
Al      28.35000000      10.12500000       2.02500000
Al      30.37500000       8.10000000       2.02500000
Al      30.37500000      10.12500000       0.00000000
Al      28.35000000       8.10000000       4.05000000
Al      28.35000000      10.12500000       6.07500000
Al      30.37500000       8.10000000       6.07500000
Al      30.37500000      10.12500000       4.05000000
Al      28.35000000       8.10000000       8.10000000
Al      28.35000000      10.12500000      10.12500000
Al      30.37500000       8.10000000      10.12500000
Al      30.37500000      10.12500000       8.10000000
Al      28.35000000       8.10000000      12.15000000
Al      28.35000000      10.12500000      14.17500000
Al      30.37500000       8.10000000      14.17500000
Al      30.37500000      10.12500000      12.15000000
Al      28.35000000       8.10000000      16.20000000
Al      28.35000000      10.12500000      18.22500000
Al      30.37500000       8.10000000      18.22500000
Al      30.37500000      10.12500000      16.20000000
Al      28.35000000       8.10000000      20.25000000
Al      28.35000000      10.12500000      22.27500000
Al      30.37500000       8.10000000      22.27500000
Al      30.37500000      10.12500000      20.25000000
Al      28.35000000       8.10000000      24.30000000
Al      28.35000000      10.12500000      26.32500000
Al      30.37500000       8.10000000      26.32500000
Al      30.37500000      10.12500000      24.30000000
Al      28.35000000       8.10000000      28.35000000
Al      28.35000000      10.12500000      30.37500000
Al      30.37500000       8.10000000      30.37500000
Al      30.37500000      10.12500000      28.35000000
Al      28.35000000      12.15000000       0.00000000
Al      28.35000000      14.17500000       2.02500000
Al      30.37500000      12.15000000       2.02500000
Al      30.37500000      14.17500000       0.00000000
Al      28.35000000      12.15000000       4.05000000
Al      28.35000000      14.17500000       6.07500000
Al      30.37500000      12.15000000       6.07500000
Al      30.37500000      14.17500000       4.05000000
Al      28.35000000      12.15000000       8.10000000
Al      28.35000000      14.17500000      10.12500000
Al      30.37500000      12.15000000      10.12500000
Al      30.37500000      14.17500000       8.10000000
Al      28.35000000      12.15000000      12.15000000
Al      28.35000000      14.17500000      14.17500000
Al      30.37500000      12.15000000      14.17500000
Al      30.37500000      14.17500000      12.15000000
Al      28.35000000      12.15000000      16.20000000
Al      28.35000000      14.17500000      18.22500000
Al      30.37500000      12.15000000      18.22500000
Al      30.37500000      14.17500000      16.20000000
Al      28.35000000      12.15000000      20.25000000
Al      28.35000000      14.17500000      22.27500000
Al      30.37500000      12.15000000      22.27500000
Al      30.37500000      14.17500000      20.25000000
Al      28.35000000      12.15000000      24.30000000
Al      28.35000000      14.17500000      26.32500000
Al      30.37500000      12.15000000      26.32500000
Al      30.37500000      14.17500000      24.30000000
Al      28.35000000      12.15000000      28.35000000
Al      28.35000000      14.17500000      30.37500000
Al      30.37500000      12.15000000      30.37500000
Al      30.37500000      14.17500000      28.35000000
Al      28.35000000      16.20000000       0.00000000
Al      28.35000000      18.22500000       2.02500000
Al      30.37500000      16.20000000       2.02500000
Al      30.37500000      18.22500000       0.00000000
Al      28.35000000      16.20000000       4.05000000
Al      28.35000000      18.22500000       6.07500000
Al      30.37500000      16.20000000       6.07500000
Al      30.37500000      18.22500000       4.05000000
Al      28.35000000      16.20000000       8.10000000
Al      28.35000000      18.22500000      10.12500000
Al      30.37500000      16.20000000      10.12500000
Al      30.37500000      18.22500000       8.10000000
Al      28.35000000      16.20000000      12.15000000
Al      28.35000000      18.22500000      14.17500000
Al      30.37500000      16.20000000      14.17500000
Al      30.37500000      18.22500000      12.15000000
Al      28.35000000      16.20000000      16.20000000
Al      28.35000000      18.22500000      18.22500000
Al      30.37500000      16.20000000      18.22500000
Al      30.37500000      18.22500000      16.20000000
Al      28.35000000      16.20000000      20.25000000
Al      28.35000000      18.22500000      22.27500000
Al      30.37500000      16.20000000      22.27500000
Al      30.37500000      18.22500000      20.25000000
Al      28.35000000      16.20000000      24.30000000
Al      28.35000000      18.22500000      26.32500000
Al      30.37500000      16.20000000      26.32500000
Al      30.37500000      18.22500000      24.30000000
Al      28.35000000      16.20000000      28.35000000
Al      28.35000000      18.22500000      30.37500000
Al      30.37500000      16.20000000      30.37500000
Al      30.37500000      18.22500000      28.35000000
Al      28.35000000      20.25000000       0.00000000
Al      28.35000000      22.27500000       2.02500000
Al      30.37500000      20.25000000       2.02500000
Al      30.37500000      22.27500000       0.00000000
Al      28.35000000      20.25000000       4.05000000
Al      28.35000000      22.27500000       6.07500000
Al      30.37500000      20.25000000       6.07500000
Al      30.37500000      22.27500000       4.05000000
Al      28.35000000      20.25000000       8.10000000
Al      28.35000000      22.27500000      10.12500000
Al      30.37500000      20.25000000      10.12500000
Al      30.37500000      22.27500000       8.10000000
Al      28.35000000      20.25000000      12.15000000
Al      28.35000000      22.27500000      14.17500000
Al      30.37500000      20.25000000      14.17500000
Al      30.37500000      22.27500000      12.15000000
Al      28.35000000      20.25000000      16.20000000
Al      28.35000000      22.27500000      18.22500000
Al      30.37500000      20.25000000      18.22500000
Al      30.37500000      22.27500000      16.20000000
Al      28.35000000      20.25000000      20.25000000
Al      28.35000000      22.27500000      22.27500000
Al      30.37500000      20.25000000      22.27500000
Al      30.37500000      22.27500000      20.25000000
Al      28.35000000      20.25000000      24.30000000
Al      28.35000000      22.27500000      26.32500000
Al      30.37500000      20.25000000      26.32500000
Al      30.37500000      22.27500000      24.30000000
Al      28.35000000      20.25000000      28.35000000
Al      28.35000000      22.27500000      30.37500000
Al      30.37500000      20.25000000      30.37500000
Al      30.37500000      22.27500000      28.35000000
Al      28.35000000      24.30000000       0.00000000
Al      28.35000000      26.32500000       2.02500000
Al      30.37500000      24.30000000       2.02500000
Al      30.37500000      26.32500000       0.00000000
Al      28.35000000      24.30000000       4.05000000
Al      28.35000000      26.32500000       6.07500000
Al      30.37500000      24.30000000       6.07500000
Al      30.37500000      26.32500000       4.05000000
Al      28.35000000      24.30000000       8.10000000
Al      28.35000000      26.32500000      10.12500000
Al      30.37500000      24.30000000      10.12500000
Al      30.37500000      26.32500000       8.10000000
Al      28.35000000      24.30000000      12.15000000
Al      28.35000000      26.32500000      14.17500000
Al      30.37500000      24.30000000      14.17500000
Al      30.37500000      26.32500000      12.15000000
Al      28.35000000      24.30000000      16.20000000
Al      28.35000000      26.32500000      18.22500000
Al      30.37500000      24.30000000      18.22500000
Al      30.37500000      26.32500000      16.20000000
Al      28.35000000      24.30000000      20.25000000
Al      28.35000000      26.32500000      22.27500000
Al      30.37500000      24.30000000      22.27500000
Al      30.37500000      26.32500000      20.25000000
Al      28.35000000      24.30000000      24.30000000
Al      28.35000000      26.32500000      26.32500000
Al      30.37500000      24.30000000      26.32500000
Al      30.37500000      26.32500000      24.30000000
Al      28.35000000      24.30000000      28.35000000
Al      28.35000000      26.32500000      30.37500000
Al      30.37500000      24.30000000      30.37500000
Al      30.37500000      26.32500000      28.35000000
Al      28.35000000      28.35000000       0.00000000
Al      28.35000000      30.37500000       2.02500000
Al      30.37500000      28.35000000       2.02500000
Al      30.37500000      30.37500000       0.00000000
Al      28.35000000      28.35000000       4.05000000
Al      28.35000000      30.37500000       6.07500000
Al      30.37500000      28.35000000       6.07500000
Al      30.37500000      30.37500000       4.05000000
Al      28.35000000      28.35000000       8.10000000
Al      28.35000000      30.37500000      10.12500000
Al      30.37500000      28.35000000      10.12500000
Al      30.37500000      30.37500000       8.10000000
Al      28.35000000      28.35000000      12.15000000
Al      28.35000000      30.37500000      14.17500000
Al      30.37500000      28.35000000      14.17500000
Al      30.37500000      30.37500000      12.15000000
Al      28.35000000      28.35000000      16.20000000
Al      28.35000000      30.37500000      18.22500000
Al      30.37500000      28.35000000      18.22500000
Al      30.37500000      30.37500000      16.20000000
Al      28.35000000      28.35000000      20.25000000
Al      28.35000000      30.37500000      22.27500000
Al      30.37500000      28.35000000      22.27500000
Al      30.37500000      30.37500000      20.25000000
Al      28.35000000      28.35000000      24.30000000
Al      28.35000000      30.37500000      26.32500000
Al      30.37500000      28.35000000      26.32500000
Al      30.37500000      30.37500000      24.30000000
Al      28.35000000      28.35000000      28.35000000
Al      28.35000000      30.37500000      30.37500000
Al      30.37500000      28.35000000      30.37500000
Al      30.37500000      30.37500000      28.35000000
