LAMMPS (10 Sep 2025)
  using 1 OpenMP thread(s) per MPI task
# fcc fraction of GPUMD frames with the same CNA as md/e2_melting (cna/atom, cutoff 0.854 a0).
#   lmp -in in.cna_rerun -var d coexist_900
variable a0 equal 3.9899
units      metal
atom_style atomic
boundary   p p p
read_data  ${d}/frame0.data
read_data  coexist_935/frame0.data
Reading data file ...
  orthogonal box = (0 0 0) to (32.673613 32.666426 134.75311)
  1 by 1 by 1 MPI processor grid
  reading atoms ...
  8192 atoms
  read_data CPU = 0.223 seconds
pair_style zero 6.0
pair_coeff * *
compute    c all cna/atom $(0.854*v_a0)
compute    c all cna/atom 3.4073745999999998091
variable   isfcc atom c_c==1
compute    nf all reduce sum v_isfcc
variable   ffcc equal c_nf/atoms
thermo_style custom step v_ffcc
thermo_modify format float %.5f
thermo     1
rerun      ${d}/prod.dump dump x y z box yes
rerun      coexist_935/prod.dump dump x y z box yes
WARNING: No fixes with time integration, atoms won't move
For more information see https://docs.lammps.org/err0028 (src/lammps-10Sep2025/src/verlet.cpp:60)
Generated 0 of 0 mixed pair_coeff terms from geometric mixing rule
Neighbor list info ...
  update: every = 1 steps, delay = 0 steps, check = yes
  max neighbors/atom: 2000, page size: 100000
  master list distance cutoff = 8
  ghost atom cutoff = 8
  binsize = 4, bins = 9 9 34
  2 neighbor lists, perpetual/occasional/extra = 1 1 0
  (1) pair zero, perpetual
      attributes: half, newton on
      pair build: half/bin/atomonly/newton
      stencil: half/bin/3d
      bin: standard
  (2) compute cna/atom, occasional
      attributes: full, newton on
      pair build: full/bin/atomonly
      stencil: full/bin/3d
      bin: standard
Per MPI rank memory allocation (min/avg/max) = 8.265 | 8.265 | 8.265 Mbytes
   Step         v_ffcc    
         0  0.26904
         1  0.26636
         2  0.22070
         3  0.21729
         4  0.21509
         5  0.22205
         6  0.19678
         7  0.17407
         8  0.18127
         9  0.19592
        10  0.17932
        11  0.17114
        12  0.15625
        13  0.16760
        14  0.16162
        15  0.15356
        16  0.14746
        17  0.16284
        18  0.16736
        19  0.16650
        20  0.16052
        21  0.15894
        22  0.15674
        23  0.14856
        24  0.16003
        25  0.14099
        26  0.14172
        27  0.17017
        28  0.16919
        29  0.16479
        30  0.14844
        31  0.14795
        32  0.14246
        33  0.16577
        34  0.14417
        35  0.16089
        36  0.14307
        37  0.13879
        38  0.13806
        39  0.14819
        40  0.12891
        41  0.14160
        42  0.13831
        43  0.14502
        44  0.13806
        45  0.13867
        46  0.14331
        47  0.13623
        48  0.12573
        49  0.12781
Loop time of 11.0695 on 1 procs for 50 steps with 8192 atoms

Total wall time: 0:00:11
