LAMMPS (10 Sep 2025)
  using 1 OpenMP thread(s) per MPI task
# fcc fraction of GPUMD frames with the same CNA as md/e2_melting (cna/atom, cutoff 0.854 a0).
#   lmp -in in.cna_rerun -var d coexist_900
variable a0 equal 3.9899
units      metal
atom_style atomic
boundary   p p p
read_data  ${d}/frame0.data
read_data  coexist_980/frame0.data
Reading data file ...
  orthogonal box = (0 0 0) to (32.755554 32.532423 136.66982)
  1 by 1 by 1 MPI processor grid
  reading atoms ...
  8192 atoms
  read_data CPU = 0.136 seconds
pair_style zero 6.0
pair_coeff * *
compute    c all cna/atom $(0.854*v_a0)
compute    c all cna/atom 3.4073745999999998091
variable   isfcc atom c_c==1
compute    nf all reduce sum v_isfcc
variable   ffcc equal c_nf/atoms
thermo_style custom step v_ffcc
thermo_modify format float %.5f
thermo     1
rerun      ${d}/prod.dump dump x y z box yes
rerun      coexist_980/prod.dump dump x y z box yes
WARNING: No fixes with time integration, atoms won't move
For more information see https://docs.lammps.org/err0028 (src/lammps-10Sep2025/src/verlet.cpp:60)
Generated 0 of 0 mixed pair_coeff terms from geometric mixing rule
Neighbor list info ...
  update: every = 1 steps, delay = 0 steps, check = yes
  max neighbors/atom: 2000, page size: 100000
  master list distance cutoff = 8
  ghost atom cutoff = 8
  binsize = 4, bins = 9 9 35
  2 neighbor lists, perpetual/occasional/extra = 1 1 0
  (1) pair zero, perpetual
      attributes: half, newton on
      pair build: half/bin/atomonly/newton
      stencil: half/bin/3d
      bin: standard
  (2) compute cna/atom, occasional
      attributes: full, newton on
      pair build: full/bin/atomonly
      stencil: full/bin/3d
      bin: standard
Per MPI rank memory allocation (min/avg/max) = 8.25 | 8.25 | 8.25 Mbytes
   Step         v_ffcc    
         0  0.23523
         1  0.19934
         2  0.17859
         3  0.14868
         4  0.15759
         5  0.14343
         6  0.15466
         7  0.13806
         8  0.12781
         9  0.12769
        10  0.10266
        11  0.11499
        12  0.08972
        13  0.09094
        14  0.09265
        15  0.09485
        16  0.07458
        17  0.06714
        18  0.07312
        19  0.07849
        20  0.08118
        21  0.06311
        22  0.07385
        23  0.05408
        24  0.06958
        25  0.05701
        26  0.06470
        27  0.04932
        28  0.05615
        29  0.03943
        30  0.03882
        31  0.02686
        32  0.03003
        33  0.01953
        34  0.01709
        35  0.01538
        36  0.01013
        37  0.01697
        38  0.01135
        39  0.01208
        40  0.00659
        41  0.00476
        42  0.00891
        43  0.00073
        44  0.00012
        45  0.00000
        46  0.00000
        47  0.00000
        48  0.00000
        49  0.00000
Loop time of 8.84353 on 1 procs for 50 steps with 8192 atoms

Total wall time: 0:00:09
