frame 0 of coexist_960/prod.xyz

8192 atoms
1 atom types

0 32.74467290 xlo xhi
0 32.67399450 ylo yhi
0 135.11718100 zlo zhi

Masses

1 26.982

Atoms # atomic

1 1 0.189508 32.525724 0.979413
2 1 32.693683 2.121842 3.039790
3 1 2.128532 0.130964 3.224188
4 1 1.992049 1.925761 1.270207
5 1 0.068600 0.154744 5.611350
6 1 0.067031 2.403366 7.293490
7 1 1.907274 32.605889 7.624193
8 1 1.898686 2.429049 5.208218
9 1 0.121111 32.321058 9.642812
10 1 0.110358 2.060993 11.121443
11 1 2.253484 0.222696 11.444074
12 1 1.991884 2.136740 9.163975
13 1 0.132245 0.134976 13.670678
14 1 0.436483 2.099052 15.670685
15 1 2.130276 32.626140 15.564499
16 1 2.375277 2.086754 13.277957
17 1 0.334861 0.054043 17.325167
18 1 0.197621 1.971005 19.531007
19 1 2.234961 0.495930 19.374333
20 1 2.406713 2.417289 17.653617
21 1 0.087340 32.630927 21.319342
22 1 0.076312 1.875640 23.353167
23 1 2.199622 32.661895 23.219134
24 1 2.136827 2.197230 21.744826
25 1 0.251381 0.174186 25.621271
26 1 0.157658 1.844469 27.549565
27 1 2.467968 0.127953 27.528694
28 1 1.936151 2.058509 25.215119
29 1 32.501911 32.176651 29.555093
30 1 32.580395 1.814170 31.137255
31 1 1.921783 0.078933 31.253116
32 1 2.336367 2.096437 29.386943
33 1 32.536515 0.221358 33.104022
34 1 32.654500 2.157233 35.591723
35 1 2.014140 0.037270 35.736810
36 1 2.174507 1.630189 33.319557
37 1 32.741979 32.508417 37.789968
38 1 32.392195 2.005201 39.897437
39 1 2.055564 32.514778 39.484397
40 1 2.010926 2.140416 37.446095
41 1 32.635170 32.527435 41.326151
42 1 32.579342 1.871300 43.459776
43 1 2.025609 32.493898 43.419863
44 1 1.917950 1.872352 41.542455
45 1 32.621180 32.108672 45.730246
46 1 32.625191 1.932981 47.891370
47 1 2.101392 32.354794 47.573640
48 1 1.866549 1.706770 45.670617
49 1 0.326179 32.627410 49.755352
50 1 32.628720 1.843120 51.349389
51 1 2.318099 0.123210 51.580213
52 1 2.156444 1.884933 49.387696
53 1 0.116446 32.664226 53.890570
54 1 0.236663 1.962144 55.710300
55 1 1.985359 0.203766 55.833678
56 1 1.828043 1.758798 53.565807
57 1 32.673631 32.534059 57.569891
58 1 0.003630 2.127055 59.950995
59 1 1.984378 0.254671 60.001397
60 1 2.137747 2.165793 57.780366
61 1 32.477911 0.076920 62.066303
62 1 32.575199 2.053907 64.006541
63 1 2.008225 32.592331 63.836103
64 1 1.814109 2.158696 61.940952
65 1 32.737237 32.461145 65.977922
66 1 30.823494 30.564822 70.371771
67 1 32.296728 30.810384 76.379204
68 1 1.985153 4.156723 67.838368
69 1 2.017308 30.057992 74.577178
70 1 24.905311 32.274007 73.769332
71 1 32.227800 0.622612 74.539181
72 1 30.825562 28.436220 72.090193
73 1 25.800359 9.659847 90.195363
74 1 1.540242 26.959653 74.947416
75 1 2.321288 6.340389 74.392112
76 1 32.132142 32.319651 80.992847
77 1 2.759529 0.492945 88.856068
78 1 27.234560 3.693052 88.695769
79 1 28.093894 1.748855 76.173407
80 1 31.025138 4.505244 76.055596
81 1 0.554739 28.017517 88.414040
82 1 31.867148 0.037476 92.612870
83 1 3.235539 28.538050 93.761985
84 1 1.619219 30.772831 81.630054
85 1 29.000943 24.245957 89.512777
86 1 26.794667 30.470626 96.880759
87 1 5.034562 1.838732 94.934601
88 1 0.840683 31.321375 91.375932
89 1 20.630801 13.266581 91.380840
90 1 3.111454 0.667586 91.731220
91 1 20.501281 24.491730 91.080562
92 1 31.089090 4.020765 94.353064
93 1 29.946554 2.157667 95.954749
94 1 21.497825 0.423387 87.981683
95 1 29.496447 4.289959 92.012465
96 1 4.377328 31.090750 104.905710
97 1 5.665069 22.829774 100.547560
98 1 29.342371 11.767756 94.257176
99 1 5.019377 25.766514 96.927239
100 1 7.316912 24.840685 99.598446
101 1 8.649360 1.506324 102.477955
102 1 30.062771 2.482394 108.157364
103 1 6.088156 2.976703 115.761794
104 1 3.295341 6.879553 122.149322
105 1 0.551111 28.479877 117.097139
106 1 28.722107 8.227405 108.220970
107 1 7.972786 24.899481 105.292639
108 1 7.481880 29.461362 99.870823
109 1 29.802902 32.300919 112.468712
110 1 26.367646 29.370712 121.624910
111 1 32.438485 0.093197 124.624314
112 1 11.648491 3.697745 117.335800
113 1 28.511554 27.857559 127.875317
114 1 6.141109 4.565485 119.062591
115 1 2.498829 26.302387 120.935386
116 1 10.787607 8.282259 121.312015
117 1 12.424631 32.065321 123.467885
118 1 32.382558 7.864659 128.650507
119 1 27.928362 10.353754 123.527312
120 1 2.457509 4.226369 112.474495
121 1 4.248202 32.481271 127.985970
122 1 3.998219 3.922079 128.158866
123 1 2.237405 30.471410 128.357970
124 1 26.301863 24.713942 126.285644
125 1 4.070237 30.485913 130.465119
126 1 2.467612 1.956593 132.492192
127 1 4.082913 32.363330 132.506385
128 1 4.515408 4.143218 132.292621
129 1 0.555391 4.173355 1.016401
130 1 0.303731 6.244078 2.999569
131 1 2.365897 4.338538 3.150916
132 1 2.392078 6.284045 1.164201
133 1 0.117727 4.402582 5.143576
134 1 32.454982 6.104584 7.393979
135 1 2.024296 4.235287 7.212177
136 1 2.202659 6.247095 4.963849
137 1 32.590173 4.372991 9.434534
138 1 32.668677 6.024705 11.471270
139 1 2.075577 4.036299 11.368658
140 1 1.812891 6.326568 9.103995
141 1 0.102188 4.100812 13.431945
142 1 0.055729 6.123446 15.386949
143 1 2.189271 3.996966 15.494503
144 1 1.852193 6.117085 13.275101
145 1 0.172598 4.075812 17.540645
146 1 0.142861 5.957325 19.836627
147 1 2.333375 4.432618 19.517031
148 1 1.810932 6.225411 17.436203
149 1 0.187100 3.825460 21.710017
150 1 32.589389 5.954363 23.776428
151 1 2.144259 4.140365 23.471241
152 1 2.275329 6.357690 21.614050
153 1 0.248431 3.972763 25.437877
154 1 32.603829 5.865981 27.844641
155 1 2.190890 4.208231 27.301751
156 1 2.512372 5.962417 25.356316
157 1 0.395192 4.206999 29.660104
158 1 0.056532 6.116264 31.388731
159 1 2.312590 3.916159 31.491867
160 1 2.170885 6.174426 29.305781
161 1 0.027474 3.848344 33.173558
162 1 32.612732 5.711412 35.508198
163 1 2.184810 4.040672 35.532118
164 1 2.153566 5.792596 33.511651
165 1 0.068997 3.893837 37.644559
166 1 0.010140 6.237443 39.384382
167 1 1.879946 3.899598 39.501297
168 1 1.922138 6.046317 37.548844
169 1 0.086998 3.972762 41.822563
170 1 0.064534 5.988179 43.731672
171 1 2.152867 3.689111 43.626384
172 1 1.966094 5.996615 41.555276
173 1 0.146245 3.730771 45.627072
174 1 32.527233 6.206207 47.479409
175 1 2.355925 3.862746 47.464597
176 1 1.921271 5.950789 45.704682
177 1 0.179665 4.326984 49.444273
178 1 32.665165 6.062266 51.448311
179 1 2.128513 3.720534 51.485478
180 1 2.366827 5.937741 49.900254
181 1 0.122841 3.943197 53.487132
182 1 0.044030 6.266815 55.735389
183 1 1.773396 4.199198 56.096075
184 1 1.805601 5.523748 53.151846
185 1 0.022537 4.277129 58.290417
186 1 32.407471 6.425417 59.730707
187 1 2.065497 4.313734 60.053689
188 1 1.868596 6.179115 57.709794
189 1 32.671753 4.174637 61.841405
190 1 0.142688 6.290634 64.025049
191 1 1.856344 4.145847 63.874471
192 1 2.268404 6.207196 61.892461
193 1 0.018377 4.310728 65.672775
194 1 28.361224 10.510169 67.695144
195 1 1.841816 4.027626 71.797325
196 1 2.120770 6.518249 65.772517
197 1 28.835084 28.393885 69.887946
198 1 6.148754 1.279453 74.898458
199 1 30.327201 8.317745 75.737636
200 1 32.426739 4.535625 70.157767
201 1 30.696923 8.097179 71.837490
202 1 25.137437 18.888928 87.646580
203 1 4.796926 7.796550 82.411310
204 1 1.955737 7.939530 72.255298
205 1 4.529676 5.658586 86.194995
206 1 22.023640 13.517497 94.605231
207 1 29.707188 0.572773 87.431247
208 1 3.680858 10.764403 76.281291
209 1 3.574064 26.522489 83.389707
210 1 31.173718 11.456517 91.729445
211 1 27.913670 7.035823 97.756186
212 1 26.446621 4.421408 77.200149
213 1 27.989399 7.514997 93.843990
214 1 29.354432 10.693078 89.821266
215 1 29.794224 5.591424 96.163656
216 1 32.681690 1.558087 90.430858
217 1 25.142852 10.301677 96.553570
218 1 23.296334 12.416678 89.515555
219 1 28.457855 26.527098 91.806573
220 1 32.266128 14.028303 93.593660
221 1 30.079560 1.783263 92.148173
222 1 30.015348 10.818655 96.614776
223 1 25.007706 3.528164 115.392970
224 1 30.661656 7.531840 100.857044
225 1 2.880403 1.862242 104.030113
226 1 2.438277 9.948805 105.567382
227 1 0.023184 1.576045 103.788969
228 1 1.042740 7.573039 109.527689
229 1 29.737100 17.133420 102.961597
230 1 5.602773 1.852900 106.638824
231 1 0.033620 32.078139 115.650489
232 1 5.823742 5.639788 106.533403
233 1 4.692361 0.179527 111.545296
234 1 5.912732 12.209235 118.101350
235 1 7.863017 16.621771 100.302969
236 1 3.055023 8.096767 116.270367
237 1 5.690616 7.807733 112.445510
238 1 31.961307 2.332496 119.614227
239 1 11.720002 11.574335 112.393103
240 1 3.320229 6.685872 111.240338
241 1 8.607830 31.455932 115.126954
242 1 32.529010 32.509987 128.775957
243 1 24.645723 8.878572 119.550554
244 1 30.194796 12.770770 122.330556
245 1 32.191033 1.507241 122.286814
246 1 0.505963 26.606129 125.861587
247 1 30.752415 30.332869 128.447520
248 1 31.251888 9.966380 116.221245
249 1 4.311087 8.134621 127.850388
250 1 5.769194 1.739996 132.520004
251 1 9.849319 1.732509 132.256725
252 1 4.920041 11.929161 123.936370
253 1 31.091609 6.048559 132.563690
254 1 0.248694 6.109716 134.502855
255 1 3.981067 2.094450 134.715836
256 1 2.521426 4.167643 134.142152
257 1 0.573840 8.606957 1.484462
258 1 0.286476 10.442879 3.192010
259 1 2.458345 8.579637 3.473405
260 1 2.382451 10.381115 0.955004
261 1 32.733453 8.250864 5.332637
262 1 32.564470 10.406769 7.366019
263 1 2.003922 8.454631 7.253017
264 1 1.864851 10.459606 5.523635
265 1 32.739441 8.068736 9.243780
266 1 32.652940 9.785681 11.572076
267 1 2.199795 7.934109 11.006518
268 1 2.087963 10.262752 9.433922
269 1 32.412799 8.080145 13.535676
270 1 32.432999 10.228160 15.786790
271 1 1.762853 8.114169 15.174325
272 1 2.126923 10.016084 13.138665
273 1 32.386078 8.050017 17.631040
274 1 0.183914 10.060906 19.276836
275 1 2.377962 8.178088 19.394034
276 1 2.107382 9.680322 17.508903
277 1 0.033943 8.116786 21.592771
278 1 0.276029 10.180190 23.283029
279 1 2.003524 7.918293 23.832906
280 1 2.042586 10.080757 21.579846
281 1 32.399948 7.872452 25.842204
282 1 0.004766 10.006141 27.095683
283 1 1.825759 7.958701 27.420952
284 1 2.286946 10.030579 25.336654
285 1 0.127913 8.391946 29.456882
286 1 0.175903 10.069689 31.577093
287 1 1.897146 8.235443 32.006460
288 1 2.213700 10.088535 29.340272
289 1 32.704944 7.455496 33.798692
290 1 32.599625 9.890021 34.957548
291 1 2.196498 8.237401 34.994614
292 1 2.120455 10.572012 33.448901
293 1 32.683736 8.074910 37.084667
294 1 32.479456 10.093261 39.433226
295 1 1.702390 8.465503 39.279097
296 1 2.139789 10.355467 37.013480
297 1 32.694763 7.530333 41.500042
298 1 32.369720 9.836533 43.542405
299 1 1.993435 7.860327 43.547210
300 1 1.587629 10.081917 41.441017
301 1 32.484980 7.876309 45.319595
302 1 32.698808 9.784014 47.604346
303 1 2.019165 7.905128 47.627554
304 1 1.961117 9.800829 45.456649
305 1 0.090235 7.966979 49.586719
306 1 0.210220 10.151455 51.388835
307 1 1.948557 8.209750 51.519150
308 1 1.996898 10.145932 49.217673
309 1 0.392200 7.961090 53.691701
310 1 32.320625 9.928145 55.444308
311 1 1.903802 8.517935 55.801619
312 1 1.810741 10.179665 53.419922
313 1 32.731262 8.434363 57.643246
314 1 32.388347 10.141974 59.826876
315 1 1.981711 8.151096 59.846653
316 1 1.963714 10.348650 57.967599
317 1 32.730290 8.137490 61.559945
318 1 0.363596 9.988856 64.022411
319 1 2.215344 8.102702 63.812005
320 1 2.143951 10.168229 61.958088
321 1 32.724680 8.111030 66.284862
322 1 32.718563 6.130101 68.162954
323 1 3.766766 6.054839 68.034995
324 1 2.200834 10.092109 66.546649
325 1 6.424975 1.750834 77.591081
326 1 30.773047 12.419982 71.979889
327 1 28.190358 8.650220 73.857434
328 1 8.139793 16.883321 70.241497
329 1 26.183506 13.058975 71.776971
330 1 26.118148 11.095826 73.520483
331 1 3.294090 3.413204 81.095736
332 1 32.728863 8.087136 70.213907
333 1 29.326386 12.369786 83.119597
334 1 25.314985 7.319888 91.916733
335 1 29.765525 6.285161 79.691675
336 1 5.153662 12.544034 89.023690
337 1 28.797459 5.288156 87.298341
338 1 32.202166 6.912214 84.873896
339 1 6.415073 5.656592 97.570204
340 1 2.706985 9.897468 88.766937
341 1 2.398205 7.529264 85.507182
342 1 1.798013 8.042071 96.961790
343 1 2.724094 12.511401 78.280161
344 1 15.976753 5.172559 92.746915
345 1 22.911777 16.222593 91.298032
346 1 4.175089 10.504599 91.170347
347 1 3.605805 12.572037 86.557133
348 1 2.125451 8.879609 94.333035
349 1 11.471848 12.186170 104.747624
350 1 7.622966 3.962466 102.588890
351 1 9.780264 18.869514 85.846560
352 1 6.317357 0.808424 101.618324
353 1 1.916555 17.420856 98.292735
354 1 1.024418 7.756454 104.887225
355 1 6.604353 13.034161 94.252948
356 1 9.302067 18.542367 104.652179
357 1 4.958952 4.985980 111.548300
358 1 1.051076 8.953473 112.117285
359 1 9.316618 14.452815 99.121858
360 1 5.922852 4.277681 99.916366
361 1 26.932847 7.018301 121.524616
362 1 31.427189 1.431372 113.755655
363 1 6.756898 30.190192 97.332394
364 1 29.660668 5.481707 121.618908
365 1 20.703409 15.122615 104.432401
366 1 4.134177 12.544938 115.897630
367 1 28.443682 9.442957 105.861279
368 1 8.562546 12.705617 117.055119
369 1 18.847768 4.710179 105.051064
370 1 0.615289 16.493355 116.541454
371 1 31.777425 8.734074 120.470567
372 1 23.547581 19.323694 118.431505
373 1 27.056485 15.079117 118.369436
374 1 28.767125 8.154660 128.183004
375 1 4.553259 2.590542 118.183543
376 1 29.580345 8.046099 120.945922
377 1 30.834688 8.241186 130.507738
378 1 4.492036 12.326218 127.759665
379 1 2.115633 31.897930 126.123521
380 1 6.609163 32.643665 126.269301
381 1 2.419211 12.662754 130.366033
382 1 0.103638 14.354330 134.029082
383 1 2.334649 8.227369 134.155021
384 1 32.704985 12.216512 132.079703
385 1 32.608818 12.093674 1.192373
386 1 0.276111 14.421634 3.055768
387 1 2.299600 12.790548 3.452221
388 1 1.815837 14.449770 0.996360
389 1 32.728530 12.533010 5.198664
390 1 32.512377 14.019514 7.246702
391 1 1.863173 12.453530 7.482691
392 1 2.295755 14.507622 5.671299
393 1 32.132088 11.992396 9.573627
394 1 32.401406 14.326940 11.452366
395 1 1.226819 12.261797 11.478184
396 1 1.619589 14.297339 9.685227
397 1 32.565307 12.227798 13.743972
398 1 0.172466 14.700254 15.330503
399 1 1.924860 12.435921 15.524280
400 1 1.967529 14.245930 13.393888
401 1 32.554308 12.713985 17.392163
402 1 0.416835 14.145203 19.648994
403 1 2.061627 12.037261 19.269165
404 1 2.280862 14.341524 17.501980
405 1 0.175994 12.160486 21.591386
406 1 0.256082 14.184652 23.540758
407 1 2.224275 12.233880 24.008253
408 1 2.183578 13.973832 21.785417
409 1 0.155656 12.075894 25.596929
410 1 32.692499 14.169437 27.404190
411 1 2.051394 11.820374 27.266127
412 1 1.982182 14.305266 25.674839
413 1 0.068459 12.027581 29.472126
414 1 32.742329 14.208089 31.079443
415 1 1.979256 12.020337 31.342825
416 1 2.122401 14.085238 29.539633
417 1 32.493115 12.094603 33.165425
418 1 0.090958 14.214936 35.328804
419 1 2.102930 12.561831 35.231171
420 1 2.080266 14.050232 33.063515
421 1 32.476227 11.886464 37.207111
422 1 32.733905 13.968685 39.288302
423 1 1.880733 12.240545 39.952626
424 1 2.117360 14.424844 37.566916
425 1 32.487378 12.138968 41.690677
426 1 32.224964 13.991363 43.444857
427 1 1.828971 12.088409 43.705535
428 1 1.956203 14.032714 41.911205
429 1 32.607901 11.965460 45.603069
430 1 32.561284 14.248016 47.666840
431 1 1.705615 12.106078 47.407120
432 1 1.933085 14.045060 45.375836
433 1 32.552768 12.054578 49.288469
434 1 0.045371 14.374441 51.527002
435 1 2.102831 12.370981 51.202117
436 1 2.067454 14.383416 49.428790
437 1 32.640497 12.379480 53.172591
438 1 32.420252 13.964463 55.624232
439 1 1.810902 12.002339 55.661682
440 1 2.012804 13.859400 53.524345
441 1 32.704938 12.282693 57.792010
442 1 0.022503 14.474260 59.570472
443 1 2.091162 12.329665 59.879851
444 1 1.908201 13.950063 57.554361
445 1 32.672920 12.171050 61.718265
446 1 0.237385 14.015767 64.075981
447 1 2.052950 11.858125 63.948530
448 1 2.016197 14.600920 61.749378
449 1 30.479940 8.820496 67.552694
450 1 30.273487 10.505342 73.973724
451 1 0.145801 10.418329 68.091481
452 1 5.324718 11.158195 78.951750
453 1 32.128836 9.014410 73.830936
454 1 20.452725 17.156841 73.434101
455 1 25.831006 8.510288 72.502087
456 1 2.539451 12.477208 71.701539
457 1 26.455031 10.577047 70.735856
458 1 28.190456 16.271426 74.007888
459 1 27.159498 6.344787 84.492147
460 1 32.339978 10.864950 75.985215
461 1 18.678139 13.740062 76.570901
462 1 9.019101 19.742091 80.664372
463 1 23.734452 12.116075 84.969257
464 1 4.411348 14.756132 71.689259
465 1 5.770012 7.664465 89.633436
466 1 25.818428 11.669341 86.832064
467 1 32.095074 15.237153 76.072132
468 1 7.495109 15.740632 80.423679
469 1 2.045335 8.078766 80.282721
470 1 1.414884 16.513678 90.791651
471 1 10.702170 17.388032 89.689014
472 1 5.605659 13.055770 84.274510
473 1 26.114591 12.432612 106.022643
474 1 3.332691 18.483271 86.288504
475 1 7.957029 20.798000 100.808302
476 1 26.464333 12.079158 83.626514
477 1 10.782149 11.938663 99.128658
478 1 8.048621 8.837569 105.819814
479 1 22.238921 18.402858 102.450383
480 1 7.752229 16.374897 102.934527
481 1 32.676367 11.710647 94.861283
482 1 7.288702 17.797176 93.281628
483 1 29.543736 12.069238 98.727674
484 1 6.093453 9.376194 102.731409
485 1 9.049085 9.728940 109.294818
486 1 8.321185 15.819881 116.927229
487 1 10.976044 12.995570 107.209296
488 1 0.239739 2.660590 96.292714
489 1 0.892020 31.974052 108.308291
490 1 3.500864 9.313835 118.500157
491 1 0.538947 6.204781 111.721737
492 1 0.809701 9.054213 115.106492
493 1 20.795433 10.869602 103.993817
494 1 4.442672 14.723035 124.203532
495 1 0.345160 11.993721 106.804590
496 1 7.471963 9.983646 113.632917
497 1 7.849055 17.431609 119.023381
498 1 31.557941 22.007365 115.622097
499 1 2.464511 4.315193 125.890987
500 1 32.557547 12.746482 120.851923
501 1 7.237412 17.544320 121.728066
502 1 6.449029 9.067951 118.590479
503 1 28.540758 12.070493 127.665504
504 1 30.549900 18.811659 124.236689
505 1 30.824091 18.579116 128.005423
506 1 1.590104 18.805132 127.990602
507 1 0.392554 14.390145 130.677321
508 1 20.335464 10.415758 130.163189
509 1 30.616650 12.240797 129.794984
510 1 2.345403 14.830582 132.205970
511 1 2.041422 12.534781 134.104876
512 1 0.255177 16.705973 131.954374
513 1 32.716488 16.596924 1.182598
514 1 0.299659 18.823880 3.462093
515 1 1.929171 16.576415 3.091116
516 1 2.205621 18.473421 1.125380
517 1 0.019920 16.201444 5.327788
518 1 0.077371 18.787541 7.193403
519 1 2.125415 16.630279 7.402613
520 1 2.333309 18.509552 5.260943
521 1 32.667346 16.471158 9.440028
522 1 32.656067 18.566379 11.441592
523 1 1.828639 16.369448 11.454690
524 1 2.274820 18.441784 9.526420
525 1 0.060361 16.644709 13.507551
526 1 32.660191 18.808978 15.374215
527 1 2.215115 16.275075 15.313287
528 1 1.899820 18.611700 13.428337
529 1 0.003890 16.509796 17.184925
530 1 0.212168 18.061404 19.467946
531 1 2.195860 16.406425 19.669394
532 1 2.027377 18.206792 17.227954
533 1 0.109221 16.252377 21.544805
534 1 0.352204 18.419101 23.285900
535 1 2.002946 16.080291 23.348322
536 1 2.206480 18.481967 21.354003
537 1 32.607086 16.119197 25.758117
538 1 0.142907 18.403301 27.501271
539 1 2.664852 16.455558 27.610635
540 1 2.260949 18.606711 25.255913
541 1 0.424709 16.281805 29.041717
542 1 0.412559 18.246167 31.503070
543 1 2.246258 16.239015 31.575837
544 1 2.509714 18.440099 29.583804
545 1 0.261672 16.145960 33.401762
546 1 0.240782 18.330673 35.459270
547 1 2.157294 16.350371 35.557890
548 1 2.234898 18.057731 33.665609
549 1 0.260384 16.314612 37.354303
550 1 32.686140 18.357014 39.383163
551 1 1.663484 16.241696 39.458464
552 1 2.644645 18.564910 37.273278
553 1 0.097440 16.219109 41.500950
554 1 0.030900 18.144903 43.677511
555 1 2.418464 16.363787 43.471288
556 1 2.054135 18.292857 41.364671
557 1 32.575023 15.903924 45.411579
558 1 32.372596 17.891848 47.636122
559 1 1.697306 16.080707 47.549021
560 1 2.146084 18.481789 45.347831
561 1 32.578157 16.240252 49.909636
562 1 32.309691 18.336441 51.427020
563 1 2.297659 16.144879 51.584416
564 1 2.124788 18.409834 49.688128
565 1 0.148707 16.445757 53.227539
566 1 32.621272 18.622307 55.722712
567 1 1.965991 16.043841 55.449861
568 1 1.654396 18.448333 53.574647
569 1 32.561494 16.451046 57.402134
570 1 32.313553 18.097513 59.500978
571 1 2.109443 15.787462 59.431201
572 1 2.038216 18.287445 58.138309
573 1 0.118283 16.334144 61.736104
574 1 32.736682 18.452875 63.876744
575 1 1.878946 16.441084 63.923231
576 1 1.581380 18.446662 61.594128
577 1 2.121836 14.164781 65.743725
578 1 28.630949 16.055318 65.119938
579 1 1.852241 16.207720 67.352362
580 1 4.336768 16.183967 66.002820
581 1 30.616485 18.312661 65.420719
582 1 24.514354 18.478673 71.559564
583 1 26.568327 19.886624 76.056198
584 1 30.865171 22.310080 69.703718
585 1 27.878192 12.978682 80.112378
586 1 1.242201 21.509411 74.273661
587 1 27.865783 10.576678 85.627762
588 1 28.029629 16.150987 78.888072
589 1 24.822909 8.944275 87.752559
590 1 27.481356 23.325461 80.269984
591 1 29.469641 17.391269 85.600023
592 1 2.230716 10.434825 73.676441
593 1 7.857710 13.573782 88.836394
594 1 32.562060 13.309485 80.161582
595 1 0.697293 8.073284 89.626943
596 1 32.563182 15.967291 81.830851
597 1 0.402778 21.061238 83.468504
598 1 0.746217 11.898904 87.589960
599 1 0.117122 20.482664 93.517230
600 1 12.400615 17.080483 79.037586
601 1 9.914249 13.704346 93.636104
602 1 5.646911 19.301715 94.474126
603 1 3.843630 28.128856 105.195007
604 1 6.553848 19.712251 98.377076
605 1 2.305557 10.953139 96.151408
606 1 29.659673 19.506585 99.329075
607 1 3.747960 18.803460 100.176201
608 1 3.122153 21.801211 86.386549
609 1 31.240582 12.848858 105.020870
610 1 5.597653 16.013061 104.291686
611 1 3.949428 18.902996 112.794724
612 1 3.718931 11.724587 103.424591
613 1 5.503782 12.564244 108.822021
614 1 7.424033 12.376474 106.758503
615 1 5.994721 18.089379 106.056724
616 1 2.577357 29.580336 111.663026
617 1 0.973912 18.870961 104.060712
618 1 5.690965 19.650690 115.326291
619 1 9.254427 12.321253 109.421465
620 1 3.234963 24.482337 117.173457
621 1 8.401545 23.864723 123.568160
622 1 32.495866 18.561407 125.991996
623 1 4.418291 11.158999 120.504478
624 1 3.356291 20.384973 105.497451
625 1 2.489109 16.531279 124.230945
626 1 26.351641 22.944436 124.347380
627 1 28.776243 6.469794 119.254351
628 1 30.523997 14.021045 127.875519
629 1 24.878714 18.762964 121.058828
630 1 30.397644 23.019730 123.836554
631 1 30.197295 8.933682 118.524576
632 1 1.521425 14.350685 128.050850
633 1 1.993238 16.393038 129.899916
634 1 24.540155 18.244046 130.294572
635 1 28.698542 20.680186 128.103541
636 1 32.171947 16.242252 128.403578
637 1 29.356986 12.112920 132.053345
638 1 30.945935 16.409356 134.239370
639 1 1.940606 16.846048 134.186953
640 1 32.115586 25.257853 114.494373
641 1 0.497130 20.277513 1.194530
642 1 0.105966 22.363379 3.414121
643 1 2.501840 20.457106 3.217366
644 1 1.986360 22.555684 1.382520
645 1 0.362671 20.480370 5.202647
646 1 0.452507 22.186356 7.230326
647 1 2.154423 20.281925 7.429132
648 1 2.409124 22.739177 5.337335
649 1 0.146169 20.556149 9.372913
650 1 0.016410 22.705803 11.337994
651 1 1.773997 20.534455 11.640279
652 1 2.035655 22.177915 9.488155
653 1 0.167470 20.587013 13.512593
654 1 0.166506 22.379462 15.276301
655 1 2.141396 20.564512 15.822366
656 1 2.268345 22.536790 13.485230
657 1 0.284866 20.506701 17.683317
658 1 0.436361 22.357866 19.745902
659 1 2.252759 20.274431 19.325716
660 1 2.274639 22.645621 17.695448
661 1 0.344965 20.396653 21.315063
662 1 0.431874 22.392904 23.614815
663 1 2.438927 20.557702 23.413292
664 1 2.407975 22.561726 21.605385
665 1 0.228775 20.182083 25.279054
666 1 0.249838 21.972605 27.184393
667 1 2.503475 20.230763 27.477918
668 1 2.479807 22.335705 25.434236
669 1 0.074048 20.786305 29.558850
670 1 0.281734 22.649247 31.358797
671 1 2.274801 20.224501 31.740372
672 1 2.331110 22.352958 29.619416
673 1 0.069213 20.510381 33.457078
674 1 0.377731 22.408540 35.512987
675 1 2.028543 20.397253 35.125213
676 1 2.197991 22.181767 33.166969
677 1 0.165310 20.446960 37.774715
678 1 32.641016 22.468535 39.646188
679 1 2.494413 20.285026 39.551929
680 1 2.037650 22.207234 37.497406
681 1 0.049556 20.189422 41.362033
682 1 0.297524 22.531236 43.557824
683 1 1.830872 20.319583 43.159674
684 1 2.381300 22.648194 42.091825
685 1 32.603887 20.126656 45.800356
686 1 32.664605 22.092690 47.666477
687 1 2.024256 20.503620 47.480933
688 1 1.927040 22.322024 45.624444
689 1 0.135138 20.048735 49.473329
690 1 0.034408 21.959134 51.332493
691 1 2.097509 20.517056 51.565071
692 1 2.137117 22.039448 49.520210
693 1 32.599440 20.255724 53.395620
694 1 0.252402 22.302548 55.549844
695 1 2.035411 20.243443 55.571858
696 1 2.005429 22.357442 53.668240
697 1 0.115125 20.317514 57.480672
698 1 0.017071 22.230232 59.786856
699 1 2.257754 20.551044 59.723980
700 1 1.973137 22.534975 57.749355
701 1 32.427350 20.424350 61.403382
702 1 32.223739 22.680539 63.639190
703 1 1.817400 20.689774 63.599534
704 1 1.981424 22.521302 61.637091
705 1 2.358500 18.281385 65.945808
706 1 28.352825 22.232074 67.575294
707 1 2.109559 18.157981 69.306404
708 1 1.981563 22.077020 65.698195
709 1 0.315346 19.888221 70.072144
710 1 30.087121 28.208393 76.593126
711 1 10.232157 18.223529 74.060815
712 1 23.186945 18.388686 73.704021
713 1 31.077110 24.535029 67.480584
714 1 29.834510 15.391712 81.091750
715 1 0.780855 19.397219 77.840610
716 1 26.603381 22.450787 77.572132
717 1 4.426032 12.649080 73.626737
718 1 29.649070 16.652968 76.354968
719 1 25.286772 20.885327 79.254039
720 1 28.666951 30.174981 77.839887
721 1 4.061079 18.810870 96.823028
722 1 13.654673 17.287134 82.327982
723 1 27.561898 7.697194 81.340945
724 1 30.316594 8.055114 88.747704
725 1 32.595900 23.705972 91.148010
726 1 9.603761 27.232708 98.030807
727 1 26.048054 22.343895 92.206590
728 1 0.949772 8.449327 99.867383
729 1 26.974871 18.774155 100.253600
730 1 4.656728 24.264290 86.483010
731 1 27.290205 25.583319 96.061872
732 1 9.378911 13.884841 105.424050
733 1 4.093318 14.027837 94.789114
734 1 3.917165 18.637569 103.527773
735 1 27.629777 18.961032 108.048683
736 1 0.936817 18.086689 100.540681
737 1 1.666769 24.877161 110.055120
738 1 8.097513 22.219137 103.069861
739 1 4.517037 16.735439 101.931762
740 1 2.977183 10.424534 101.119943
741 1 0.941755 29.399868 114.882416
742 1 23.609285 13.051060 110.111904
743 1 6.584266 19.812063 120.029254
744 1 3.989636 26.310760 115.541535
745 1 31.445940 23.708823 117.749421
746 1 4.872268 21.979963 108.397268
747 1 25.628283 27.313407 117.146627
748 1 4.767567 28.384400 109.699688
749 1 2.191314 18.131805 115.047353
750 1 1.579806 18.872171 120.846891
751 1 3.331902 17.164173 117.380287
752 1 28.949534 27.064971 117.634013
753 1 10.861766 19.331861 111.090927
754 1 9.315118 24.873644 115.716219
755 1 5.256750 8.149507 120.836467
756 1 8.966352 22.797380 113.786052
757 1 27.609891 17.791151 116.589212
758 1 31.883630 11.346573 118.781225
759 1 30.469232 16.167801 130.675650
760 1 3.046765 19.589065 122.870121
761 1 2.111369 25.962580 128.316251
762 1 6.714956 18.336505 131.676849
763 1 30.896402 20.476029 134.738197
764 1 6.434068 26.804855 128.342945
765 1 17.336319 15.910280 128.460686
766 1 4.179368 22.253102 134.231322
767 1 32.740735 18.274145 130.083756
768 1 8.015856 27.924386 123.567145
769 1 32.204843 24.224385 1.548058
770 1 0.006724 26.184360 3.347601
771 1 2.167577 24.747180 3.441217
772 1 2.197232 26.488733 1.503630
773 1 0.334370 24.443901 5.645682
774 1 0.179260 26.637030 7.265945
775 1 2.202518 24.827216 7.385283
776 1 2.348327 26.785366 5.354529
777 1 32.635094 24.595614 9.247470
778 1 32.431302 26.350129 11.264484
779 1 1.994977 24.625661 11.250411
780 1 2.196499 26.650776 9.207209
781 1 32.522008 24.670373 13.843702
782 1 32.318159 26.518961 15.733567
783 1 1.913909 24.544491 15.473321
784 1 1.684802 26.515592 13.839409
785 1 32.689750 24.584494 17.472559
786 1 0.050700 26.537857 19.322599
787 1 1.976861 24.381097 19.629867
788 1 2.518697 26.501236 17.487179
789 1 0.110127 24.309135 21.568425
790 1 0.208743 26.376336 23.674720
791 1 2.148573 24.565267 23.753749
792 1 2.133688 26.780491 21.466986
793 1 32.723646 24.168975 25.444167
794 1 0.310446 26.407682 27.398279
795 1 2.144847 24.294348 27.553653
796 1 2.566531 26.438271 25.753161
797 1 0.138883 24.542843 29.536352
798 1 0.386647 26.239082 31.685214
799 1 2.334960 24.375452 31.895073
800 1 2.136674 26.460790 29.678746
801 1 0.333419 24.445805 33.731835
802 1 0.088110 26.620390 35.497688
803 1 2.104967 24.720146 35.761077
804 1 2.384648 26.325656 33.657030
805 1 32.560685 24.652820 37.946880
806 1 0.267355 26.479364 39.645970
807 1 2.230000 24.258357 39.675714
808 1 2.023285 26.181115 37.766753
809 1 0.026772 24.450460 41.656762
810 1 0.196258 26.229367 43.555524
811 1 2.043772 24.270694 43.752975
812 1 2.152933 26.297175 41.654373
813 1 0.106051 24.471080 45.794172
814 1 0.086181 26.339562 47.389818
815 1 2.119274 24.186469 47.978766
816 1 2.573960 26.601765 45.767510
817 1 32.513132 24.245790 49.790675
818 1 32.587597 26.071648 51.795265
819 1 1.917580 24.437872 51.978703
820 1 1.625160 26.391638 49.557389
821 1 32.563019 24.275837 53.982350
822 1 32.587959 26.403595 55.720117
823 1 1.972722 24.485839 55.748787
824 1 1.650227 26.590020 53.914182
825 1 0.008703 24.234824 57.725706
826 1 0.018095 26.651543 59.800243
827 1 1.664658 24.410922 59.731039
828 1 1.727641 26.753571 57.618972
829 1 0.051828 24.615982 61.580325
830 1 32.354351 26.457853 63.481196
831 1 1.852454 24.534789 63.993164
832 1 2.086307 26.638083 61.897837
833 1 32.551340 20.473491 65.844876
834 1 1.983620 23.999608 74.055465
835 1 0.166021 22.132806 67.855053
836 1 1.830951 26.545616 65.717912
837 1 9.806029 22.544565 69.397865
838 1 27.425698 23.276552 82.897668
839 1 1.836438 32.519555 75.987286
840 1 0.274426 23.662830 81.630924
841 1 25.036950 20.483290 73.759678
842 1 5.545037 31.329317 80.209519
843 1 3.631090 30.160178 76.739707
844 1 26.757290 31.097586 81.687245
845 1 6.940960 18.605107 82.155994
846 1 3.952203 24.643976 77.822089
847 1 30.486125 17.497663 82.957582
848 1 24.335120 27.043596 80.334571
849 1 29.346829 20.383513 94.183577
850 1 27.025968 25.587825 87.803435
851 1 21.359966 16.273596 87.015980
852 1 30.910347 30.717464 79.016551
853 1 5.776691 16.786777 95.743111
854 1 30.801355 27.631419 83.769851
855 1 2.368854 25.126615 95.389302
856 1 28.707652 18.664840 91.240636
857 1 31.831351 21.092137 90.831701
858 1 2.879722 3.023901 97.703015
859 1 32.665796 29.538008 93.182336
860 1 6.403090 22.001008 93.782772
861 1 26.677414 25.077688 78.250298
862 1 1.494451 30.660878 89.106009
863 1 0.543265 30.801829 96.197179
864 1 7.891159 31.787332 92.764550
865 1 0.523123 23.025780 98.037056
866 1 27.058016 31.649766 106.206516
867 1 2.404907 3.492737 94.886991
868 1 13.777384 30.238010 103.719415
869 1 30.630943 22.138064 107.223153
870 1 30.528294 0.111822 107.974489
871 1 6.484773 27.810073 105.402744
872 1 7.084538 25.066808 102.418763
873 1 27.881873 31.813013 114.234644
874 1 5.723624 31.284979 114.373635
875 1 30.244140 0.457776 116.005257
876 1 5.144269 22.614244 105.481315
877 1 3.862705 26.410641 118.554900
878 1 4.448554 26.355745 126.449921
879 1 26.822944 30.911004 119.414766
880 1 0.248263 24.191877 124.233987
881 1 2.212893 26.180329 123.639473
882 1 4.250829 22.169859 115.408084
883 1 4.841468 28.808055 124.409215
884 1 23.659053 9.402605 112.041555
885 1 31.374303 23.575851 120.126215
886 1 1.993273 30.353076 132.619082
887 1 13.564237 18.405517 122.533162
888 1 28.035107 24.615396 124.399294
889 1 3.769403 20.197470 128.239458
890 1 32.509073 24.342256 128.515203
891 1 4.139042 28.709784 132.566503
892 1 9.346331 19.457900 121.019664
893 1 32.704076 20.347682 132.460729
894 1 0.148966 22.489362 134.576218
895 1 4.536831 20.414580 131.787147
896 1 2.116676 22.566542 132.465796
897 1 0.409708 28.386679 1.678121
898 1 0.124735 30.930871 3.505160
899 1 2.194169 28.589424 3.522664
900 1 2.321900 30.391680 1.786155
901 1 0.100023 28.564366 5.396327
902 1 0.026580 30.486633 7.927512
903 1 2.527512 28.491374 7.292582
904 1 2.017986 30.333067 5.453358
905 1 0.101386 28.592347 9.806348
906 1 0.059898 30.694762 11.838747
907 1 1.834375 28.373064 11.516814
908 1 2.346832 30.944143 9.534812
909 1 32.639183 28.390781 13.465583
910 1 0.453730 30.726643 15.395048
911 1 2.298858 28.799143 15.524342
912 1 2.324772 30.901721 13.454248
913 1 0.391629 28.340622 17.286336
914 1 0.283553 30.714559 19.028839
915 1 2.106581 28.317147 19.335522
916 1 2.483427 30.681742 17.563707
917 1 0.216938 28.483933 21.204941
918 1 0.353192 30.757842 23.476733
919 1 2.366288 28.504849 23.738621
920 1 2.203308 30.257440 21.446378
921 1 0.131359 28.571059 25.243729
922 1 0.155685 30.557522 27.144952
923 1 2.387140 28.748691 27.582784
924 1 2.275845 30.606650 25.619685
925 1 0.425516 28.419349 29.302432
926 1 0.190999 30.727717 31.684529
927 1 2.468687 28.672380 31.508501
928 1 2.234391 30.753347 29.504586
929 1 0.011516 28.345611 33.281278
930 1 32.665937 30.307769 35.563351
931 1 1.957809 28.577408 35.537756
932 1 1.958070 30.665993 33.364289
933 1 32.739079 28.669377 37.837650
934 1 0.322901 30.444788 39.830814
935 1 2.309819 28.617601 39.188447
936 1 1.876843 30.601568 37.279455
937 1 0.185872 28.525728 41.515347
938 1 0.510726 30.587533 43.446521
939 1 2.144422 28.339561 43.544182
940 1 2.375481 30.642953 41.312509
941 1 0.307267 28.235449 45.362043
942 1 0.086064 30.348186 47.887617
943 1 2.054417 28.434226 47.934151
944 1 2.210279 30.324658 45.409074
945 1 32.474794 28.282330 49.803745
946 1 32.635796 30.513980 51.653334
947 1 1.517105 28.223715 51.852015
948 1 1.935936 30.705612 50.030243
949 1 32.277082 28.212808 53.797681
950 1 32.600362 30.632932 55.449705
951 1 1.716548 29.012598 55.431852
952 1 2.083987 30.605456 53.356264
953 1 0.017503 28.703215 57.342098
954 1 32.699957 30.744298 59.952089
955 1 2.096207 28.455263 59.750743
956 1 1.696130 30.767536 57.733140
957 1 32.725380 28.468325 61.851376
958 1 32.652351 30.202445 64.026281
959 1 1.954864 28.286839 63.909992
960 1 2.015806 30.814292 61.947693
961 1 30.443964 26.470399 65.598030
962 1 0.071361 24.501439 69.494060
963 1 31.593298 21.422456 76.514751
964 1 1.813561 30.675421 65.910544
965 1 5.938714 30.978020 69.893091
966 1 21.635943 31.149960 85.666464
967 1 28.906918 1.946584 71.571529
968 1 24.693216 30.515888 71.675327
969 1 1.394614 28.383586 82.800629
970 1 3.026625 27.351702 77.220694
971 1 1.786401 1.855882 73.623846
972 1 25.017813 11.955609 79.204698
973 1 24.719286 23.482878 93.832772
974 1 5.987945 26.005261 83.769854
975 1 5.177958 21.120589 84.095082
976 1 27.694719 9.374705 88.041832
977 1 29.899677 24.612684 83.824404
978 1 31.643646 19.137767 84.797623
979 1 25.633685 22.183764 84.470588
980 1 8.717828 26.534215 84.515284
981 1 27.560642 21.708978 97.839050
982 1 27.856390 0.866705 89.735124
983 1 5.698518 30.456979 88.286120
984 1 6.304354 1.620009 91.396443
985 1 28.291448 30.951574 88.743794
986 1 32.037742 23.363326 88.532651
987 1 3.713201 2.589441 90.015840
988 1 26.905161 2.987623 84.516861
989 1 32.455196 29.180890 108.044378
990 1 32.400223 28.967819 100.835744
991 1 3.735855 25.230164 88.727431
992 1 28.662342 28.871414 95.804230
993 1 26.799525 32.524624 116.644583
994 1 29.763797 30.020937 102.225010
995 1 11.736685 32.390544 109.261306
996 1 2.085805 31.793729 93.634964
997 1 1.720301 30.596597 101.355049
998 1 31.198371 8.489286 113.526521
999 1 7.307376 8.902079 110.815072
1000 1 0.975187 5.950598 106.895551
1001 1 25.678931 26.307084 109.820302
1002 1 6.942878 32.208130 112.223453
1003 1 26.992841 8.467906 118.003831
1004 1 30.011178 2.202509 111.211114
1005 1 27.006640 27.737942 119.744587
1006 1 32.477930 14.952397 118.839553
1007 1 5.860004 3.201770 104.537258
1008 1 8.071559 27.586437 115.383931
1009 1 31.569620 4.079388 122.085946
1010 1 3.921166 21.486244 112.416308
1011 1 0.742722 16.573335 121.949470
1012 1 0.621769 32.647836 119.484497
1013 1 0.585462 3.287583 114.941849
1014 1 2.112729 22.699110 127.956765
1015 1 4.088654 28.083281 128.138801
1016 1 8.774860 1.139641 120.717678
1017 1 30.844294 26.493386 124.021252
1018 1 2.021824 26.391465 132.500312
1019 1 29.362091 2.219880 117.814519
1020 1 32.595867 30.462551 126.123311
1021 1 30.698073 1.791221 132.360020
1022 1 30.638897 32.606169 134.269122
1023 1 2.182643 20.659690 134.574905
1024 1 4.237339 30.504715 134.714251
1025 1 4.286488 32.641447 1.500872
1026 1 3.919903 2.008354 3.151275
1027 1 6.325681 0.493689 3.440959
1028 1 6.115057 2.191576 1.244644
1029 1 4.154045 0.107190 5.396026
1030 1 3.942244 2.262784 7.123801
1031 1 6.111152 0.323313 7.473894
1032 1 5.994627 2.340726 5.489722
1033 1 4.115757 0.129184 9.645807
1034 1 4.382970 2.393647 11.286062
1035 1 6.660760 0.101214 11.620015
1036 1 6.535952 2.320178 9.585819
1037 1 4.361311 0.065530 13.392537
1038 1 4.134733 1.902961 15.479124
1039 1 6.410122 32.642609 15.341498
1040 1 6.274035 1.909999 13.508551
1041 1 4.240301 32.623685 17.392528
1042 1 4.411434 1.829837 19.633858
1043 1 6.656397 0.035722 19.671336
1044 1 6.411096 1.784227 17.347907
1045 1 4.430065 32.490311 21.562579
1046 1 4.366862 2.045202 23.409394
1047 1 6.063011 0.094218 23.624904
1048 1 6.396569 2.021165 21.542267
1049 1 4.226362 0.383540 25.597679
1050 1 4.233960 2.278972 27.522009
1051 1 6.476891 0.226676 27.648732
1052 1 6.527951 2.094329 25.991053
1053 1 4.240334 0.212063 29.323858
1054 1 4.394680 2.009568 31.405987
1055 1 6.609653 0.225486 31.572304
1056 1 6.214811 2.742970 29.530383
1057 1 4.014139 32.501546 33.527144
1058 1 3.969148 2.134178 35.222464
1059 1 5.960384 0.110040 35.539400
1060 1 6.182671 1.906806 33.633659
1061 1 3.718578 32.501818 37.403409
1062 1 3.929608 1.696035 39.321105
1063 1 5.985497 32.461031 39.397823
1064 1 6.172071 1.896468 37.682230
1065 1 4.275218 32.513743 41.615801
1066 1 3.894654 1.755620 43.711439
1067 1 6.038856 32.609669 43.817663
1068 1 6.150977 2.086137 41.257948
1069 1 4.430262 31.903042 46.044508
1070 1 4.213592 2.058485 47.258237
1071 1 6.722110 32.533783 47.675301
1072 1 6.315630 1.877904 45.492049
1073 1 4.083805 0.065540 49.129539
1074 1 4.321738 2.306961 52.052617
1075 1 6.126934 0.269414 51.688180
1076 1 6.288334 2.025596 49.285076
1077 1 4.157455 0.139498 53.639321
1078 1 4.030151 1.848494 55.862124
1079 1 6.210316 0.023922 55.603978
1080 1 6.026014 2.095512 53.901008
1081 1 3.941921 0.083364 57.636815
1082 1 3.890830 2.243410 59.753917
1083 1 5.923666 0.227777 60.100127
1084 1 6.309732 2.025935 57.575784
1085 1 3.710087 32.638267 61.878098
1086 1 3.992795 1.935999 63.870802
1087 1 6.018474 32.447622 63.841921
1088 1 5.864360 1.888755 62.007337
1089 1 32.663094 2.243969 67.911476
1090 1 0.385093 31.021929 68.297370
1091 1 5.880109 2.300957 65.934573
1092 1 5.666648 0.569296 68.344844
1093 1 4.345527 4.328918 74.584064
1094 1 30.165243 2.486814 73.726046
1095 1 1.681777 0.421232 67.742575
1096 1 3.802458 31.281087 68.077570
1097 1 30.041277 30.183074 74.789799
1098 1 7.849482 31.280812 77.807858
1099 1 6.083645 6.403007 74.186405
1100 1 5.886289 8.372794 72.296369
1101 1 30.852828 2.149450 69.865621
1102 1 29.041550 7.829786 85.795569
1103 1 3.540424 29.296106 79.072823
1104 1 2.430607 1.725750 83.475677
1105 1 32.722868 6.215297 72.124746
1106 1 9.589909 0.625183 91.659632
1107 1 12.080341 0.989030 89.084815
1108 1 5.714677 6.084775 94.144965
1109 1 10.741802 29.148486 89.624331
1110 1 3.623740 30.532992 91.857431
1111 1 30.132105 5.745364 84.821477
1112 1 29.707270 2.965262 86.373081
1113 1 32.521527 0.314002 88.256529
1114 1 1.866771 0.450337 95.801537
1115 1 0.598403 6.097668 95.170855
1116 1 6.761753 3.676389 94.713521
1117 1 28.537974 2.269997 98.383994
1118 1 30.640562 1.451918 99.800193
1119 1 8.586513 8.941341 100.973420
1120 1 31.026342 4.131891 97.925353
1121 1 31.876247 31.223879 103.082975
1122 1 0.663724 1.819947 110.129003
1123 1 8.067578 0.640006 97.451280
1124 1 7.504793 7.602161 108.028593
1125 1 2.215087 6.394951 100.904499
1126 1 29.271919 5.288845 116.675451
1127 1 31.093681 5.357636 105.787613
1128 1 10.723690 21.176256 103.627432
1129 1 1.606286 31.162674 117.396598
1130 1 5.296245 5.282220 115.989308
1131 1 8.997655 31.764118 110.714085
1132 1 31.653380 6.467134 119.201125
1133 1 25.936452 7.496016 107.891803
1134 1 6.486179 10.187275 107.758718
1135 1 24.741461 8.058675 116.908629
1136 1 25.461723 25.652039 119.158255
1137 1 0.198773 29.981666 111.271644
1138 1 0.478182 8.623095 117.982254
1139 1 31.075264 6.079338 123.838101
1140 1 13.757664 16.661420 124.582490
1141 1 6.526551 9.811133 123.835421
1142 1 2.274619 28.125431 130.229327
1143 1 4.786736 5.766549 126.233560
1144 1 28.767685 12.816702 116.782771
1145 1 6.049372 28.504841 130.548947
1146 1 8.008568 4.011046 132.544840
1147 1 2.303449 32.579455 134.611871
1148 1 8.904194 25.775819 130.108153
1149 1 32.619433 29.815290 130.402900
1150 1 6.183155 4.386995 134.241001
1151 1 6.143197 32.479639 134.266281
1152 1 0.118813 32.022466 132.625745
1153 1 4.372126 4.304995 1.354165
1154 1 4.415803 6.059287 3.461649
1155 1 6.426694 4.000430 3.429485
1156 1 6.216960 6.075167 1.622235
1157 1 4.184695 4.341881 5.400196
1158 1 4.102927 6.389754 7.109185
1159 1 6.084072 4.230881 7.324529
1160 1 6.932531 6.004160 5.177745
1161 1 4.146570 4.136196 9.071335
1162 1 4.583876 6.108198 11.320513
1163 1 6.426643 4.204228 11.362940
1164 1 6.493074 6.320309 9.445692
1165 1 4.117427 4.578886 13.472291
1166 1 4.113867 6.060192 15.454214
1167 1 6.091892 4.024584 15.237718
1168 1 6.403501 6.116849 13.408133
1169 1 4.237172 4.201834 17.396530
1170 1 4.724276 6.195725 19.343855
1171 1 6.234055 3.966842 19.238911
1172 1 6.398743 6.037115 17.327900
1173 1 4.531828 4.142442 21.509877
1174 1 4.349605 6.198402 23.440387
1175 1 6.554666 4.251521 23.669339
1176 1 6.275829 6.239182 21.571325
1177 1 4.464252 4.112331 25.309929
1178 1 4.332643 6.151119 27.438042
1179 1 6.513275 4.199320 27.439821
1180 1 6.315187 6.041733 25.342009
1181 1 3.953684 4.230679 29.422062
1182 1 4.087076 6.243652 31.618721
1183 1 6.258091 4.373921 31.438258
1184 1 6.179782 6.167518 29.596965
1185 1 4.527052 4.039215 33.634536
1186 1 4.415267 5.790363 35.333861
1187 1 6.314928 3.732957 35.791294
1188 1 6.271828 6.295002 33.402558
1189 1 4.173136 3.976652 37.338636
1190 1 4.152112 5.704636 39.476656
1191 1 6.212589 4.268317 39.756159
1192 1 6.457880 5.908041 37.497270
1193 1 4.028508 3.696716 41.546354
1194 1 3.992291 5.628496 43.512324
1195 1 6.043022 3.750670 43.431431
1196 1 5.473727 6.194262 41.524233
1197 1 4.254211 3.950683 45.553548
1198 1 4.058030 5.935939 47.507036
1199 1 6.225929 4.199103 47.393792
1200 1 6.136036 6.073244 45.491186
1201 1 4.362361 3.795220 49.621982
1202 1 4.361571 5.406430 51.994522
1203 1 6.642742 3.865856 51.643510
1204 1 6.270325 5.906275 49.715175
1205 1 3.887872 4.043416 54.033221
1206 1 4.122322 6.110710 56.045071
1207 1 6.049261 4.091214 56.019536
1208 1 5.997166 6.050747 54.022073
1209 1 4.004233 4.152244 57.631375
1210 1 4.009907 6.481111 59.537875
1211 1 5.749430 4.138356 59.735240
1212 1 6.468890 6.074409 57.664948
1213 1 4.161663 3.825122 61.984855
1214 1 4.018971 5.731730 64.056647
1215 1 6.198233 4.172198 63.762929
1216 1 5.831264 6.330337 61.770201
1217 1 4.126821 4.181264 66.027750
1218 1 3.712941 8.376300 70.357504
1219 1 30.858662 10.288237 69.846827
1220 1 5.896506 7.957324 68.112802
1221 1 1.923579 30.955917 70.518415
1222 1 28.262204 4.269730 69.878892
1223 1 5.874921 0.120952 72.202153
1224 1 8.352988 12.173119 74.191253
1225 1 3.803267 29.887980 82.053954
1226 1 32.448330 6.772972 75.416956
1227 1 3.962585 1.843188 76.222804
1228 1 28.612094 8.512417 78.794477
1229 1 30.543197 2.789214 83.775503
1230 1 7.260590 7.224703 87.071284
1231 1 4.892163 1.535864 79.893949
1232 1 29.145901 5.224742 82.216060
1233 1 1.951135 0.686249 80.709887
1234 1 5.870239 10.226455 83.470024
1235 1 11.896013 0.681602 86.253120
1236 1 31.793566 11.614790 82.362780
1237 1 11.161213 12.509466 82.028700
1238 1 4.667113 13.488846 92.255465
1239 1 5.861605 10.071010 100.333784
1240 1 8.864622 1.136125 78.364188
1241 1 27.485861 31.558470 91.857945
1242 1 6.885948 5.158643 91.112643
1243 1 27.429427 10.142563 92.622287
1244 1 6.392198 31.309945 85.703404
1245 1 30.379450 31.555080 99.752345
1246 1 31.859102 4.245990 90.980600
1247 1 29.298298 9.058684 98.985521
1248 1 4.257548 0.182903 96.925615
1249 1 3.641351 8.437965 103.418272
1250 1 23.031793 9.375712 107.288585
1251 1 12.910743 6.901773 99.675313
1252 1 4.744307 9.132608 96.016934
1253 1 30.442543 3.525113 103.908573
1254 1 14.036203 0.834171 113.541671
1255 1 4.014788 32.209520 116.443947
1256 1 0.499286 6.016889 114.206411
1257 1 5.973966 0.918871 119.680250
1258 1 6.716750 1.413279 113.808215
1259 1 8.936321 1.911826 115.389451
1260 1 5.710642 28.304782 114.212549
1261 1 2.051045 11.990036 114.258095
1262 1 13.836479 18.737268 113.045557
1263 1 8.713879 32.289565 118.053050
1264 1 10.254549 12.588067 119.112852
1265 1 3.659510 4.513350 120.702684
1266 1 5.382404 26.098628 123.993119
1267 1 7.714575 9.758964 121.386411
1268 1 12.839248 12.259669 120.676413
1269 1 30.814511 32.558309 126.698661
1270 1 1.887790 1.213606 128.043014
1271 1 8.789699 11.782577 123.606068
1272 1 29.215701 29.920517 126.167901
1273 1 7.046583 1.159043 123.309524
1274 1 6.281085 0.203444 130.251096
1275 1 12.872136 6.231154 121.746936
1276 1 0.086242 6.791598 121.858869
1277 1 4.038029 1.864656 129.810055
1278 1 4.310098 6.225917 134.753511
1279 1 6.137059 3.845633 129.871354
1280 1 6.386430 30.589034 132.297807
1281 1 4.308255 8.317660 1.403616
1282 1 4.434423 10.768508 3.265120
1283 1 6.224313 8.369657 3.491178
1284 1 6.037991 10.733318 1.108466
1285 1 4.476250 8.583179 5.550033
1286 1 3.846383 10.503894 7.658383
1287 1 6.761533 8.105205 7.113104
1288 1 6.199770 10.537399 5.623848
1289 1 4.343014 8.506963 9.421777
1290 1 4.350757 10.059691 11.611692
1291 1 6.312715 8.259307 11.460668
1292 1 6.195737 10.261362 9.206258
1293 1 4.227795 8.068838 13.521698
1294 1 4.123954 10.155770 14.993466
1295 1 6.205640 7.801422 15.214186
1296 1 6.221523 10.283047 13.436022
1297 1 4.477643 8.301486 17.242329
1298 1 4.450004 10.166130 19.189961
1299 1 6.596733 8.217070 19.148827
1300 1 6.199852 10.105259 17.129395
1301 1 4.233365 8.257737 21.295068
1302 1 4.228716 10.089202 23.469377
1303 1 6.342435 8.126047 23.629585
1304 1 6.310874 10.212045 21.530030
1305 1 4.569805 8.184655 25.622335
1306 1 4.315423 10.074390 27.638680
1307 1 6.241677 7.824729 27.642402
1308 1 6.719767 10.347399 25.536311
1309 1 4.125243 8.340760 29.802572
1310 1 3.929198 10.187657 31.631211
1311 1 6.113344 8.080805 31.517625
1312 1 6.232763 10.059916 29.415631
1313 1 4.565392 8.133068 33.493608
1314 1 4.573607 10.305532 35.898694
1315 1 6.617520 8.205539 35.659797
1316 1 6.236062 10.446950 33.579830
1317 1 3.976623 7.926675 37.279505
1318 1 3.845906 10.519906 39.212363
1319 1 5.663234 7.668919 39.271967
1320 1 6.131804 9.952239 37.810981
1321 1 3.633943 8.223385 41.393041
1322 1 3.832648 10.310367 43.051322
1323 1 5.776591 7.953240 43.629216
1324 1 5.880600 9.666013 40.953441
1325 1 4.030335 7.865278 45.645230
1326 1 4.326450 9.688874 47.579165
1327 1 6.301582 7.728390 47.805411
1328 1 6.153873 9.622409 45.431722
1329 1 4.272162 7.635411 49.828513
1330 1 4.145850 9.784754 51.421208
1331 1 6.281544 7.846202 51.716144
1332 1 6.151440 9.687014 49.736996
1333 1 3.506827 7.593686 54.040091
1334 1 3.942765 10.114600 55.688888
1335 1 6.078406 8.345402 55.654870
1336 1 6.323572 9.783959 53.306309
1337 1 3.943693 8.303562 57.617058
1338 1 3.992057 10.189034 60.032541
1339 1 6.020099 8.054426 59.509060
1340 1 6.138174 10.167377 57.381559
1341 1 4.089520 8.081049 61.877133
1342 1 4.382971 9.925409 63.949790
1343 1 5.990419 7.870725 63.964421
1344 1 6.071434 9.876249 61.950706
1345 1 1.852594 8.148722 68.285552
1346 1 9.952616 12.388991 67.719470
1347 1 12.145684 10.449061 67.632200
1348 1 6.395795 10.193814 65.923206
1349 1 8.108874 8.562511 69.615531
1350 1 4.105710 8.568282 74.038858
1351 1 8.017904 12.642846 69.779207
1352 1 1.905287 6.119360 70.260374
1353 1 31.957570 8.019752 78.547989
1354 1 32.365804 12.805744 73.885134
1355 1 4.340383 12.791269 69.829163
1356 1 2.403050 16.659747 71.851125
1357 1 2.118438 10.481973 70.243085
1358 1 30.405111 10.385721 77.560117
1359 1 5.498068 10.583138 87.215756
1360 1 25.370987 8.661998 94.344104
1361 1 26.751548 7.000559 89.167071
1362 1 32.296212 10.692522 89.398462
1363 1 3.679998 7.365662 88.222554
1364 1 11.145441 15.012241 88.894617
1365 1 6.148787 2.316405 88.788923
1366 1 6.380011 20.322872 89.245072
1367 1 2.345514 12.692961 93.014711
1368 1 5.410975 8.424721 85.718347
1369 1 9.494620 16.351048 86.100619
1370 1 14.040710 20.600218 91.574779
1371 1 31.808268 5.802079 88.675365
1372 1 11.185743 2.428231 91.078485
1373 1 6.599412 4.642338 87.387518
1374 1 0.616527 5.637728 92.581753
1375 1 4.576882 14.105146 102.745919
1376 1 7.888982 9.415321 85.668595
1377 1 9.029067 8.028859 103.465324
1378 1 25.541851 32.659812 108.888147
1379 1 1.434778 13.852830 95.632651
1380 1 4.972050 12.539841 99.063165
1381 1 6.635634 12.172477 101.947558
1382 1 6.000643 13.326261 113.517714
1383 1 9.738342 10.667832 107.066389
1384 1 2.704967 16.302773 96.236351
1385 1 10.143828 10.957868 102.445528
1386 1 0.384019 9.174601 107.371145
1387 1 5.346243 16.308332 112.589037
1388 1 25.781872 1.062245 113.376873
1389 1 5.058832 16.592255 115.260023
1390 1 9.091951 8.462308 118.709436
1391 1 6.776888 13.653387 123.536583
1392 1 9.818107 8.848654 114.611178
1393 1 31.559631 15.626439 110.049758
1394 1 25.751402 13.907979 122.539561
1395 1 2.173205 0.230377 123.463202
1396 1 7.316359 31.634023 121.823273
1397 1 30.910979 3.878175 126.518521
1398 1 8.211666 2.180152 130.053610
1399 1 4.244085 4.643599 123.719864
1400 1 32.599188 8.370331 125.012767
1401 1 28.526158 7.608629 123.796063
1402 1 6.017735 10.339998 132.132051
1403 1 3.951984 8.307207 132.105651
1404 1 24.490378 7.910804 128.486446
1405 1 2.299040 6.233366 132.600668
1406 1 4.050250 10.376648 134.144625
1407 1 6.151295 8.327672 134.644249
1408 1 0.333384 10.091284 130.639214
1409 1 4.220592 12.615999 1.080083
1410 1 3.789813 14.859686 2.574578
1411 1 5.787971 13.118949 3.605285
1412 1 6.435073 14.185887 1.156839
1413 1 3.995843 12.530478 5.490502
1414 1 3.701272 14.292378 7.830176
1415 1 5.786086 12.254454 7.465844
1416 1 5.796999 14.433919 6.235022
1417 1 3.949286 12.386349 9.592226
1418 1 4.052517 14.179084 11.635050
1419 1 6.035819 12.358642 11.358520
1420 1 6.114373 14.381246 9.269489
1421 1 4.230552 12.475362 13.755519
1422 1 3.995613 14.349309 15.573609
1423 1 6.280954 12.226070 15.417239
1424 1 6.361153 14.255913 13.525155
1425 1 4.110865 12.327018 17.500407
1426 1 4.081343 13.993936 19.586421
1427 1 6.182315 12.213885 19.510114
1428 1 6.261593 13.872217 17.424136
1429 1 4.150989 11.924994 21.381499
1430 1 4.094055 14.395860 23.701371
1431 1 6.026799 12.260501 23.532354
1432 1 5.981009 14.076879 21.718653
1433 1 4.298409 11.752254 25.606586
1434 1 4.105157 14.128701 27.376816
1435 1 6.051637 12.278127 27.604303
1436 1 6.370373 14.546997 25.041301
1437 1 4.083471 12.190350 29.438942
1438 1 3.991019 14.282225 31.393774
1439 1 6.144862 12.162678 31.709266
1440 1 6.109111 14.220146 29.731248
1441 1 4.277163 12.251271 33.943418
1442 1 4.108032 14.324874 35.426023
1443 1 6.451652 12.456144 35.813799
1444 1 6.239297 14.181230 33.486837
1445 1 4.099036 12.373732 37.368822
1446 1 3.842377 14.124228 39.773529
1447 1 6.593394 12.263285 39.389466
1448 1 5.993251 14.207458 37.620893
1449 1 4.278770 12.247927 41.580617
1450 1 4.269583 13.789460 43.647782
1451 1 6.120064 11.929887 43.964326
1452 1 6.290880 14.151275 41.625283
1453 1 4.089116 11.728839 45.791716
1454 1 3.906940 13.993317 47.720793
1455 1 6.116280 11.862082 47.276131
1456 1 6.050396 14.245024 45.622266
1457 1 4.354637 11.608747 49.497692
1458 1 4.071739 13.868057 51.286272
1459 1 6.141227 12.060037 51.467626
1460 1 5.937233 13.778273 49.261262
1461 1 4.174974 11.756835 53.365034
1462 1 3.985788 13.712745 55.498911
1463 1 6.469275 11.985339 55.381582
1464 1 5.672959 13.839872 53.475603
1465 1 4.144736 12.048201 57.764346
1466 1 4.015581 14.081337 59.753897
1467 1 6.478201 11.873434 59.202324
1468 1 5.978023 14.039135 57.548260
1469 1 3.699796 12.092466 62.044255
1470 1 4.253063 14.164585 64.020844
1471 1 6.172753 12.094547 63.582588
1472 1 6.066421 13.705423 61.336132
1473 1 4.034200 11.909681 65.852402
1474 1 4.287701 18.341299 67.745347
1475 1 6.550324 12.501379 67.534057
1476 1 8.023298 12.328033 65.453759
1477 1 10.203150 18.792961 69.927522
1478 1 2.355886 12.175681 68.148459
1479 1 9.569296 10.704578 69.845876
1480 1 4.398120 9.975656 68.130968
1481 1 0.027783 10.633612 72.061253
1482 1 6.675046 16.470130 72.379719
1483 1 5.806152 4.033456 68.505281
1484 1 5.806146 18.719781 69.881615
1485 1 13.135218 13.194010 87.386280
1486 1 2.045682 17.056106 80.371106
1487 1 28.652754 19.822064 84.217926
1488 1 29.295711 14.384676 85.025058
1489 1 26.083157 0.809630 80.737742
1490 1 10.409531 13.455865 86.842233
1491 1 9.859986 11.404897 94.303027
1492 1 1.769734 16.953062 85.023473
1493 1 13.210300 16.322642 89.285557
1494 1 19.978838 17.689361 97.240771
1495 1 4.792537 18.220877 83.917009
1496 1 32.716640 18.307375 82.691270
1497 1 14.228703 7.878858 94.448372
1498 1 3.050122 9.946478 86.278207
1499 1 7.859098 8.652797 83.042283
1500 1 14.700520 16.054739 100.488184
1501 1 2.512857 13.591604 97.970435
1502 1 7.213259 20.224894 91.923092
1503 1 12.233673 18.066710 105.115318
1504 1 9.118029 18.699606 101.751803
1505 1 12.113592 15.251701 93.979522
1506 1 0.284904 22.088116 106.117563
1507 1 6.877498 10.862337 98.146072
1508 1 3.119935 20.473662 94.285875
1509 1 7.902997 16.769464 97.516536
1510 1 8.988208 13.189084 102.659829
1511 1 3.093835 6.315767 108.470604
1512 1 10.220420 7.073639 106.721414
1513 1 0.913575 12.827545 104.249645
1514 1 4.830249 23.754559 103.151878
1515 1 5.193757 7.355968 109.448345
1516 1 1.610166 16.708810 108.269819
1517 1 11.230101 17.412517 120.673334
1518 1 28.870111 9.930774 126.057365
1519 1 12.968684 1.737601 115.717257
1520 1 8.008452 9.533522 116.540033
1521 1 8.464600 19.346858 123.684591
1522 1 8.010608 6.152603 119.588836
1523 1 2.016644 8.275491 129.843438
1524 1 12.698994 20.588904 123.649966
1525 1 2.232070 12.538158 119.667010
1526 1 2.370564 3.917060 130.333473
1527 1 0.315987 14.060336 123.193802
1528 1 6.676867 12.666169 126.100426
1529 1 28.273735 14.692711 121.254790
1530 1 6.131378 24.449769 134.219313
1531 1 1.186425 16.215174 126.478665
1532 1 28.366982 13.964884 129.413856
1533 1 0.441546 3.749017 128.561323
1534 1 4.164390 14.462380 134.177980
1535 1 6.198077 12.578745 134.161901
1536 1 4.519185 16.527600 132.459155
1537 1 4.469417 16.597967 0.657338
1538 1 4.217762 17.944870 2.944631
1539 1 6.582417 16.381981 2.893135
1540 1 6.254523 18.585273 0.901930
1541 1 4.178932 16.394301 5.150418
1542 1 4.161947 18.655918 7.512423
1543 1 6.004572 16.824770 7.184597
1544 1 6.277851 18.167755 4.722494
1545 1 3.789617 16.285375 9.725281
1546 1 3.864658 18.329812 11.477898
1547 1 6.238705 16.370588 11.407902
1548 1 5.960832 18.583461 9.301385
1549 1 4.043292 16.380730 13.382187
1550 1 4.271973 18.501774 15.562643
1551 1 6.276373 16.496034 15.236268
1552 1 6.122582 18.351723 13.060094
1553 1 4.294539 16.476246 17.249478
1554 1 4.148328 18.497321 19.466281
1555 1 6.196452 15.833549 19.802080
1556 1 6.256109 18.364930 17.479171
1557 1 3.957141 16.392065 21.616648
1558 1 4.287028 18.440206 23.587981
1559 1 6.204248 16.553238 23.294139
1560 1 5.736946 18.456553 21.436730
1561 1 3.882517 16.444814 25.326900
1562 1 4.344028 18.296434 27.373524
1563 1 6.093665 16.307612 27.553663
1564 1 6.338878 18.380140 25.676451
1565 1 4.058944 16.501953 29.857568
1566 1 4.247976 18.289577 31.912288
1567 1 6.252988 16.375507 31.349917
1568 1 6.317428 18.846158 29.490618
1569 1 4.521520 16.304360 33.474708
1570 1 4.456341 18.733606 35.260608
1571 1 6.175065 16.373619 35.794817
1572 1 6.445103 18.476116 33.464769
1573 1 4.111261 16.420949 37.287479
1574 1 4.288884 18.372063 39.484773
1575 1 6.232856 16.044655 39.653987
1576 1 6.282402 18.437118 37.410063
1577 1 3.864493 16.284266 41.064093
1578 1 4.113007 18.361340 43.452670
1579 1 5.688760 16.085711 43.228752
1580 1 6.124550 18.303298 41.147277
1581 1 4.073192 16.056681 45.585988
1582 1 3.863346 18.447606 47.704123
1583 1 6.047640 16.265908 47.726442
1584 1 6.197452 17.846973 45.452290
1585 1 4.057465 16.178595 49.376584
1586 1 4.251729 18.257309 51.918625
1587 1 5.896052 16.104334 51.566602
1588 1 6.168779 18.268175 49.579364
1589 1 4.157049 16.350084 53.820314
1590 1 3.866481 18.269733 55.853998
1591 1 6.324909 15.853949 55.347920
1592 1 5.718708 18.409149 54.131497
1593 1 4.135866 15.720277 57.364680
1594 1 3.893164 18.391999 59.750603
1595 1 5.708596 16.013753 59.654701
1596 1 6.153222 18.612252 57.846703
1597 1 3.567416 16.564278 61.596391
1598 1 3.913899 18.091334 63.802448
1599 1 6.145560 15.962199 63.698357
1600 1 5.983613 18.264743 61.789229
1601 1 6.136551 14.117327 65.599338
1602 1 5.811962 23.522658 70.107424
1603 1 6.084157 14.552450 69.789334
1604 1 6.068630 18.364773 65.653259
1605 1 4.608377 18.295266 72.450658
1606 1 4.391605 22.676499 67.956661
1607 1 7.765664 16.074531 77.865745
1608 1 6.039832 21.351416 71.624640
1609 1 27.873256 14.176824 75.845447
1610 1 3.056258 9.161145 83.245837
1611 1 5.729339 15.949170 82.304006
1612 1 10.694135 30.779835 81.766036
1613 1 2.730894 19.650102 79.082392
1614 1 7.851715 16.564882 75.119906
1615 1 2.123996 18.812447 73.701209
1616 1 14.080147 20.591971 71.937071
1617 1 30.254451 12.418728 79.287196
1618 1 2.961773 15.030660 76.320191
1619 1 4.547864 18.259016 75.441294
1620 1 8.737988 24.306797 74.458118
1621 1 6.109849 23.551252 78.849240
1622 1 9.651659 16.452355 92.974769
1623 1 3.975957 17.607271 94.018701
1624 1 31.341251 21.945329 85.888253
1625 1 3.779888 31.260807 99.198841
1626 1 2.903302 14.470471 88.644817
1627 1 11.522383 17.642227 102.648353
1628 1 31.268177 13.492309 88.569522
1629 1 17.300117 19.946114 87.492250
1630 1 30.951754 17.319176 97.056556
1631 1 15.236640 18.002319 104.461263
1632 1 32.577410 24.789346 96.258583
1633 1 4.853125 12.360006 96.490004
1634 1 10.888021 14.164426 111.444625
1635 1 3.059818 13.092578 100.943260
1636 1 22.261578 6.443595 114.961064
1637 1 31.476402 19.348275 107.230284
1638 1 2.841405 15.902140 100.155469
1639 1 6.996702 13.798701 110.640720
1640 1 14.569904 28.035818 108.440948
1641 1 1.652500 11.081240 108.981828
1642 1 10.633818 15.567338 118.916270
1643 1 6.972090 19.240571 112.441244
1644 1 7.851231 22.436805 109.103204
1645 1 10.679881 14.746009 116.501960
1646 1 13.636209 19.893772 115.946478
1647 1 12.465557 21.016091 113.572679
1648 1 8.678361 17.555089 107.688878
1649 1 3.661710 16.983996 121.945080
1650 1 8.587246 24.454959 118.524624
1651 1 11.100797 8.648207 117.215310
1652 1 8.137373 20.592182 127.793545
1653 1 27.080415 12.939714 114.278187
1654 1 6.479039 20.860599 130.064954
1655 1 12.812778 4.351284 124.271415
1656 1 7.543699 21.991052 119.547788
1657 1 2.440125 10.519343 127.931953
1658 1 3.532926 14.762933 126.504488
1659 1 13.835864 18.288840 119.446879
1660 1 10.994102 12.340642 126.082370
1661 1 5.407345 18.896648 125.177757
1662 1 4.334421 18.731444 134.118263
1663 1 6.687619 16.373901 133.933773
1664 1 14.032809 24.864637 129.810126
1665 1 4.048942 20.324476 1.146535
1666 1 4.203255 22.506311 3.385419
1667 1 6.217744 20.281704 3.020947
1668 1 6.211367 22.828963 1.396041
1669 1 4.327294 20.256894 5.235840
1670 1 3.844602 22.193300 7.433897
1671 1 5.929484 20.498626 7.214211
1672 1 6.051515 22.701816 5.438211
1673 1 4.059698 20.388897 9.588405
1674 1 4.357389 22.470609 11.918895
1675 1 6.058275 20.478678 11.289224
1676 1 6.064965 22.391096 9.564537
1677 1 4.079933 20.305918 13.631996
1678 1 4.546649 22.563386 15.421128
1679 1 6.232461 20.608769 15.429585
1680 1 6.365971 22.484283 13.390816
1681 1 4.444753 20.588958 17.637265
1682 1 4.262840 22.425772 19.361799
1683 1 6.431544 20.242721 19.731833
1684 1 6.618703 22.503342 17.962212
1685 1 4.285482 20.585893 21.380039
1686 1 4.406932 22.783077 23.437274
1687 1 6.425346 20.443026 23.515704
1688 1 6.444407 22.346494 21.626344
1689 1 4.395116 20.402910 25.762096
1690 1 4.487944 22.855547 27.840323
1691 1 6.628886 20.157180 27.385883
1692 1 6.423444 21.944048 25.610488
1693 1 4.289782 20.471464 29.667602
1694 1 4.354229 22.685039 31.258426
1695 1 6.581717 20.703731 31.467905
1696 1 6.554817 22.604843 29.544390
1697 1 4.878191 20.711579 33.335077
1698 1 4.063025 22.405350 35.188411
1699 1 6.532482 20.513497 35.541128
1700 1 6.328175 22.811642 33.760079
1701 1 4.215651 20.762518 37.009416
1702 1 4.173723 22.369490 39.601204
1703 1 6.240216 20.454712 39.559013
1704 1 6.124806 22.683357 37.462968
1705 1 4.197308 20.380556 41.503723
1706 1 4.034801 22.026278 43.812276
1707 1 6.199795 19.977536 43.608649
1708 1 6.008142 22.180256 41.899265
1709 1 4.239012 20.109803 45.720069
1710 1 4.334382 22.057623 47.763590
1711 1 6.066041 19.814751 47.662388
1712 1 6.172561 22.078403 45.564179
1713 1 4.117726 20.520455 49.960230
1714 1 3.981770 22.258120 51.771500
1715 1 6.219925 20.027103 51.857097
1716 1 6.404603 22.205591 49.613351
1717 1 3.735365 20.345849 53.780677
1718 1 3.997951 22.599608 55.706236
1719 1 6.004050 20.444139 55.792620
1720 1 5.870924 22.421337 53.692576
1721 1 4.013714 20.463041 57.305687
1722 1 4.102330 22.446922 59.402878
1723 1 5.762410 20.432629 59.802219
1724 1 6.028318 22.535470 57.693919
1725 1 3.861816 20.387906 61.777358
1726 1 3.733472 22.502278 63.547382
1727 1 6.203527 20.275588 63.870650
1728 1 5.766076 22.609002 61.701962
1729 1 2.382172 20.332268 67.827307
1730 1 30.535426 14.548206 69.422261
1731 1 8.233455 18.863616 68.052904
1732 1 5.936594 22.439637 65.597713
1733 1 11.942598 26.824702 72.263742
1734 1 31.212845 26.068123 74.493126
1735 1 8.403287 22.608356 71.713346
1736 1 31.242384 23.030491 74.154930
1737 1 3.993201 20.678325 70.005515
1738 1 31.648683 26.499340 77.529165
1739 1 4.026628 16.223077 73.995586
1740 1 6.308410 24.882987 67.952482
1741 1 2.721526 20.281041 76.107135
1742 1 32.691181 24.823939 75.781951
1743 1 7.074500 21.195726 82.132669
1744 1 6.277811 25.594686 81.028657
1745 1 0.169971 16.291307 73.347296
1746 1 4.137510 21.834601 78.244547
1747 1 4.209862 14.250247 78.654756
1748 1 14.750391 31.239223 70.312476
1749 1 5.834259 27.696614 88.350388
1750 1 10.345373 20.121204 83.126714
1751 1 9.160372 17.872562 83.615609
1752 1 6.085204 20.152205 79.769346
1753 1 28.881211 26.260479 85.769701
1754 1 18.472870 21.047588 94.109251
1755 1 5.156562 18.381061 91.470327
1756 1 15.118438 19.269985 101.953378
1757 1 32.140904 8.626031 95.051066
1758 1 5.548390 15.845906 93.462898
1759 1 6.136609 24.449298 92.590886
1760 1 8.235479 15.571903 94.823445
1761 1 9.925848 5.507328 103.545972
1762 1 31.076917 22.648148 93.423832
1763 1 4.765358 26.135829 103.608244
1764 1 0.826757 23.425531 93.709647
1765 1 27.844383 27.109727 98.265378
1766 1 6.718764 20.197974 104.254707
1767 1 6.644590 7.608182 114.841574
1768 1 12.375218 27.281472 99.177350
1769 1 4.807297 21.241084 121.336877
1770 1 2.982662 28.180944 114.076765
1771 1 6.859663 12.595830 121.073051
1772 1 27.661312 28.742310 116.200866
1773 1 7.304944 24.764637 120.726302
1774 1 32.145835 16.782602 123.881083
1775 1 5.496382 23.444923 122.667180
1776 1 11.544662 24.556284 120.045524
1777 1 29.310408 30.657198 115.963476
1778 1 27.207753 25.470553 121.528332
1779 1 0.306566 10.753510 126.485867
1780 1 8.425888 26.576426 112.932200
1781 1 2.391778 23.639119 122.094008
1782 1 8.858505 28.391890 127.954084
1783 1 10.067367 19.115978 118.581049
1784 1 11.873638 26.205850 122.527605
1785 1 9.968897 21.834291 118.659224
1786 1 12.620971 19.153306 125.557047
1787 1 10.290656 21.422237 122.957845
1788 1 16.014551 15.705472 124.545765
1789 1 6.670042 14.284932 131.989774
1790 1 2.400283 18.402955 132.220243
1791 1 6.219506 20.620283 134.284479
1792 1 8.393987 22.816040 129.783852
1793 1 3.993577 24.156882 1.303898
1794 1 4.391006 26.639917 3.327491
1795 1 6.307726 24.598717 3.350569
1796 1 5.803067 26.310820 0.980254
1797 1 4.355174 24.723005 5.370849
1798 1 4.568563 26.576770 7.314880
1799 1 6.114335 24.438264 7.654856
1800 1 6.328567 26.701405 5.271202
1801 1 4.400043 24.716184 9.565272
1802 1 4.161134 26.743772 11.315875
1803 1 5.965983 24.635160 11.585221
1804 1 6.466305 26.625920 9.492894
1805 1 3.749538 24.682588 13.212172
1806 1 3.997262 26.784476 15.422789
1807 1 6.369461 24.723232 15.323677
1808 1 5.978241 26.476443 13.392045
1809 1 4.279688 24.731754 17.144284
1810 1 4.291752 26.707842 19.605714
1811 1 5.898585 24.788262 19.541270
1812 1 6.105005 26.585354 17.443812
1813 1 3.968863 24.739945 21.580833
1814 1 4.355872 26.754411 23.603948
1815 1 6.502164 24.064798 23.991420
1816 1 5.900608 26.838629 21.661934
1817 1 4.443829 24.577083 25.750260
1818 1 4.386827 26.745898 27.743105
1819 1 6.353628 24.760309 27.504317
1820 1 6.382789 26.714354 25.710101
1821 1 4.399255 24.769551 29.719189
1822 1 4.290651 26.813613 31.833748
1823 1 6.527452 24.784775 31.659403
1824 1 6.149445 26.580995 29.643436
1825 1 4.193963 24.549778 33.548416
1826 1 4.035256 26.540065 35.717322
1827 1 6.445123 24.578331 35.891966
1828 1 6.577255 26.311175 33.903354
1829 1 3.928879 24.222680 37.771574
1830 1 4.451173 26.525979 39.918537
1831 1 6.163456 24.316250 39.652213
1832 1 5.976462 26.495910 37.762186
1833 1 4.173137 24.404311 41.624571
1834 1 4.165922 26.457051 43.695834
1835 1 5.915119 24.494694 43.660972
1836 1 6.339372 26.585001 42.064334
1837 1 4.073114 24.256072 45.903812
1838 1 4.661827 26.264100 47.713575
1839 1 6.309932 24.139093 47.832669
1840 1 6.487851 26.160103 45.677936
1841 1 4.308008 24.164643 49.706206
1842 1 3.855014 26.388506 51.698675
1843 1 6.361939 24.159714 51.673739
1844 1 5.844402 26.379963 50.089013
1845 1 4.181948 24.406686 53.454121
1846 1 3.677420 27.029261 55.754984
1847 1 5.681889 24.535842 55.656401
1848 1 6.201557 26.770821 53.525130
1849 1 4.035592 24.478352 57.389326
1850 1 3.704339 26.202600 59.550000
1851 1 5.993499 24.445805 59.742505
1852 1 5.811091 26.857344 57.711883
1853 1 3.840534 24.685347 61.560523
1854 1 4.069837 26.712768 64.044364
1855 1 5.794407 24.763051 63.706146
1856 1 5.856090 26.638941 61.374955
1857 1 3.933585 24.456335 65.555627
1858 1 8.390851 24.599955 69.928866
1859 1 12.295108 26.767341 68.193781
1860 1 6.016090 26.835683 65.929215
1861 1 1.456377 14.865883 78.413647
1862 1 1.847768 24.797888 71.476413
1863 1 28.915428 22.106599 76.356083
1864 1 10.337417 26.469731 69.926411
1865 1 31.925266 30.844698 73.011978
1866 1 8.246443 29.329525 74.440760
1867 1 6.046555 28.021304 72.654504
1868 1 32.668051 26.535336 72.227734
1869 1 28.628397 21.307280 81.485366
1870 1 27.762887 2.545374 81.729412
1871 1 31.267622 27.516925 86.786576
1872 1 4.199815 25.866372 72.516281
1873 1 11.272730 21.432057 85.755711
1874 1 3.179512 25.298108 81.064331
1875 1 14.770756 13.592102 94.305797
1876 1 1.936140 20.866285 91.653292
1877 1 5.622811 20.231482 86.709380
1878 1 2.040620 22.983780 89.517675
1879 1 3.988439 24.093701 91.452578
1880 1 8.595080 16.323580 88.484560
1881 1 4.124514 21.102375 98.875304
1882 1 31.843085 0.673613 94.996484
1883 1 13.520130 30.896376 98.129697
1884 1 31.357501 30.356711 88.779207
1885 1 3.302698 20.095145 89.175301
1886 1 2.262892 15.439920 93.210078
1887 1 2.253847 20.174384 101.834981
1888 1 0.800207 27.049160 96.956132
1889 1 4.555359 28.700943 98.774533
1890 1 1.727076 29.294179 98.667116
1891 1 5.014527 29.976248 107.446707
1892 1 12.769477 22.507740 99.042664
1893 1 29.518970 29.028560 107.584492
1894 1 32.068908 4.398568 117.427627
1895 1 11.001459 22.518161 111.427074
1896 1 6.523250 24.023571 107.703872
1897 1 8.614006 23.705076 111.666651
1898 1 6.584415 30.664890 109.384118
1899 1 1.996160 21.470331 107.958978
1900 1 9.273005 29.631961 108.735101
1901 1 5.485064 26.736781 111.711133
1902 1 8.609335 19.933781 114.043421
1903 1 6.252529 29.931164 116.471143
1904 1 11.006067 27.171999 118.154392
1905 1 6.403769 21.856320 113.484604
1906 1 29.703080 24.865687 122.114599
1907 1 3.673524 32.606419 119.367511
1908 1 7.615332 28.299493 120.185669
1909 1 12.045077 19.801018 120.988483
1910 1 4.093144 21.991041 126.182645
1911 1 12.951616 20.191606 127.976424
1912 1 7.070058 19.865292 107.602984
1913 1 10.533658 24.390628 128.431294
1914 1 31.050195 24.611083 126.100853
1915 1 9.647883 30.898921 128.159643
1916 1 2.322150 24.431911 130.160326
1917 1 8.349977 26.766116 134.408162
1918 1 4.081889 26.491799 134.253442
1919 1 11.546606 20.815670 131.630457
1920 1 4.139051 24.406505 132.358000
1921 1 4.168521 28.300360 1.435529
1922 1 4.389443 30.794594 3.602347
1923 1 6.229129 28.311110 3.102151
1924 1 6.157876 30.381318 1.358070
1925 1 4.461074 28.820133 5.547715
1926 1 4.273443 30.742648 7.356003
1927 1 6.322165 28.579224 7.606417
1928 1 6.268827 30.790916 5.721476
1929 1 4.252279 28.789124 9.356265
1930 1 4.309019 30.752862 11.435886
1931 1 6.339156 28.459793 11.352616
1932 1 6.491219 30.582758 9.567568
1933 1 4.380508 28.509489 13.312744
1934 1 4.343659 30.432725 15.396169
1935 1 6.417949 28.703216 15.332521
1936 1 6.390861 30.596756 13.314820
1937 1 4.427232 28.632596 17.643872
1938 1 3.829854 30.891364 19.591925
1939 1 6.329906 28.989833 19.460818
1940 1 6.449289 30.925917 17.584042
1941 1 4.280271 28.864190 21.397292
1942 1 4.004738 30.814260 23.636644
1943 1 6.015720 29.004171 23.696185
1944 1 6.458526 30.666186 21.527619
1945 1 4.296811 28.354367 25.748928
1946 1 4.429321 30.735530 27.571765
1947 1 6.523016 28.989852 26.973986
1948 1 6.049209 30.976123 25.424141
1949 1 4.742462 28.963951 29.531333
1950 1 4.332944 31.022310 31.283366
1951 1 6.185498 28.606921 31.885946
1952 1 6.495412 30.970267 29.602376
1953 1 4.212613 28.697317 33.672839
1954 1 4.138324 30.540333 35.564290
1955 1 5.943570 28.377368 35.738332
1956 1 5.936914 30.827257 33.611237
1957 1 4.139081 28.526292 37.255354
1958 1 4.158707 30.679588 39.226227
1959 1 6.079216 28.618623 39.788035
1960 1 5.958955 30.695078 37.450772
1961 1 4.415773 28.649396 42.053753
1962 1 4.251257 30.528142 43.672621
1963 1 6.800306 28.444032 43.900882
1964 1 6.092436 30.707147 41.815128
1965 1 4.612992 28.453329 45.691617
1966 1 3.849849 30.140003 47.644796
1967 1 6.176554 28.531345 47.897547
1968 1 6.487801 30.552908 45.732264
1969 1 3.737745 28.645630 49.898466
1970 1 4.693326 30.919955 51.838318
1971 1 5.839610 28.826384 51.763463
1972 1 5.786507 30.552495 49.413696
1973 1 4.043998 28.658977 53.730901
1974 1 3.736431 30.963753 55.510172
1975 1 5.906058 28.676866 55.334246
1976 1 6.817132 30.771003 53.575266
1977 1 3.739014 28.981451 57.925831
1978 1 3.863230 31.137324 59.962730
1979 1 5.882698 28.925653 59.780161
1980 1 5.925661 30.841206 57.621282
1981 1 3.945590 28.432498 61.813462
1982 1 4.048280 30.383002 64.204616
1983 1 6.239488 28.373897 63.688806
1984 1 5.714249 30.457252 61.873481
1985 1 3.959259 28.538408 66.135612
1986 1 1.934792 28.558147 68.018341
1987 1 3.883403 26.342952 67.789055
1988 1 5.697189 26.541144 70.159155
1989 1 32.658003 26.702126 68.003574
1990 1 1.890482 24.200510 67.515036
1991 1 5.806329 28.855648 68.059566
1992 1 0.065033 22.081933 71.812822
1993 1 3.386160 0.408234 70.910512
1994 1 0.306141 28.571823 77.214199
1995 1 8.211166 26.772637 68.207861
1996 1 12.399136 30.598884 71.502694
1997 1 4.271939 18.121239 81.420457
1998 1 32.710194 0.156509 100.662444
1999 1 3.866078 32.372867 74.276845
2000 1 2.795357 22.269585 82.230062
2001 1 10.660463 25.436486 82.954026
2002 1 3.992320 32.555391 82.342033
2003 1 1.017031 20.230276 81.120452
2004 1 32.624872 26.166809 82.001017
2005 1 26.785251 21.479450 100.690351
2006 1 31.632674 4.369183 81.416353
2007 1 1.482797 3.116559 88.602173
2008 1 2.064091 31.497877 84.391237
2009 1 0.740260 23.428541 86.417585
2010 1 1.890056 25.680608 92.135400
2011 1 28.143598 28.054365 88.225876
2012 1 4.450935 6.694049 91.740397
2013 1 1.268414 28.137359 106.260141
2014 1 17.998338 30.559482 106.583952
2015 1 0.786212 26.625875 99.701200
2016 1 8.867714 29.479802 95.709859
2017 1 32.066900 7.082011 97.595813
2018 1 4.852027 26.267908 93.906985
2019 1 4.616488 25.655450 109.286173
2020 1 11.140941 31.419649 106.727530
2021 1 3.188094 30.315104 96.590412
2022 1 10.838328 29.457921 99.788745
2023 1 13.891431 29.556849 106.255740
2024 1 7.381257 28.657764 110.816897
2025 1 13.406071 31.425994 116.507948
2026 1 14.666574 29.947592 122.114282
2027 1 13.257534 26.939639 120.269583
2028 1 6.580727 31.950799 106.819677
2029 1 8.761298 7.328668 112.687097
2030 1 2.455657 31.794201 110.299448
2031 1 8.111143 0.230546 128.188300
2032 1 13.024935 25.857106 117.400951
2033 1 5.839001 23.939222 117.871423
2034 1 30.705753 26.110560 128.544102
2035 1 10.384384 1.930297 118.598406
2036 1 30.994262 30.832835 124.112488
2037 1 3.400373 28.350431 122.671486
2038 1 2.102960 24.508411 134.413052
2039 1 3.403692 1.684687 125.294255
2040 1 4.941077 2.198492 122.500637
2041 1 9.842427 28.627321 130.271760
2042 1 0.243233 22.428558 130.286880
2043 1 8.245435 2.082492 125.616930
2044 1 8.564408 29.191000 117.820382
2045 1 2.241001 28.551703 134.472814
2046 1 6.421577 28.500651 134.333079
2047 1 6.196352 26.578792 132.544583
2048 1 4.283897 26.436958 130.640409
2049 1 7.695191 32.459306 1.209761
2050 1 8.558276 2.145092 3.662235
2051 1 10.332091 0.229687 3.256140
2052 1 10.034883 2.119888 1.202283
2053 1 8.237934 0.173818 5.457512
2054 1 8.231051 2.096444 7.435668
2055 1 10.295310 0.235515 7.350632
2056 1 10.595002 2.300247 5.438825
2057 1 8.616150 32.648146 9.486276
2058 1 8.311875 1.918471 11.465566
2059 1 10.611570 0.214542 11.358562
2060 1 10.608068 1.976552 9.223122
2061 1 8.771975 0.057389 13.452318
2062 1 8.409592 2.029650 15.434939
2063 1 10.488134 0.059520 15.389767
2064 1 10.732818 2.041516 13.223704
2065 1 8.488294 32.538046 17.718508
2066 1 8.699049 1.913794 19.376584
2067 1 10.600456 32.350506 19.693233
2068 1 10.378864 2.276535 17.675164
2069 1 8.318554 0.180746 21.656902
2070 1 8.338440 1.941425 23.579985
2071 1 10.492634 0.089975 23.480018
2072 1 10.329202 2.310081 21.485632
2073 1 8.156991 0.117463 25.578795
2074 1 8.615646 2.017314 27.777599
2075 1 10.779763 0.039304 27.352664
2076 1 10.726883 2.080104 25.636462
2077 1 8.487639 32.464056 29.804091
2078 1 8.292144 2.221259 31.510374
2079 1 10.535344 0.114526 31.722635
2080 1 10.451895 2.127027 29.812068
2081 1 8.342654 0.050616 33.759536
2082 1 8.537568 2.020385 35.720109
2083 1 10.275066 0.137642 35.965845
2084 1 10.340195 1.913249 33.514990
2085 1 8.117025 32.610847 37.698589
2086 1 7.936465 1.915259 39.560316
2087 1 10.165900 0.239869 39.438198
2088 1 10.451417 2.162025 37.550617
2089 1 8.157780 0.265998 41.677017
2090 1 8.205661 2.317226 43.682733
2091 1 10.215324 0.159493 43.654986
2092 1 10.049574 2.186230 41.481952
2093 1 8.111604 32.560648 45.397666
2094 1 8.498183 2.271369 47.324692
2095 1 10.294327 0.153093 47.486856
2096 1 10.241991 2.240768 45.505932
2097 1 8.379580 0.123964 49.732013
2098 1 8.268071 1.827311 51.687863
2099 1 10.356535 32.606567 51.811137
2100 1 10.604107 1.950236 49.586977
2101 1 8.305115 0.371504 53.719936
2102 1 8.221956 2.013897 55.878987
2103 1 10.159442 32.611831 55.697982
2104 1 10.576565 1.986931 53.608685
2105 1 7.975029 0.049505 57.737969
2106 1 8.041816 2.044950 60.097389
2107 1 10.076332 32.491019 59.998928
2108 1 10.362911 2.408478 57.604001
2109 1 8.015584 32.622540 61.990597
2110 1 8.158824 2.079411 63.405226
2111 1 9.872165 32.355505 64.046163
2112 1 10.122554 1.692967 61.976236
2113 1 7.651300 32.594069 65.898763
2114 1 7.884871 6.253684 68.284581
2115 1 7.494858 2.355170 86.379712
2116 1 8.217460 3.687984 65.543423
2117 1 1.514618 2.020258 70.084602
2118 1 3.723162 2.333535 67.800971
2119 1 12.850845 3.558532 85.695806
2120 1 10.002161 7.224427 78.455403
2121 1 2.216559 2.981716 78.631385
2122 1 8.439597 31.865886 75.111834
2123 1 0.099019 4.211761 83.657529
2124 1 4.148222 28.925563 70.163661
2125 1 11.524148 30.877207 87.462201
2126 1 30.170310 32.436044 90.325955
2127 1 5.315430 0.992383 84.408059
2128 1 12.628338 3.826451 69.626710
2129 1 0.128612 9.223692 83.565259
2130 1 30.660823 31.256080 85.704934
2131 1 31.585864 32.139867 83.499278
2132 1 18.545247 0.207717 81.502914
2133 1 28.234409 32.440491 73.834542
2134 1 32.406516 26.993977 91.076672
2135 1 3.879132 3.374152 87.360784
2136 1 32.073470 29.841139 81.784236
2137 1 7.226766 3.320124 97.745102
2138 1 16.172421 24.390755 82.641322
2139 1 8.696602 22.834155 95.417192
2140 1 1.792019 3.688809 85.580855
2141 1 8.277588 2.084298 99.992521
2142 1 24.916651 5.806924 98.106219
2143 1 6.618437 32.252557 95.353331
2144 1 16.393832 1.671082 104.855116
2145 1 7.291435 22.848175 97.902581
2146 1 10.276445 9.202091 92.190951
2147 1 23.363957 21.540752 104.962638
2148 1 18.346858 30.211041 101.289350
2149 1 15.117047 25.350564 105.911110
2150 1 1.861991 32.020296 104.348961
2151 1 29.759543 30.824196 105.535282
2152 1 15.702215 31.488117 112.109985
2153 1 8.167261 4.733163 116.211552
2154 1 10.781666 30.968959 117.021936
2155 1 14.320991 25.220613 114.834310
2156 1 7.381363 0.962551 109.454614
2157 1 7.082186 28.026286 108.154360
2158 1 20.063746 10.374715 109.093159
2159 1 11.333617 3.065586 114.376293
2160 1 12.658824 8.491818 105.856806
2161 1 19.478684 5.654818 114.750523
2162 1 1.872489 1.462897 117.349947
2163 1 9.259966 0.137954 113.089153
2164 1 14.562637 5.405123 109.736929
2165 1 11.629730 7.266962 112.820145
2166 1 2.180957 5.887355 128.412614
2167 1 6.661783 7.347030 123.728460
2168 1 5.345607 29.662454 121.602639
2169 1 10.282192 26.414895 132.348786
2170 1 9.568572 22.985649 126.330951
2171 1 12.744877 4.918678 128.784167
2172 1 13.405222 2.568103 127.819916
2173 1 8.416025 32.298520 131.956401
2174 1 8.101275 1.696588 134.223082
2175 1 10.352115 30.745155 132.376515
2176 1 12.203273 0.235538 132.028316
2177 1 8.278713 4.040348 1.260487
2178 1 8.712573 5.953679 3.381111
2179 1 10.467496 4.107880 3.522077
2180 1 10.264980 6.024259 0.997438
2181 1 8.538904 3.979321 5.837722
2182 1 8.385713 5.929527 7.629530
2183 1 10.291187 4.212025 7.575818
2184 1 10.421729 6.288174 5.250888
2185 1 8.254185 4.222506 9.406917
2186 1 8.571196 6.296711 11.552233
2187 1 10.357204 4.088028 11.284317
2188 1 10.584941 6.247781 9.565079
2189 1 8.352032 3.969156 13.288145
2190 1 8.424558 5.946395 15.316522
2191 1 10.394491 3.577096 15.459541
2192 1 10.661016 6.081941 13.566768
2193 1 8.229312 3.935805 17.432989
2194 1 8.230865 5.992666 19.190762
2195 1 10.579597 4.425373 19.625605
2196 1 10.488454 6.185619 17.370514
2197 1 7.972371 4.110258 21.461542
2198 1 8.403468 6.204233 23.572577
2199 1 10.493589 4.170055 23.348872
2200 1 10.052914 6.135975 21.754037
2201 1 8.362065 3.911788 25.827639
2202 1 8.624698 5.874614 27.573142
2203 1 10.507618 4.090201 27.548006
2204 1 10.645316 5.966524 25.308713
2205 1 8.660259 4.221533 29.550321
2206 1 8.231413 5.941703 31.499983
2207 1 10.409290 3.937614 31.585635
2208 1 10.322701 6.161602 29.593657
2209 1 8.597549 4.032926 33.784178
2210 1 8.339052 5.818778 35.475358
2211 1 10.315835 3.923413 35.682202
2212 1 10.555560 6.038833 33.628142
2213 1 8.395119 4.024012 38.162507
2214 1 8.144864 6.317127 39.410924
2215 1 10.565796 4.034987 39.849810
2216 1 10.520652 6.067875 37.774291
2217 1 8.365147 4.108066 41.505953
2218 1 8.212206 6.073644 43.604697
2219 1 10.346928 3.983605 43.430943
2220 1 10.156408 6.254104 41.313600
2221 1 8.259607 4.179110 45.487832
2222 1 8.427859 5.838067 47.482750
2223 1 10.543209 4.303048 47.507354
2224 1 10.696763 6.049915 45.317290
2225 1 8.350385 3.871893 49.609967
2226 1 7.989923 5.803420 51.722787
2227 1 10.408051 3.867066 51.518587
2228 1 10.217822 5.870030 49.707982
2229 1 8.124372 3.795950 53.871468
2230 1 8.244511 5.991325 55.443659
2231 1 10.221613 4.083003 55.487218
2232 1 10.202134 5.724047 53.503840
2233 1 8.226412 4.024712 57.857786
2234 1 7.926699 5.906829 59.858717
2235 1 10.154187 3.926339 59.779101
2236 1 10.133483 5.974987 57.628734
2237 1 8.146343 4.321364 61.926895
2238 1 8.133789 6.159291 63.786372
2239 1 10.095774 4.199992 64.079422
2240 1 10.059549 5.767614 61.988317
2241 1 6.264856 5.956103 66.009903
2242 1 5.498811 6.092017 70.063776
2243 1 4.286118 2.243288 72.534549
2244 1 9.909580 6.308955 70.098147
2245 1 10.043618 8.378140 67.618830
2246 1 11.001729 15.305112 75.867224
2247 1 10.010584 6.168106 65.869255
2248 1 12.096816 10.497748 71.702167
2249 1 12.919546 4.462724 80.200135
2250 1 25.270730 9.242334 74.921299
2251 1 11.824229 2.062346 67.857788
2252 1 2.242858 14.146913 73.734883
2253 1 1.475628 32.259071 72.519517
2254 1 22.169302 7.344144 78.929697
2255 1 4.266172 8.528694 78.462700
2256 1 1.317869 5.206270 80.302885
2257 1 1.965124 6.900923 83.141583
2258 1 10.791584 10.694358 78.783895
2259 1 4.595332 22.820599 88.631005
2260 1 16.704468 9.269806 78.441200
2261 1 6.490767 6.565021 78.760635
2262 1 9.536535 6.344873 91.207384
2263 1 4.172386 6.498769 98.574514
2264 1 4.768405 5.229881 89.375820
2265 1 3.767029 5.549766 96.014299
2266 1 11.771679 16.494284 84.012414
2267 1 31.911506 4.641495 86.280642
2268 1 8.720740 7.903518 89.043842
2269 1 7.506169 32.455232 87.914517
2270 1 14.868081 10.198140 92.275239
2271 1 0.445364 9.852560 91.874667
2272 1 2.843138 23.300619 100.558508
2273 1 13.894201 1.124636 83.632288
2274 1 5.002354 6.719926 101.801690
2275 1 12.422842 29.644932 111.738747
2276 1 9.686203 30.272906 91.804550
2277 1 10.630389 9.507091 104.832244
2278 1 9.074171 3.749045 110.170904
2279 1 8.655441 26.996906 103.830237
2280 1 13.694746 0.623258 107.522339
2281 1 15.203013 27.918514 118.718827
2282 1 6.230967 7.217641 104.273608
2283 1 20.439543 8.229983 117.967063
2284 1 1.076113 3.799353 105.163176
2285 1 8.746041 5.207794 99.805637
2286 1 4.401318 31.661642 124.675612
2287 1 14.592447 8.397658 122.114435
2288 1 10.472978 5.166873 112.088104
2289 1 10.042936 7.443662 110.359003
2290 1 24.432504 14.666129 119.334246
2291 1 2.128057 3.878071 117.941300
2292 1 6.674337 0.598307 116.116183
2293 1 31.030334 7.949519 110.228958
2294 1 3.887809 6.527523 130.297091
2295 1 16.325165 8.614036 113.381433
2296 1 15.837725 1.101931 115.640619
2297 1 10.349323 0.253734 130.244549
2298 1 5.898980 5.932410 121.721950
2299 1 9.885562 4.267742 130.473933
2300 1 9.738130 14.102290 121.444795
2301 1 12.610600 2.168381 130.288501
2302 1 7.982790 6.291435 134.359861
2303 1 9.890235 3.564223 134.297250
2304 1 4.954254 10.493205 125.902494
2305 1 8.075757 7.744525 1.507148
2306 1 7.684150 10.904674 3.343316
2307 1 10.372642 8.318187 3.026036
2308 1 10.159771 10.315712 1.474344
2309 1 8.626211 8.505906 4.934601
2310 1 8.440905 10.192346 7.457215
2311 1 10.507792 8.105960 7.281584
2312 1 10.289301 10.694676 4.643426
2313 1 8.546379 8.234390 9.387996
2314 1 8.538276 10.087923 11.450223
2315 1 10.410620 8.348218 11.423677
2316 1 10.605162 10.244526 9.036660
2317 1 8.234706 8.277988 13.475803
2318 1 8.692965 10.550273 15.312167
2319 1 10.361772 8.028266 15.273967
2320 1 10.255813 10.631437 13.330434
2321 1 8.316227 8.422037 16.987280
2322 1 7.936045 10.405943 19.130115
2323 1 10.565935 7.790137 19.458900
2324 1 10.379116 10.264183 17.669154
2325 1 8.364546 8.197712 21.401636
2326 1 8.235099 10.833818 23.403736
2327 1 10.306781 8.246086 23.625390
2328 1 9.966106 10.536086 21.289663
2329 1 8.261199 8.065305 25.671960
2330 1 8.439242 10.013889 27.401636
2331 1 10.322842 7.828317 27.414252
2332 1 10.216797 10.109561 25.629018
2333 1 8.401412 7.898655 29.507766
2334 1 8.274425 9.854359 31.304458
2335 1 10.364209 8.137287 31.527212
2336 1 10.125284 9.864121 29.395166
2337 1 8.455075 8.086178 33.529382
2338 1 8.301483 10.182464 35.492473
2339 1 10.239703 8.336725 35.315714
2340 1 10.251964 10.160873 33.282028
2341 1 8.492165 8.071424 37.437712
2342 1 8.231185 10.122647 39.654073
2343 1 10.558036 8.205226 39.355305
2344 1 10.363762 9.888144 37.291902
2345 1 7.699924 7.994522 41.694496
2346 1 8.148102 9.743114 43.644539
2347 1 10.140112 7.965650 43.434585
2348 1 10.240619 9.893591 41.254379
2349 1 8.363487 8.056635 45.983025
2350 1 8.031641 10.154114 47.674828
2351 1 10.596810 7.744683 47.652880
2352 1 10.702635 10.072178 45.766388
2353 1 8.395735 8.015620 49.506195
2354 1 8.293248 9.934578 51.283406
2355 1 10.593400 8.149247 51.365468
2356 1 10.495183 10.041425 49.541550
2357 1 8.442970 7.759354 53.499900
2358 1 8.232241 9.824674 55.541886
2359 1 10.251527 7.690994 55.570073
2360 1 10.297774 9.794391 53.565056
2361 1 8.203080 7.880738 57.650787
2362 1 8.012440 9.729202 59.595219
2363 1 9.981527 7.912887 59.534164
2364 1 10.059662 9.906498 57.604858
2365 1 7.873173 7.954657 61.803901
2366 1 8.074137 10.144049 63.755961
2367 1 9.925688 8.012963 63.869625
2368 1 10.232748 10.301328 61.750523
2369 1 8.011789 7.950713 65.778988
2370 1 11.715023 12.612665 69.595597
2371 1 16.456543 10.242483 72.799240
2372 1 10.204261 10.462982 65.706928
2373 1 10.436054 6.523405 73.721499
2374 1 4.203996 14.179200 67.795748
2375 1 15.976010 14.338661 67.669162
2376 1 4.329591 7.843107 65.897446
2377 1 0.937724 10.347086 78.130820
2378 1 8.119041 10.171542 67.578852
2379 1 6.059460 10.335125 73.940989
2380 1 5.265792 13.494967 81.054872
2381 1 2.482719 4.591175 76.430010
2382 1 2.737005 10.676605 80.214779
2383 1 1.692829 11.362967 82.548449
2384 1 8.425415 3.025551 91.672570
2385 1 0.200131 9.130894 86.872804
2386 1 19.698701 8.368928 79.122869
2387 1 9.499981 10.366295 81.205050
2388 1 14.150590 14.971655 91.161541
2389 1 11.111818 5.206564 84.102646
2390 1 12.346046 8.042238 83.492635
2391 1 6.080470 15.130888 89.278960
2392 1 0.835514 12.068814 101.897537
2393 1 9.009873 7.500273 80.725446
2394 1 3.040896 5.674816 93.347996
2395 1 18.525249 8.049579 92.308298
2396 1 8.802270 13.272229 96.142349
2397 1 6.994678 7.612674 95.864798
2398 1 11.235514 10.779156 90.245999
2399 1 9.452225 31.220033 98.062938
2400 1 6.424101 32.177611 99.292282
2401 1 10.478492 1.164885 96.010253
2402 1 4.145987 11.158072 94.119894
2403 1 3.321651 14.305399 114.221723
2404 1 2.919142 5.713751 103.665328
2405 1 10.672060 0.484112 99.974820
2406 1 9.250066 10.702967 96.891684
2407 1 5.924160 11.177554 111.677435
2408 1 6.660407 12.323573 91.232422
2409 1 30.340588 3.814424 114.887230
2410 1 15.908323 9.137280 105.466911
2411 1 12.901132 1.709316 100.813054
2412 1 3.429082 0.614188 106.221317
2413 1 30.163638 4.278963 119.395024
2414 1 1.860667 7.488827 119.489022
2415 1 11.954847 9.626047 108.637193
2416 1 30.514360 9.357564 123.267434
2417 1 8.458949 12.118850 111.900756
2418 1 12.392809 14.837038 121.070091
2419 1 16.600600 0.401895 110.167005
2420 1 7.073572 6.849070 117.253075
2421 1 11.739731 14.998228 125.424208
2422 1 13.103850 7.512420 119.123498
2423 1 8.378333 10.197425 130.075790
2424 1 6.306170 8.532936 130.063144
2425 1 5.657094 6.638341 132.560521
2426 1 31.048528 5.681074 128.307756
2427 1 8.222977 6.464611 131.096426
2428 1 6.600911 14.431691 128.091851
2429 1 8.552656 3.818131 127.756650
2430 1 7.994172 10.485656 134.429294
2431 1 12.723857 6.234657 134.002060
2432 1 8.473218 12.411028 132.286360
2433 1 8.337521 12.353673 1.257383
2434 1 8.356577 14.375383 3.206203
2435 1 10.390619 12.815776 3.210123
2436 1 10.154542 14.751397 1.054299
2437 1 8.608687 12.705908 5.445827
2438 1 8.269074 14.479130 7.464245
2439 1 10.337777 12.450378 7.526798
2440 1 10.143355 14.808468 5.341291
2441 1 7.968369 12.071625 9.612591
2442 1 8.102225 14.533403 11.437623
2443 1 10.354952 12.217988 11.172223
2444 1 10.341503 14.382104 9.409764
2445 1 8.214057 12.342106 13.168018
2446 1 8.332137 14.588817 15.344967
2447 1 10.370982 12.554598 15.488691
2448 1 10.311907 14.654993 13.363100
2449 1 8.387040 12.492617 17.306832
2450 1 8.462139 14.674873 19.279641
2451 1 10.526345 12.364540 19.361832
2452 1 10.312655 14.581392 17.319702
2453 1 8.313400 12.439898 21.353159
2454 1 7.960880 14.281155 23.371778
2455 1 10.249730 12.521147 23.139868
2456 1 10.339103 14.673537 21.445150
2457 1 8.366927 12.411278 25.777280
2458 1 8.163692 14.401211 27.580752
2459 1 10.253339 12.155524 27.444670
2460 1 10.299568 14.500680 25.445183
2461 1 8.151821 12.126160 29.585098
2462 1 8.236900 14.365139 31.588320
2463 1 9.922886 12.273383 31.433947
2464 1 10.233381 13.967882 29.415381
2465 1 7.971925 12.347791 33.714974
2466 1 8.221696 14.228039 35.561504
2467 1 10.472513 12.149419 35.329569
2468 1 10.304618 14.014803 33.595500
2469 1 8.621252 12.196462 37.301444
2470 1 8.295675 14.460597 39.355232
2471 1 9.911727 12.183112 39.493770
2472 1 10.254067 14.566056 37.529552
2473 1 7.938585 11.746847 41.888965
2474 1 8.131471 14.038774 43.629682
2475 1 10.138075 11.961191 43.758300
2476 1 9.868935 14.013379 41.310190
2477 1 8.321989 12.190567 45.571199
2478 1 8.310590 14.331311 47.553283
2479 1 10.255847 12.596367 47.648711
2480 1 10.220161 13.802783 45.468657
2481 1 7.910848 11.907363 49.299162
2482 1 8.354031 14.044339 51.563899
2483 1 10.096801 12.020294 51.216457
2484 1 10.519830 14.334734 49.633177
2485 1 8.322761 11.793623 53.460015
2486 1 8.161985 14.346599 55.552750
2487 1 10.227509 12.073941 55.439422
2488 1 10.128404 14.183206 53.481928
2489 1 8.318019 12.075942 57.361004
2490 1 8.283373 13.835902 59.705048
2491 1 10.323664 11.734818 59.522354
2492 1 10.212133 14.031617 57.755457
2493 1 8.282382 11.955778 61.337312
2494 1 8.197314 13.901219 63.338915
2495 1 10.240050 12.006882 63.576956
2496 1 10.014754 14.142904 61.499119
2497 1 8.346376 14.669536 67.996835
2498 1 32.394607 16.938752 78.273153
2499 1 6.335820 12.512706 71.835258
2500 1 9.800004 14.324772 65.610696
2501 1 16.430246 11.778362 69.936149
2502 1 2.056407 14.481229 69.476460
2503 1 7.214031 11.129459 76.299078
2504 1 5.212285 15.776650 76.261424
2505 1 0.902033 2.259982 76.491075
2506 1 12.001609 14.393892 71.675357
2507 1 8.890210 12.034179 79.178832
2508 1 7.708270 19.436848 76.110390
2509 1 6.312008 16.181583 67.811038
2510 1 11.530057 8.519261 80.454874
2511 1 20.115051 7.628741 74.360828
2512 1 13.705856 25.391800 83.469509
2513 1 9.307450 4.304188 86.148449
2514 1 11.777275 29.168923 73.845130
2515 1 14.538407 8.625960 79.679915
2516 1 6.555944 21.796903 77.143902
2517 1 1.043707 18.732234 89.538478
2518 1 27.939564 9.682980 82.746451
2519 1 19.420313 6.478480 88.960074
2520 1 14.939178 23.869774 85.563810
2521 1 11.158097 16.188391 97.090468
2522 1 25.925877 17.065359 107.252433
2523 1 12.229620 12.776112 94.506499
2524 1 17.383274 14.666104 84.728394
2525 1 13.483661 16.736750 98.165335
2526 1 19.232217 14.417080 93.530481
2527 1 12.456395 10.876832 96.899288
2528 1 10.106918 11.249881 85.807360
2529 1 7.766193 20.209869 96.042161
2530 1 5.941582 8.431569 98.182398
2531 1 6.337547 0.167040 104.050441
2532 1 14.407172 13.624799 101.929255
2533 1 13.249995 14.864792 109.248046
2534 1 12.461713 11.956543 101.190679
2535 1 11.502988 4.834079 105.523514
2536 1 12.069961 14.262011 102.133640
2537 1 9.268082 3.113817 104.891319
2538 1 7.847331 18.785462 110.107824
2539 1 31.672778 4.604431 109.951867
2540 1 7.907745 5.188004 104.973431
2541 1 12.279713 18.049752 117.460581
2542 1 0.816766 9.139966 122.501995
2543 1 4.583101 10.860185 113.952524
2544 1 8.091418 13.932814 119.285706
2545 1 15.901790 11.405992 113.067083
2546 1 14.460879 21.214017 120.490425
2547 1 15.993347 19.902210 114.515097
2548 1 11.592843 9.921735 119.407298
2549 1 9.971990 5.883793 117.645193
2550 1 29.980505 12.807204 119.613461
2551 1 1.335036 10.211636 119.926417
2552 1 8.230280 18.667962 134.271740
2553 1 2.725977 14.177936 122.159600
2554 1 6.057618 16.277464 126.042413
2555 1 2.223606 11.231505 122.357587
2556 1 8.601207 18.207386 129.320692
2557 1 10.001098 8.115481 134.418042
2558 1 10.244065 16.668648 133.931137
2559 1 10.262250 12.586751 134.328818
2560 1 5.458379 18.999510 122.716783
2561 1 8.384997 16.650402 1.035745
2562 1 8.465886 18.561899 3.250635
2563 1 10.343432 16.270072 3.058134
2564 1 10.228434 18.692797 0.970710
2565 1 7.968849 16.171042 5.404712
2566 1 7.854583 18.773718 7.243028
2567 1 10.548218 16.283887 7.527632
2568 1 10.222430 18.456531 5.395816
2569 1 8.145492 16.486582 9.232467
2570 1 8.146092 18.542903 11.146828
2571 1 10.261259 16.506813 11.314777
2572 1 10.039772 18.394473 9.121523
2573 1 8.069401 16.502349 13.120693
2574 1 8.294910 18.570950 15.556043
2575 1 10.252976 16.659919 15.494406
2576 1 10.006443 18.327904 13.366234
2577 1 7.710413 16.216154 17.348798
2578 1 7.945394 17.972173 19.471730
2579 1 10.559179 16.346267 19.242343
2580 1 9.996081 18.580613 17.584517
2581 1 8.264804 16.426448 21.496326
2582 1 8.365870 18.364982 23.302514
2583 1 10.208589 16.347349 23.476174
2584 1 10.098720 18.139000 21.188358
2585 1 8.218683 16.334089 25.276380
2586 1 8.442779 18.245339 27.482530
2587 1 10.265280 16.417985 27.537388
2588 1 10.603597 18.206281 25.424201
2589 1 8.372224 16.539486 29.630703
2590 1 8.484520 18.546632 31.504461
2591 1 10.134545 16.429196 31.393395
2592 1 10.410149 18.211770 29.514650
2593 1 8.691848 16.232465 33.535811
2594 1 8.198711 18.254301 35.313124
2595 1 10.468275 16.487291 35.336936
2596 1 10.273199 18.379293 33.730936
2597 1 8.378602 16.356951 37.306610
2598 1 8.595903 18.286973 39.260302
2599 1 10.391557 16.438958 39.336930
2600 1 10.271673 18.430904 37.035433
2601 1 8.059626 16.364563 41.503714
2602 1 8.321881 18.310617 43.467157
2603 1 10.081198 15.941106 43.523599
2604 1 10.253397 17.979372 41.621910
2605 1 8.084162 16.300351 45.598378
2606 1 8.137947 18.038638 47.444494
2607 1 10.438413 16.083619 47.493679
2608 1 10.309868 18.229128 45.527155
2609 1 7.921798 16.161349 49.779319
2610 1 8.172687 18.284827 51.854855
2611 1 10.218269 16.220138 51.726548
2612 1 10.232347 18.071284 49.640129
2613 1 8.218713 16.260857 53.603093
2614 1 7.864482 17.908016 55.738100
2615 1 10.056751 16.152662 55.958775
2616 1 9.984771 18.226075 53.574055
2617 1 8.251050 15.897999 57.998931
2618 1 7.886241 18.630832 59.887266
2619 1 10.140828 16.226982 59.864237
2620 1 10.032281 18.160044 57.721319
2621 1 7.754080 16.169927 61.446691
2622 1 7.891112 18.423968 63.857142
2623 1 10.015202 16.047578 63.329264
2624 1 9.981386 18.452301 62.030132
2625 1 8.167010 16.445465 65.666356
2626 1 10.236126 24.572131 71.629392
2627 1 5.976412 20.516352 67.734700
2628 1 10.060519 18.886316 65.728854
2629 1 32.495987 14.610674 71.343575
2630 1 6.322690 14.424608 74.105917
2631 1 6.363406 10.844199 69.420516
2632 1 8.620876 18.839767 72.215670
2633 1 5.286615 19.236619 77.754068
2634 1 3.852971 23.196345 72.360868
2635 1 15.582373 12.272266 75.701245
2636 1 12.161800 14.637868 67.931573
2637 1 9.952148 12.571700 71.921374
2638 1 12.195803 19.615004 75.949846
2639 1 1.524142 12.740060 75.803387
2640 1 10.163667 9.762760 83.716505
2641 1 5.466766 16.783134 79.341405
2642 1 10.686000 26.338750 77.268608
2643 1 7.859804 13.823373 82.267713
2644 1 19.594709 9.736372 75.855855
2645 1 15.022442 8.429590 85.078755
2646 1 0.863667 11.067121 85.221624
2647 1 15.016182 14.547502 85.870368
2648 1 11.140114 21.447970 80.820924
2649 1 16.923568 17.367357 96.704912
2650 1 13.204171 12.650121 89.869886
2651 1 2.006104 24.535834 83.975383
2652 1 8.876500 19.004650 88.479806
2653 1 14.294335 15.614096 95.734343
2654 1 9.781587 17.900763 95.548018
2655 1 9.185276 23.090583 99.723471
2656 1 9.081796 19.302909 98.679066
2657 1 30.345494 6.673312 93.692016
2658 1 11.104423 25.037972 99.853855
2659 1 15.494730 15.373333 98.086382
2660 1 7.404343 15.237156 91.625186
2661 1 8.440922 14.735662 107.654580
2662 1 12.002679 20.155564 107.237220
2663 1 11.874428 14.169779 114.078086
2664 1 8.352536 11.740487 100.072215
2665 1 6.566166 24.777370 113.355809
2666 1 14.698356 10.107460 119.721169
2667 1 2.867995 8.083749 113.443502
2668 1 13.242758 20.720703 104.362578
2669 1 12.383723 13.149426 118.505236
2670 1 16.770727 21.113376 107.799720
2671 1 13.013240 22.544410 115.455944
2672 1 8.122559 29.771694 113.026431
2673 1 16.365778 18.799195 119.854219
2674 1 10.993225 18.749863 123.294075
2675 1 9.670411 11.648135 114.605770
2676 1 12.552473 20.867029 118.265611
2677 1 7.040712 21.457928 122.430354
2678 1 18.083644 14.392727 126.269446
2679 1 10.343133 18.385134 127.300968
2680 1 11.752166 28.707992 128.106186
2681 1 5.910437 15.438614 121.996699
2682 1 6.607849 16.253917 129.951388
2683 1 8.457427 16.075544 127.650505
2684 1 19.219889 23.333046 124.340649
2685 1 4.312028 10.103080 130.018897
2686 1 8.569582 14.630578 134.320063
2687 1 9.854299 18.589183 131.977043
2688 1 12.698308 22.163913 125.874277
2689 1 8.258805 20.770262 0.782124
2690 1 8.394049 22.247243 3.080650
2691 1 10.478812 20.484228 3.113496
2692 1 10.484483 22.615420 1.294839
2693 1 8.205478 20.455668 5.183858
2694 1 8.154506 22.856574 7.546333
2695 1 9.918507 20.803599 7.321273
2696 1 10.352241 22.423733 5.008432
2697 1 8.121153 20.520533 9.366411
2698 1 8.143522 22.581805 11.665753
2699 1 10.188611 20.169065 11.135213
2700 1 10.014087 22.463716 9.950991
2701 1 8.134808 20.332091 13.191494
2702 1 8.175647 22.611372 15.802402
2703 1 10.340143 20.774997 15.535448
2704 1 10.549068 22.301662 13.141546
2705 1 7.980182 20.422364 17.558886
2706 1 8.463812 22.524375 20.005023
2707 1 10.220100 20.444023 19.524473
2708 1 9.960581 22.432426 17.657685
2709 1 8.249553 20.431354 21.615248
2710 1 8.707343 22.350534 23.710867
2711 1 10.622416 20.434675 23.359984
2712 1 10.745862 22.646819 21.738633
2713 1 8.493703 20.285317 25.463349
2714 1 8.220259 22.935778 27.540243
2715 1 10.376349 20.642967 27.393241
2716 1 10.445688 22.523128 25.598798
2717 1 8.712482 20.460931 29.544569
2718 1 8.440083 22.875082 31.554003
2719 1 10.361216 20.470196 31.409895
2720 1 10.238914 23.133749 29.545782
2721 1 8.254968 20.545609 33.580001
2722 1 8.350417 22.615906 35.468627
2723 1 10.380421 20.532486 35.464617
2724 1 10.168059 22.947929 33.555771
2725 1 8.174071 20.304693 37.478555
2726 1 8.224222 22.382888 39.830676
2727 1 10.802241 20.350905 39.358255
2728 1 9.977878 22.606350 37.274204
2729 1 8.665085 20.063494 41.342247
2730 1 8.250621 21.983360 43.589605
2731 1 10.317067 20.412290 43.423865
2732 1 10.394534 22.160343 41.252770
2733 1 8.361022 20.154263 45.506687
2734 1 8.257839 21.952386 47.589655
2735 1 10.272254 20.304567 47.655238
2736 1 10.408129 22.233553 45.396009
2737 1 8.169351 20.271315 49.583919
2738 1 8.052603 22.129223 51.835561
2739 1 9.969465 20.293646 51.628306
2740 1 10.224948 21.939633 49.578008
2741 1 8.055254 20.305570 53.754963
2742 1 7.859057 22.587591 55.594773
2743 1 10.219828 20.062442 55.834334
2744 1 10.080001 21.943258 53.624560
2745 1 8.099871 20.393108 57.470990
2746 1 7.904042 22.685040 59.701253
2747 1 9.777078 20.305795 59.430478
2748 1 9.732219 22.614214 57.529206
2749 1 7.974678 20.612690 61.665806
2750 1 7.824105 22.718165 63.799581
2751 1 10.186006 20.787154 63.659419
2752 1 10.096134 22.753683 61.647407
2753 1 8.007613 20.719824 65.902132
2754 1 16.104854 28.499834 69.810126
2755 1 7.777092 20.712535 70.083113
2756 1 10.026533 22.855233 65.923517
2757 1 14.313754 18.734602 70.014946
2758 1 30.503310 14.899634 74.109048
2759 1 18.505001 10.181496 70.264899
2760 1 15.895215 20.707316 69.756941
2761 1 12.157523 12.664742 74.126223
2762 1 2.042414 23.007622 76.780499
2763 1 16.492474 22.482479 72.121296
2764 1 3.554541 24.593310 69.789311
2765 1 10.124002 14.493056 73.711770
2766 1 9.414333 26.916945 87.264849
2767 1 6.065568 24.277756 73.595635
2768 1 16.639657 24.653466 73.773578
2769 1 24.485742 6.548409 85.302707
2770 1 5.673282 28.303214 81.058832
2771 1 12.379596 19.043066 84.828421
2772 1 6.143515 17.788374 88.425040
2773 1 6.509424 22.780013 85.210966
2774 1 4.551725 20.834974 92.126360
2775 1 4.563021 15.919163 87.128687
2776 1 17.649273 17.772633 80.913420
2777 1 16.886153 14.233338 100.459363
2778 1 10.763650 24.512558 94.646485
2779 1 14.859063 10.726216 94.944208
2780 1 11.219273 17.883144 81.268319
2781 1 14.538136 26.274935 92.586043
2782 1 28.276521 24.756148 93.561326
2783 1 10.263224 21.754075 97.911020
2784 1 12.325043 18.066455 87.371595
2785 1 2.018968 21.003622 96.869619
2786 1 11.418013 13.487004 97.027155
2787 1 6.445230 14.357566 100.169781
2788 1 29.701502 25.858573 95.982674
2789 1 8.750339 26.576534 100.630563
2790 1 6.755528 27.177327 98.551757
2791 1 13.866307 10.900400 105.303286
2792 1 12.751226 24.151587 110.104949
2793 1 4.713369 25.651139 106.223024
2794 1 12.934163 29.399328 118.808025
2795 1 18.830889 28.541127 120.619597
2796 1 10.998890 29.883378 113.788531
2797 1 14.473527 19.315612 106.465230
2798 1 7.733650 16.221810 105.521652
2799 1 22.229501 28.078221 120.701762
2800 1 16.838515 28.280218 116.671918
2801 1 11.478285 25.692917 115.117110
2802 1 8.033393 20.176883 116.850731
2803 1 5.061922 16.343410 119.761027
2804 1 18.021927 20.873315 113.177826
2805 1 13.533323 23.099439 118.910980
2806 1 7.981310 18.076288 125.971734
2807 1 10.250772 25.726891 124.326598
2808 1 18.554050 24.936674 129.814532
2809 1 9.443877 26.266808 121.173349
2810 1 8.800588 20.925148 131.846288
2811 1 17.960013 18.709868 123.963573
2812 1 12.760740 16.950069 127.550800
2813 1 6.065896 22.570528 132.143366
2814 1 10.581428 21.132796 128.153202
2815 1 10.122725 20.822390 134.113265
2816 1 13.833078 28.656395 130.147155
2817 1 8.408273 24.292681 1.008530
2818 1 8.093379 26.689390 3.259546
2819 1 9.962879 24.813962 3.337003
2820 1 10.128332 26.633660 1.129489
2821 1 8.373012 24.239188 5.383962
2822 1 8.428051 26.442156 7.392975
2823 1 10.347792 24.243104 7.863610
2824 1 10.201265 26.863605 5.052319
2825 1 8.024610 24.435389 9.683976
2826 1 8.550434 26.432926 11.628983
2827 1 10.668403 24.632073 11.304399
2828 1 10.399981 26.465065 9.353956
2829 1 8.324624 24.487260 13.437719
2830 1 8.327877 26.602185 15.241908
2831 1 10.511206 24.248638 15.623247
2832 1 10.280674 26.426570 13.528789
2833 1 8.179436 24.764390 17.560533
2834 1 7.907605 26.669781 19.342647
2835 1 10.442114 24.709125 19.300369
2836 1 10.371735 26.481194 17.514439
2837 1 7.757187 24.745961 21.404005
2838 1 8.402686 26.394934 23.407345
2839 1 10.172829 24.370185 23.642732
2840 1 10.511422 26.135066 21.767276
2841 1 8.451848 24.654220 25.592705
2842 1 8.265195 26.903134 27.552171
2843 1 10.450710 24.634727 27.500468
2844 1 10.705111 26.341445 25.494335
2845 1 8.217056 24.898046 29.379441
2846 1 8.339242 26.709200 31.724370
2847 1 10.222548 24.948414 31.594096
2848 1 10.301628 26.942927 29.297840
2849 1 8.531294 24.866320 33.575482
2850 1 8.473625 26.525378 35.981110
2851 1 10.417344 24.778532 35.765113
2852 1 10.563794 26.855461 33.734079
2853 1 8.355770 24.527473 38.167536
2854 1 8.406959 26.799624 40.120645
2855 1 10.819241 24.484277 39.734880
2856 1 10.111257 26.471100 38.130096
2857 1 7.675976 24.395272 41.788764
2858 1 8.856622 26.402735 43.645878
2859 1 10.035809 23.872768 43.329611
2860 1 10.408025 26.337677 41.666913
2861 1 8.394074 24.145958 45.604503
2862 1 8.234835 26.567739 47.782772
2863 1 9.947578 23.995933 47.970498
2864 1 10.338657 25.827182 45.594835
2865 1 8.422714 24.415302 49.924155
2866 1 8.117306 26.680096 51.577774
2867 1 9.939671 24.189164 51.957397
2868 1 10.205093 26.262167 49.677341
2869 1 7.983657 24.636429 53.986936
2870 1 7.600216 26.865125 56.040673
2871 1 10.192986 24.128934 55.438047
2872 1 9.840434 26.301840 54.231926
2873 1 7.883612 24.717480 57.828278
2874 1 7.786846 26.811496 59.728733
2875 1 9.720313 24.474493 59.711737
2876 1 9.986000 26.696960 57.741305
2877 1 7.768894 24.576806 61.651791
2878 1 8.185014 26.796291 63.773961
2879 1 9.967031 24.880973 64.019187
2880 1 10.053379 26.765703 61.637476
2881 1 8.168727 24.946891 66.035444
2882 1 12.054427 28.672968 70.097512
2883 1 10.201847 24.744844 68.042952
2884 1 9.940162 26.655544 66.031703
2885 1 28.837754 20.649436 78.747180
2886 1 1.914070 22.412662 70.054871
2887 1 14.111550 26.803010 69.902787
2888 1 18.603334 31.165902 70.291969
2889 1 7.137545 26.463428 74.597327
2890 1 2.633976 26.969682 70.222464
2891 1 9.463801 20.903742 74.201712
2892 1 8.854654 30.813050 83.758386
2893 1 8.742863 26.878294 81.136168
2894 1 12.094642 22.040967 75.647807
2895 1 4.128922 20.555440 73.516097
2896 1 18.401192 32.642815 72.721933
2897 1 1.708961 22.054567 79.685867
2898 1 32.735236 2.665941 79.563352
2899 1 9.653005 13.995468 84.460244
2900 1 4.930148 22.443909 80.851369
2901 1 11.197566 20.663514 91.340380
2902 1 7.313826 28.246630 85.846378
2903 1 4.566439 25.725471 99.701661
2904 1 7.048360 31.652706 90.520755
2905 1 7.831066 25.456845 94.272887
2906 1 3.240665 28.591174 88.279478
2907 1 15.777952 30.775438 87.387793
2908 1 14.064768 27.808183 104.067643
2909 1 12.310914 17.009451 91.609423
2910 1 28.099768 31.032223 108.999302
2911 1 12.118601 26.855786 96.246668
2912 1 7.758915 25.546381 96.843016
2913 1 30.868776 0.500930 105.027674
2914 1 3.821191 23.504873 94.085827
2915 1 21.968680 19.106362 108.437637
2916 1 0.936146 31.501484 113.218183
2917 1 13.373422 20.374272 97.824727
2918 1 10.004430 15.584933 103.089452
2919 1 6.465792 18.641933 102.064033
2920 1 0.317443 28.631038 103.491842
2921 1 10.357760 21.771415 115.881135
2922 1 18.971109 23.000204 108.572949
2923 1 14.189180 24.292765 121.099563
2924 1 10.319208 21.464593 109.197960
2925 1 14.462638 27.475760 123.076765
2926 1 15.755675 26.590415 110.643319
2927 1 14.349398 29.452169 124.839373
2928 1 4.537267 2.636231 113.015197
2929 1 7.404665 22.830500 116.008371
2930 1 6.876501 28.892799 126.544615
2931 1 6.419626 31.007520 118.984006
2932 1 7.095986 30.692170 124.176330
2933 1 0.434841 26.915059 119.435425
2934 1 7.725351 24.574331 127.750656
2935 1 6.071941 22.263871 127.947806
2936 1 13.385965 25.465605 124.629575
2937 1 3.863201 21.845207 118.888667
2938 1 6.125181 24.445805 130.091161
2939 1 8.069276 30.402821 130.052774
2940 1 2.566083 30.940506 120.930246
2941 1 8.267542 22.790197 134.084212
2942 1 10.060655 23.181169 132.032056
2943 1 10.419839 24.465548 134.283439
2944 1 9.559529 29.675368 125.659991
2945 1 8.329009 28.648995 1.315423
2946 1 7.917469 31.054464 3.485272
2947 1 10.291251 28.808560 3.134229
2948 1 9.912288 30.953419 1.097969
2949 1 8.212555 28.836043 5.403066
2950 1 8.077824 31.119227 7.544462
2951 1 10.417208 28.381994 7.249245
2952 1 10.363412 30.740209 5.382492
2953 1 8.408710 28.171139 9.566940
2954 1 8.373003 30.466472 11.485845
2955 1 10.234869 28.482075 11.839870
2956 1 10.162281 30.275870 9.690523
2957 1 8.421516 28.780766 13.696087
2958 1 8.498299 30.914743 15.244570
2959 1 10.432630 28.674808 15.491181
2960 1 10.436372 30.711946 13.238773
2961 1 8.413425 28.401358 17.304808
2962 1 8.493937 30.402282 19.950142
2963 1 10.096726 28.453140 19.528121
2964 1 10.466475 30.541105 17.471028
2965 1 8.019698 28.462048 21.698334
2966 1 8.437002 30.607719 23.804288
2967 1 10.725528 28.301585 23.780261
2968 1 10.480388 30.552873 21.826916
2969 1 8.498521 28.517412 25.335386
2970 1 8.628389 30.998113 27.294482
2971 1 10.423200 28.541135 27.398733
2972 1 10.600078 30.543125 25.284142
2973 1 8.049816 28.758730 29.478070
2974 1 8.468868 30.732419 31.706558
2975 1 10.475859 28.838278 31.935478
2976 1 10.263696 30.418015 29.529368
2977 1 8.290827 28.650457 33.840123
2978 1 8.137331 31.110811 35.614275
2979 1 10.290084 28.639087 35.659832
2980 1 10.456151 30.656821 33.883267
2981 1 7.963858 28.531737 37.289956
2982 1 7.948863 30.581692 39.707297
2983 1 10.600101 28.717245 39.635360
2984 1 10.557239 30.744026 37.845688
2985 1 8.503216 28.805907 42.033042
2986 1 8.257550 30.811153 43.610384
2987 1 10.554967 28.499106 43.526539
2988 1 10.181722 30.771936 41.344601
2989 1 8.792528 27.949800 45.651793
2990 1 8.356835 30.187177 47.698394
2991 1 10.601339 28.476997 47.483695
2992 1 10.158239 30.746502 45.600493
2993 1 8.190485 28.398784 49.533880
2994 1 8.023640 30.453083 51.341427
2995 1 10.251719 28.447798 51.540682
2996 1 10.424372 30.630182 49.331184
2997 1 8.435023 28.640567 53.436274
2998 1 8.123319 30.862025 56.095650
2999 1 9.888689 28.486251 56.026822
3000 1 9.973925 30.743336 53.890434
3001 1 7.883658 28.857574 57.805183
3002 1 7.897235 30.819689 59.842489
3003 1 9.996817 28.658034 59.492823
3004 1 9.969074 30.773978 57.748363
3005 1 8.252710 28.827587 61.586630
3006 1 8.080677 30.369269 63.749511
3007 1 10.126485 28.629703 63.794627
3008 1 10.246717 30.584164 62.136761
3009 1 7.998144 28.808749 66.314167
3010 1 6.003514 30.640952 65.852975
3011 1 12.187195 28.480085 65.953835
3012 1 5.744349 1.998516 70.323648
3013 1 9.913312 30.360893 65.690135
3014 1 3.788991 3.994528 70.064535
3015 1 12.269112 24.710881 69.960816
3016 1 7.838105 2.223092 67.783625
3017 1 7.324554 30.346534 72.152922
3018 1 15.846683 31.774653 81.597456
3019 1 20.809707 29.036208 73.747087
3020 1 12.732147 0.311937 78.353252
3021 1 14.613738 30.575864 74.445562
3022 1 11.189630 4.872000 78.299018
3023 1 4.449196 22.718862 75.334338
3024 1 8.357671 21.891093 79.797276
3025 1 1.924497 27.660157 80.230757
3026 1 7.395446 0.456476 80.072795
3027 1 13.964810 30.966271 85.771138
3028 1 0.919353 0.251617 78.481318
3029 1 2.369622 16.030742 82.696215
3030 1 4.225115 25.900621 75.403526
3031 1 6.693747 25.555661 86.725198
3032 1 1.791267 28.603834 90.967898
3033 1 7.266168 23.172120 87.668229
3034 1 29.356662 22.714460 99.508132
3035 1 8.852827 21.290834 90.034770
3036 1 11.203771 29.326818 94.031537
3037 1 13.310697 31.860169 100.884692
3038 1 11.146165 31.319812 102.016950
3039 1 3.620094 28.823309 102.313553
3040 1 4.737967 32.443704 89.820043
3041 1 2.372745 30.604264 106.365948
3042 1 14.192237 6.022480 104.861676
3043 1 10.162844 2.047045 84.779515
3044 1 8.888012 32.170796 107.805603
3045 1 10.108932 25.141019 102.995515
3046 1 1.093123 22.933048 112.572395
3047 1 21.575200 23.733267 112.639151
3048 1 17.031022 19.764837 105.259598
3049 1 1.610512 32.195575 98.271658
3050 1 13.685844 30.654871 113.597535
3051 1 3.118605 23.933217 107.770427
3052 1 4.173862 2.688596 110.275561
3053 1 3.047076 4.169099 115.571049
3054 1 0.608202 4.991433 120.370346
3055 1 11.244302 2.007832 125.513289
3056 1 10.635305 28.581966 115.772317
3057 1 4.348776 24.346775 127.906817
3058 1 13.630226 32.216722 119.329852
3059 1 18.529654 23.104325 111.525847
3060 1 11.685044 2.058612 122.601523
3061 1 8.915981 10.197826 125.802842
3062 1 4.367534 24.214411 120.298292
3063 1 16.764146 28.437271 123.436910
3064 1 11.239630 4.417457 126.500987
3065 1 6.311528 30.621936 128.208197
3066 1 16.072395 0.170859 128.180761
3067 1 9.566288 32.600797 124.162630
3068 1 14.158250 5.042955 119.364120
3069 1 7.966559 24.988152 132.473311
3070 1 8.344790 28.122895 132.191699
3071 1 10.345183 28.833371 134.377229
3072 1 12.341708 28.570330 132.357752
3073 1 12.244037 32.510739 1.286376
3074 1 12.155158 2.129458 3.006285
3075 1 14.139045 32.470466 3.149581
3076 1 14.026532 1.887895 1.135007
3077 1 12.315472 0.156389 5.184693
3078 1 12.457395 2.114358 7.167575
3079 1 14.530240 0.243541 6.740440
3080 1 14.045423 2.170650 5.007240
3081 1 12.516906 32.604039 9.231830
3082 1 12.487209 2.098454 11.252109
3083 1 14.430699 0.195111 11.568515
3084 1 14.465076 1.897494 9.333191
3085 1 12.380143 32.614806 13.440751
3086 1 12.507464 2.004285 15.640845
3087 1 14.158734 0.107476 15.289823
3088 1 14.437469 2.174417 13.382219
3089 1 12.434963 32.560117 17.703772
3090 1 12.241248 2.170264 19.612534
3091 1 14.602997 32.557569 19.630046
3092 1 14.166305 1.779354 17.616201
3093 1 12.502399 0.038872 21.385241
3094 1 12.673567 2.373627 23.578609
3095 1 14.516452 0.279236 23.700724
3096 1 14.610966 2.254073 21.580398
3097 1 12.445901 0.067529 25.409059
3098 1 12.415550 2.000810 27.767334
3099 1 14.431852 0.238398 27.574123
3100 1 14.663746 1.837822 25.679401
3101 1 12.359125 32.555703 29.564113
3102 1 12.249152 2.033090 31.920978
3103 1 14.206134 32.552867 31.631925
3104 1 14.426365 1.925513 29.641042
3105 1 12.302055 0.008642 33.813581
3106 1 12.408255 1.952847 35.465759
3107 1 14.556503 32.368393 35.762602
3108 1 14.577731 1.794611 33.517355
3109 1 12.461657 0.270245 37.723417
3110 1 12.292782 2.163809 39.673938
3111 1 14.451739 0.089029 39.568950
3112 1 14.453753 2.305411 37.928426
3113 1 12.162668 0.007127 41.698245
3114 1 12.467611 1.893013 43.554681
3115 1 14.251278 0.050294 43.831713
3116 1 14.582475 2.314039 41.442772
3117 1 12.456808 32.615116 45.667050
3118 1 12.531381 2.035710 47.368602
3119 1 14.376029 32.650963 47.704923
3120 1 14.359998 2.346428 45.535141
3121 1 12.319154 32.230944 49.944936
3122 1 12.484388 1.984361 51.482560
3123 1 14.319688 0.043884 51.633837
3124 1 14.359022 2.114363 49.466090
3125 1 12.305892 32.653353 53.656455
3126 1 12.565765 2.093831 55.691310
3127 1 13.960483 32.658214 55.669884
3128 1 14.283683 2.155177 53.536482
3129 1 12.013838 32.488064 57.850757
3130 1 12.285957 2.142650 59.671993
3131 1 14.201741 32.461333 59.562955
3132 1 14.274780 2.026904 57.590486
3133 1 12.383911 32.582286 61.666655
3134 1 12.412357 1.531071 64.050499
3135 1 14.474766 32.443356 63.562205
3136 1 14.266779 2.078218 61.819872
3137 1 12.211287 32.615658 65.967066
3138 1 11.750426 4.064538 66.181568
3139 1 32.331672 2.208079 71.991428
3140 1 9.901930 1.814094 65.574745
3141 1 10.223068 28.515420 68.198219
3142 1 10.411163 10.054560 73.990550
3143 1 9.920874 31.224349 72.910316
3144 1 8.257063 8.336952 74.093457
3145 1 32.351876 0.206020 70.722487
3146 1 8.711900 2.071642 74.952921
3147 1 14.246470 6.284058 80.976085
3148 1 6.338963 31.200027 82.995369
3149 1 3.389546 32.252962 78.533547
3150 1 8.237112 26.333303 72.182435
3151 1 15.245148 11.356275 85.724095
3152 1 5.961825 30.774339 74.558986
3153 1 21.715319 9.757220 78.196265
3154 1 1.203956 30.372253 79.099147
3155 1 20.076387 3.477819 81.206169
3156 1 14.700222 10.706893 77.762502
3157 1 7.459332 28.439858 83.301963
3158 1 0.024879 1.727931 82.346733
3159 1 15.595139 29.033407 83.753629
3160 1 8.738200 5.591354 82.705703
3161 1 1.099788 27.293857 94.293271
3162 1 1.706289 3.454488 91.503254
3163 1 9.017711 1.779517 89.316831
3164 1 9.298791 12.761872 90.998352
3165 1 13.794124 25.225951 90.019219
3166 1 9.408514 28.967072 101.759719
3167 1 17.590048 24.851388 85.145734
3168 1 9.639845 6.271780 95.868239
3169 1 13.102150 6.578585 85.747596
3170 1 21.852138 8.234837 104.281496
3171 1 5.355879 30.054633 101.108258
3172 1 19.363538 30.308973 98.989867
3173 1 21.231999 2.340968 113.289267
3174 1 1.534868 1.664751 112.485979
3175 1 11.895567 29.214561 108.528381
3176 1 13.742733 29.451358 95.726921
3177 1 10.446549 16.170690 105.874578
3178 1 10.881946 27.195247 112.957121
3179 1 22.945423 25.998131 111.880780
3180 1 22.955944 23.726512 116.446093
3181 1 10.485367 1.661831 110.617117
3182 1 11.140100 28.302457 120.721191
3183 1 16.391139 8.567080 124.121005
3184 1 10.240189 25.651496 106.042705
3185 1 12.218168 25.967394 104.297797
3186 1 20.854132 11.277032 121.229715
3187 1 11.794028 7.128344 103.919876
3188 1 18.213638 5.970034 116.985502
3189 1 15.474841 1.936633 126.422180
3190 1 9.352272 3.317964 123.525068
3191 1 14.524307 2.905472 121.366448
3192 1 3.956852 7.629846 125.090859
3193 1 18.959477 4.415669 121.702505
3194 1 11.759032 3.803634 132.252786
3195 1 18.295778 0.078647 130.142944
3196 1 14.589903 1.934539 132.270702
3197 1 10.251010 0.089706 134.574677
3198 1 8.213125 30.460924 134.305806
3199 1 14.569360 0.096480 134.282338
3200 1 14.416028 30.882472 132.211941
3201 1 12.406844 4.072993 0.583357
3202 1 12.295742 6.105441 2.966234
3203 1 14.371915 3.834290 2.943159
3204 1 14.532132 6.392931 1.364217
3205 1 12.687223 4.280095 5.022876
3206 1 12.440482 6.009733 7.232300
3207 1 14.418259 4.210714 7.409052
3208 1 14.536942 6.342357 5.327598
3209 1 12.647173 4.233171 9.340930
3210 1 12.279024 6.251367 11.569899
3211 1 14.832278 3.997518 11.139175
3212 1 14.457604 6.436325 9.683563
3213 1 12.493794 4.101572 13.324984
3214 1 12.713288 6.108125 15.306560
3215 1 14.594134 3.765650 15.333385
3216 1 14.490408 6.053489 12.938911
3217 1 12.754899 3.926839 17.357209
3218 1 12.757037 6.232229 19.563026
3219 1 14.551886 4.061933 19.175306
3220 1 14.381832 6.227275 17.381929
3221 1 12.685162 4.219723 21.576227
3222 1 12.621052 6.227581 23.297808
3223 1 14.672430 4.216265 23.610505
3224 1 14.597638 6.307462 21.790996
3225 1 12.718554 4.252514 25.553048
3226 1 12.863624 6.354571 27.240349
3227 1 14.831978 4.015925 27.566206
3228 1 14.615224 6.306612 25.447245
3229 1 12.160215 4.068853 29.510538
3230 1 12.529091 5.864011 31.759238
3231 1 14.380835 3.981509 31.570008
3232 1 14.114169 5.604851 29.547120
3233 1 12.380478 3.926158 33.794021
3234 1 12.318700 6.160538 35.417820
3235 1 14.505747 3.720624 35.798152
3236 1 14.392620 5.632481 33.798251
3237 1 12.254953 3.983018 37.544179
3238 1 12.491132 6.155746 39.782666
3239 1 14.535247 4.362557 39.688460
3240 1 14.315427 6.030494 37.603589
3241 1 12.192284 4.055781 41.850696
3242 1 12.337496 6.368735 43.411667
3243 1 14.365197 4.192147 43.536600
3244 1 14.624455 6.247114 41.685156
3245 1 12.482897 3.860645 45.642250
3246 1 12.381426 5.995243 47.501782
3247 1 14.576463 4.166804 47.442705
3248 1 14.440014 5.922443 45.340790
3249 1 12.333238 4.069911 49.552262
3250 1 12.457366 5.917978 51.525872
3251 1 14.401385 4.158832 51.481346
3252 1 14.708033 5.902821 49.471938
3253 1 12.661322 4.093735 53.581359
3254 1 12.262465 6.016485 55.699192
3255 1 14.355189 4.124537 55.834255
3256 1 14.375429 6.047539 53.788101
3257 1 12.431214 4.185537 57.516603
3258 1 12.261599 6.046148 60.121865
3259 1 14.013230 3.875057 59.871344
3260 1 14.154939 6.047526 57.792961
3261 1 11.914284 3.615499 62.297089
3262 1 12.269862 5.895902 63.939211
3263 1 13.996031 3.733272 63.912109
3264 1 14.393074 6.039422 61.990150
3265 1 14.282327 3.318728 67.796416
3266 1 14.906062 2.187138 70.265135
3267 1 10.162891 4.337754 68.377495
3268 1 10.227637 2.361693 70.200150
3269 1 8.077543 30.805245 68.202430
3270 1 10.072995 9.243334 76.344534
3271 1 15.030442 4.117327 72.106716
3272 1 15.938022 10.040444 67.592687
3273 1 11.653403 8.378768 69.719576
3274 1 12.619368 10.797082 84.085870
3275 1 4.305347 6.744741 76.199748
3276 1 3.970822 6.005019 72.178388
3277 1 19.596609 30.892200 79.990695
3278 1 10.641730 3.819393 75.345932
3279 1 13.927139 9.581545 82.253603
3280 1 20.662734 6.292563 81.361493
3281 1 7.388289 7.791121 91.889147
3282 1 6.354353 6.563093 84.442914
3283 1 16.675228 3.051204 87.813556
3284 1 18.810327 5.619152 94.227544
3285 1 16.892591 2.301514 90.373659
3286 1 18.431888 3.989675 85.804908
3287 1 21.051807 32.204494 92.307780
3288 1 14.516797 6.482338 73.583741
3289 1 12.905461 6.569563 78.706120
3290 1 1.438900 3.288840 102.138086
3291 1 13.890514 4.029769 90.682267
3292 1 18.323326 16.838118 78.545360
3293 1 10.873279 6.227125 87.643126
3294 1 5.874626 29.425929 91.916472
3295 1 10.817543 2.929691 87.940479
3296 1 4.161129 15.692586 90.847044
3297 1 6.959666 10.692542 95.170360
3298 1 12.834007 14.503258 99.377813
3299 1 14.932551 12.656555 99.461686
3300 1 5.721953 9.310929 93.287391
3301 1 3.893950 32.236004 102.174311
3302 1 9.504231 0.472018 105.313934
3303 1 9.736781 31.576632 94.297665
3304 1 13.505595 13.909680 104.370522
3305 1 20.546555 29.710271 113.900061
3306 1 16.944899 1.270102 113.138900
3307 1 20.425220 32.197160 114.098659
3308 1 11.336383 29.512192 96.774942
3309 1 11.453617 32.567341 114.853587
3310 1 15.042875 8.440871 117.374803
3311 1 20.488383 12.426159 111.652253
3312 1 7.521075 5.971683 110.510618
3313 1 6.937247 4.732994 123.931470
3314 1 14.213916 4.162104 130.730236
3315 1 8.571102 5.674745 122.295117
3316 1 19.655515 20.508967 125.181211
3317 1 32.346770 3.710201 112.518472
3318 1 18.729264 6.623097 123.780730
3319 1 12.277040 6.124469 130.987069
3320 1 14.739549 10.540541 128.090035
3321 1 14.680734 6.550132 124.233021
3322 1 6.769653 6.185044 128.449967
3323 1 16.401967 2.182975 130.354243
3324 1 6.082874 18.741115 128.244009
3325 1 12.225688 1.791987 134.286480
3326 1 14.344945 8.485402 134.342406
3327 1 14.195218 4.115585 134.022414
3328 1 12.256431 8.404028 132.282297
3329 1 12.743773 8.277984 1.301069
3330 1 12.382502 10.451972 2.950927
3331 1 14.394522 8.280995 3.393537
3332 1 14.265316 10.577186 1.006944
3333 1 12.057662 8.234617 4.937322
3334 1 12.160644 10.310481 6.875946
3335 1 14.159941 8.324864 7.211945
3336 1 14.492881 10.199530 5.320348
3337 1 12.376557 8.412338 9.180369
3338 1 12.233623 10.241180 11.427285
3339 1 14.105654 8.461301 11.437367
3340 1 14.352655 10.216003 9.220920
3341 1 12.461622 8.160913 13.363426
3342 1 11.979214 10.168260 15.129151
3343 1 14.530257 8.489975 15.415034
3344 1 14.065958 10.314879 13.396187
3345 1 12.274378 8.292789 17.416499
3346 1 12.140089 10.040994 19.536608
3347 1 14.235159 8.591513 19.312068
3348 1 14.632099 10.432470 17.152486
3349 1 12.311889 8.445506 21.610987
3350 1 12.340884 10.284663 23.397219
3351 1 14.690969 8.326342 23.575337
3352 1 14.225558 10.194168 21.601374
3353 1 12.442551 8.303024 25.232690
3354 1 12.384937 9.977315 27.502943
3355 1 14.640221 8.160517 27.358746
3356 1 14.574940 10.334007 25.339968
3357 1 12.515652 7.870831 29.381370
3358 1 12.433949 10.064111 31.226746
3359 1 14.413256 7.838212 31.307513
3360 1 14.536876 10.185006 29.596391
3361 1 12.404958 8.185222 33.432315
3362 1 12.367109 10.079601 35.343310
3363 1 14.676542 7.738615 35.392964
3364 1 14.552460 10.010501 33.298139
3365 1 12.263724 8.020736 37.204535
3366 1 12.251913 10.374835 39.489123
3367 1 13.988494 8.319774 39.448632
3368 1 14.434306 10.101767 37.140537
3369 1 12.329820 8.238774 41.522593
3370 1 12.052725 10.096704 43.282817
3371 1 14.272340 8.264920 43.555836
3372 1 14.346608 9.935282 41.378378
3373 1 12.389629 8.311437 45.380743
3374 1 12.355863 10.173848 47.762310
3375 1 14.261310 8.054220 47.459608
3376 1 14.223687 10.169754 45.411379
3377 1 12.543333 7.933048 49.545209
3378 1 12.526367 10.013846 51.340671
3379 1 14.246990 8.250206 51.586148
3380 1 14.460409 10.241739 49.477765
3381 1 12.328157 7.753345 53.709674
3382 1 12.400368 9.921972 55.629405
3383 1 14.214562 8.090379 55.680972
3384 1 14.399497 10.263810 53.558916
3385 1 12.115398 8.208070 57.675512
3386 1 12.063152 9.970732 59.877361
3387 1 14.073327 7.988632 59.636361
3388 1 13.964655 10.144047 57.869356
3389 1 11.759513 8.157483 61.960231
3390 1 12.169733 10.245802 63.667005
3391 1 14.323616 8.113077 63.842871
3392 1 14.361387 10.023023 61.653396
3393 1 12.034739 6.097297 68.094584
3394 1 11.912343 8.290659 65.441040
3395 1 14.535527 16.674652 75.758192
3396 1 16.062245 8.081693 65.875431
3397 1 16.332273 6.585744 68.075606
3398 1 18.062888 13.941283 69.246882
3399 1 10.789075 3.994560 72.434358
3400 1 6.705406 8.382470 76.146531
3401 1 4.335710 11.652421 82.503191
3402 1 16.305750 15.138598 80.705729
3403 1 13.883797 10.474716 69.790254
3404 1 8.029618 10.544180 72.156618
3405 1 4.100396 10.279642 71.815468
3406 1 10.201161 16.472937 71.879098
3407 1 15.708396 6.633019 78.205341
3408 1 0.079563 9.797191 80.831225
3409 1 17.898543 12.047612 85.141482
3410 1 3.804725 6.010756 81.173981
3411 1 12.668921 9.105289 77.896901
3412 1 12.473966 16.173033 73.960804
3413 1 22.081052 4.965318 89.537969
3414 1 21.900163 7.526255 98.833536
3415 1 14.426023 0.901777 86.231883
3416 1 21.230221 5.079415 92.172323
3417 1 3.757809 8.325251 100.234405
3418 1 12.532276 4.632637 97.865787
3419 1 15.078368 32.473024 103.327444
3420 1 16.521879 0.648105 94.186233
3421 1 17.171290 9.464798 86.382670
3422 1 8.171457 5.619570 93.484818
3423 1 8.689402 31.302873 100.986058
3424 1 10.824793 9.156996 99.185853
3425 1 11.779747 5.682869 90.337375
3426 1 16.805191 15.695024 94.925576
3427 1 18.362713 2.031231 97.621264
3428 1 15.602949 12.390884 90.892456
3429 1 14.061132 8.301690 103.373550
3430 1 15.065590 2.470615 102.705111
3431 1 2.674986 8.319080 91.301351
3432 1 7.154578 4.322929 113.629659
3433 1 11.992253 8.925101 101.565310
3434 1 8.847780 11.278609 104.304280
3435 1 14.933525 26.544772 100.740641
3436 1 13.374147 5.659410 116.820229
3437 1 15.084125 7.896109 100.778571
3438 1 15.793897 31.736867 105.712557
3439 1 22.920401 31.596098 115.776601
3440 1 28.066098 27.019623 108.898930
3441 1 22.359428 6.005746 128.545206
3442 1 10.763893 14.031730 127.928540
3443 1 13.032963 9.656008 126.486195
3444 1 11.535931 12.907681 123.296524
3445 1 1.664032 6.410383 124.092044
3446 1 8.912139 8.491116 123.419413
3447 1 15.977937 4.131797 128.337353
3448 1 6.588301 10.328566 127.822229
3449 1 6.512306 8.113935 126.013778
3450 1 10.364949 12.238096 130.078319
3451 1 10.393877 10.334377 132.400353
3452 1 10.412252 14.789380 132.366939
3453 1 10.240057 8.409138 130.242673
3454 1 12.136686 10.267283 134.577355
3455 1 14.605683 10.112337 132.172461
3456 1 18.453409 16.441382 133.895789
3457 1 12.287038 12.610050 1.248126
3458 1 12.469603 14.357152 3.105155
3459 1 14.346815 12.457418 2.914924
3460 1 14.262339 14.668547 1.162321
3461 1 12.810405 12.478798 4.977499
3462 1 12.562201 14.572917 7.208861
3463 1 14.357006 12.391137 7.225709
3464 1 14.731294 14.555835 5.148659
3465 1 12.664526 12.666197 9.234293
3466 1 12.290355 14.446580 11.357232
3467 1 14.504468 12.088945 11.198111
3468 1 14.521003 14.458467 9.453071
3469 1 12.470333 12.620207 13.303796
3470 1 12.356196 14.332171 15.270165
3471 1 14.269420 12.328043 15.186907
3472 1 14.434615 14.550959 13.625372
3473 1 12.406049 11.948353 17.432097
3474 1 12.590044 14.384958 19.421276
3475 1 14.278128 12.267051 19.340797
3476 1 14.324488 14.158321 17.442085
3477 1 12.569802 12.695201 21.756479
3478 1 12.270424 14.750392 23.488323
3479 1 14.505993 12.194572 23.728230
3480 1 14.418030 14.382186 21.413125
3481 1 12.097612 12.251884 25.354389
3482 1 12.206502 14.328944 27.539247
3483 1 14.005159 12.198387 27.519951
3484 1 14.456062 14.318886 25.380064
3485 1 12.122679 11.974002 29.681146
3486 1 12.221562 14.266543 31.407905
3487 1 14.409400 12.054310 31.580276
3488 1 14.479299 14.106907 30.023548
3489 1 12.315991 12.006864 33.312401
3490 1 12.332163 14.368646 35.263065
3491 1 14.397063 12.120656 35.542440
3492 1 14.290840 14.193342 33.380051
3493 1 12.040507 12.472528 37.555546
3494 1 12.068983 14.009283 39.704029
3495 1 14.264494 12.082024 39.300894
3496 1 14.103195 14.164913 37.455828
3497 1 12.280512 12.212971 41.471216
3498 1 12.051503 14.296285 43.504371
3499 1 14.550782 12.300732 43.093735
3500 1 14.072898 14.288696 41.742894
3501 1 12.348991 12.194319 45.081560
3502 1 12.288515 14.106784 47.153721
3503 1 14.571057 12.194727 47.242469
3504 1 14.403535 14.208144 45.545216
3505 1 12.312511 12.237595 49.429688
3506 1 12.353877 14.817440 51.737176
3507 1 14.198458 12.216531 51.484466
3508 1 14.121684 14.344969 49.283468
3509 1 12.220356 12.023174 53.378714
3510 1 12.280379 14.186885 55.623576
3511 1 14.055570 12.016760 55.894909
3512 1 14.185410 13.963586 53.675252
3513 1 11.975953 12.039877 57.554429
3514 1 12.149738 14.468389 59.801685
3515 1 14.026755 12.478563 59.611970
3516 1 14.261888 14.298151 57.609233
3517 1 12.003320 12.348362 61.517678
3518 1 12.197575 14.573844 63.649510
3519 1 14.181431 12.252768 63.677500
3520 1 14.118809 14.056516 61.838187
3521 1 14.061977 12.381517 67.636526
3522 1 12.032778 16.510301 69.836103
3523 1 13.944128 10.259416 65.598470
3524 1 13.964718 14.325985 65.794142
3525 1 8.609069 13.969334 75.959817
3526 1 11.947293 12.088956 65.526617
3527 1 8.248469 14.498150 71.863495
3528 1 8.778871 23.101197 77.766182
3529 1 14.483805 16.460162 72.010766
3530 1 14.038891 12.341059 72.004990
3531 1 12.357903 8.046347 73.916647
3532 1 10.037194 14.723324 69.788548
3533 1 10.191180 12.026704 76.211343
3534 1 12.493784 10.549812 75.819697
3535 1 15.413251 11.372489 80.579727
3536 1 23.078572 4.365473 82.449334
3537 1 6.756784 13.266139 78.212232
3538 1 4.369950 26.863967 85.885767
3539 1 17.565349 2.630031 79.493879
3540 1 23.292389 10.256573 76.531948
3541 1 4.648527 26.875911 79.170044
3542 1 14.074834 13.298185 97.121304
3543 1 15.648323 11.466852 88.532532
3544 1 14.236090 17.072107 85.107738
3545 1 11.565602 25.406526 88.342084
3546 1 9.035439 11.148870 88.680182
3547 1 7.746713 19.699843 84.340091
3548 1 15.853511 5.082740 86.312088
3549 1 14.247492 3.838532 99.790790
3550 1 18.264068 18.777832 89.477250
3551 1 15.424925 14.403949 107.903750
3552 1 29.653644 27.010723 105.556198
3553 1 17.190729 17.946251 92.521246
3554 1 15.665583 15.323175 105.391136
3555 1 14.561131 9.109900 107.659406
3556 1 25.680648 17.899676 102.053400
3557 1 6.674519 12.924695 104.569315
3558 1 13.996837 10.485001 110.436344
3559 1 17.476736 4.767288 102.078651
3560 1 11.898625 2.287983 105.817557
3561 1 12.524752 17.887192 94.650059
3562 1 10.555450 4.245518 92.888618
3563 1 17.098202 17.319933 100.449181
3564 1 12.182105 9.943427 114.585431
3565 1 13.968077 9.320391 112.794772
3566 1 13.311605 10.903233 117.373275
3567 1 12.681853 5.478142 114.345230
3568 1 18.554749 10.266471 117.365325
3569 1 10.234939 11.159244 121.368258
3570 1 9.314065 14.017687 124.875405
3571 1 10.570199 8.036770 126.062749
3572 1 12.790430 6.496613 107.305165
3573 1 8.504037 8.285987 128.000071
3574 1 10.622832 16.493797 129.600619
3575 1 12.192020 14.409461 130.283698
3576 1 13.363409 15.805394 118.652475
3577 1 10.333700 17.198435 125.282727
3578 1 14.533309 12.563035 130.555819
3579 1 14.709852 12.534202 134.179801
3580 1 19.912069 18.393929 122.387159
3581 1 7.709007 8.583358 132.424618
3582 1 12.405233 14.436898 134.076261
3583 1 12.591390 12.281999 128.245549
3584 1 12.290329 12.561872 132.234514
3585 1 12.063024 16.624199 0.819247
3586 1 12.019377 18.438139 3.081887
3587 1 14.489746 16.554484 2.886766
3588 1 14.219083 18.489134 1.127992
3589 1 12.329455 16.497111 5.033429
3590 1 12.218080 18.272078 6.880598
3591 1 14.515298 16.577526 7.207929
3592 1 14.359284 18.274342 5.089998
3593 1 12.446953 16.438761 9.398167
3594 1 12.414383 18.263268 11.181823
3595 1 14.380187 16.402004 11.422372
3596 1 14.069851 18.428080 8.954093
3597 1 12.250449 16.523280 13.644930
3598 1 12.416155 18.156653 15.587960
3599 1 14.693244 16.363437 15.495776
3600 1 14.229605 18.371811 13.493174
3601 1 12.518557 16.459312 17.790811
3602 1 12.178501 18.479702 19.537446
3603 1 14.370205 16.554267 19.519577
3604 1 14.152735 18.465693 17.580267
3605 1 12.450562 16.716405 21.692414
3606 1 12.538437 18.535636 23.438482
3607 1 14.546247 16.225613 23.436800
3608 1 14.656601 18.524826 21.537513
3609 1 12.613814 16.446731 25.606646
3610 1 12.424936 18.259546 27.742226
3611 1 14.213442 16.247393 27.578604
3612 1 14.548151 18.241972 25.389946
3613 1 12.339886 16.118537 29.672855
3614 1 12.047595 18.414603 31.827814
3615 1 14.180464 16.538632 31.444067
3616 1 14.295680 18.462755 29.487128
3617 1 12.107422 16.340617 33.553123
3618 1 12.589310 18.502166 35.174672
3619 1 14.108316 16.576238 35.345519
3620 1 14.218436 18.440065 33.170116
3621 1 12.294148 16.303478 37.288829
3622 1 12.228023 18.134735 39.609831
3623 1 14.234849 16.394325 39.434701
3624 1 14.501206 18.590734 37.371060
3625 1 12.241067 16.059646 41.731361
3626 1 12.455581 18.293246 43.373703
3627 1 14.381625 16.506623 43.316242
3628 1 14.241075 18.373232 41.329998
3629 1 12.290095 16.184257 45.501343
3630 1 12.299332 18.481689 47.606178
3631 1 14.277152 16.286172 47.457396
3632 1 14.650408 18.384602 45.615036
3633 1 12.396751 16.482297 49.798426
3634 1 12.404322 18.367314 51.791029
3635 1 14.442337 16.402857 51.398340
3636 1 14.454048 18.481242 49.628784
3637 1 12.136482 16.583093 53.703015
3638 1 12.092603 18.284664 55.660128
3639 1 14.069194 16.012900 55.738159
3640 1 14.452754 18.187165 53.932524
3641 1 12.336997 16.528390 58.133947
3642 1 11.956204 18.727138 59.728676
3643 1 14.358435 15.980093 59.685555
3644 1 13.964955 18.366994 58.056813
3645 1 12.183691 16.644832 61.841198
3646 1 12.163780 18.489203 63.640216
3647 1 14.279760 16.547151 63.588372
3648 1 14.082724 18.733179 61.293702
3649 1 10.033710 16.691316 67.987971
3650 1 13.974783 18.299029 66.107394
3651 1 22.551142 12.354401 67.509847
3652 1 11.897934 16.486310 65.405364
3653 1 7.678524 22.519295 68.209541
3654 1 10.204731 20.455062 67.890254
3655 1 16.576706 14.724449 72.071046
3656 1 12.301923 20.614776 69.379991
3657 1 13.960215 18.345720 74.021296
3658 1 14.911462 25.335588 80.314769
3659 1 11.627468 26.203990 85.815420
3660 1 17.715344 16.528878 67.868939
3661 1 7.791210 23.692216 81.485807
3662 1 3.375649 17.265915 77.725329
3663 1 12.625629 10.498242 86.843291
3664 1 14.618093 12.300539 83.095482
3665 1 16.215186 14.712801 89.676180
3666 1 2.702132 19.765835 83.327572
3667 1 18.528037 10.785789 87.863667
3668 1 17.389572 12.858772 79.174341
3669 1 4.517859 23.791210 83.771039
3670 1 6.720755 17.718059 86.126002
3671 1 24.029902 16.680407 85.880519
3672 1 15.110348 13.565646 78.584971
3673 1 14.078122 20.603940 94.648617
3674 1 15.548947 17.671678 90.355004
3675 1 15.363905 16.806165 87.798942
3676 1 13.807557 21.284193 84.966872
3677 1 9.092376 21.752044 93.092483
3678 1 21.852464 15.179214 100.812200
3679 1 29.581842 25.421468 111.021104
3680 1 26.575735 19.193596 105.167642
3681 1 22.427367 14.700422 111.864922
3682 1 18.432371 15.715050 98.266392
3683 1 12.956541 20.888089 101.793230
3684 1 6.512774 14.420015 97.202829
3685 1 16.421925 16.176073 109.924391
3686 1 10.656326 15.235407 109.159301
3687 1 13.689285 16.159966 103.153661
3688 1 18.268206 2.482169 103.372272
3689 1 11.829279 16.746721 111.137000
3690 1 4.324735 6.304563 118.229952
3691 1 12.656443 10.053270 121.893396
3692 1 15.882649 11.750408 106.566850
3693 1 13.596427 11.872164 107.983597
3694 1 15.444834 23.536759 108.027285
3695 1 8.282609 10.934193 119.025848
3696 1 13.971381 13.182029 112.521703
3697 1 14.653219 22.186729 122.849311
3698 1 5.281723 26.820404 121.541140
3699 1 10.894283 11.305994 117.024484
3700 1 18.565292 23.435744 116.985284
3701 1 10.953735 10.290904 124.229782
3702 1 13.752169 16.713381 129.877573
3703 1 16.494656 12.450644 132.253701
3704 1 1.624068 11.432360 117.161875
3705 1 15.113559 20.411482 125.825741
3706 1 8.515185 16.290653 131.676489
3707 1 12.462139 16.935635 132.009146
3708 1 11.797982 18.790425 129.930627
3709 1 14.643574 14.636572 132.445951
3710 1 12.195046 18.828784 133.857514
3711 1 16.516573 18.354184 134.302957
3712 1 16.406762 22.772672 133.880023
3713 1 12.710024 20.776208 1.028838
3714 1 12.344942 22.506102 3.336231
3715 1 14.496540 20.598436 3.098048
3716 1 14.815501 22.701596 0.908890
3717 1 12.547167 20.570029 5.101520
3718 1 12.204439 22.352900 7.328867
3719 1 14.164912 20.374615 7.070494
3720 1 14.224401 22.682554 5.646690
3721 1 11.975455 20.383957 9.139884
3722 1 12.640469 22.399276 11.485318
3723 1 14.453734 20.357121 11.087008
3724 1 14.124555 22.184101 9.056564
3725 1 12.229991 20.310672 13.324311
3726 1 12.379728 22.479913 15.477506
3727 1 14.179691 20.336313 15.669975
3728 1 14.405232 21.990300 13.297537
3729 1 11.989801 20.480995 17.519089
3730 1 12.373761 22.365555 19.573783
3731 1 14.254523 20.348304 19.469577
3732 1 14.256780 22.071104 17.601322
3733 1 12.620426 20.211341 21.590378
3734 1 12.483769 22.289612 24.095706
3735 1 14.362599 20.402605 23.646415
3736 1 14.465211 22.335832 21.323839
3737 1 12.561360 20.128013 25.818375
3738 1 12.680183 22.622844 27.463265
3739 1 14.292961 20.515823 27.573910
3740 1 14.656557 22.453244 25.445937
3741 1 12.343832 20.746588 29.357790
3742 1 12.132379 22.866005 31.671215
3743 1 14.313293 20.503662 31.119153
3744 1 14.729989 22.469199 29.565668
3745 1 12.318027 20.687880 33.000298
3746 1 12.294173 22.702349 35.468187
3747 1 14.344234 20.509207 35.311612
3748 1 14.265522 22.528230 33.572460
3749 1 12.346136 20.309780 37.161358
3750 1 12.459760 22.505825 39.497795
3751 1 14.172514 20.357669 39.168008
3752 1 14.423252 22.648609 37.435934
3753 1 12.290780 20.182720 41.461882
3754 1 12.548739 22.102161 43.155636
3755 1 14.288863 20.278294 43.684301
3756 1 14.359227 22.369331 41.357363
3757 1 12.423875 20.092613 45.548877
3758 1 12.039208 22.203704 47.717369
3759 1 14.271987 20.367193 47.529521
3760 1 14.511980 22.089118 45.496005
3761 1 12.496315 20.291158 49.744287
3762 1 12.129782 22.050614 51.821694
3763 1 14.415952 20.307710 51.681962
3764 1 14.339164 22.354539 49.523225
3765 1 12.326337 19.936747 53.616502
3766 1 12.456531 22.205433 55.310614
3767 1 14.184576 20.210903 55.540867
3768 1 14.631295 22.401364 53.486925
3769 1 12.122484 20.227382 57.442591
3770 1 11.874634 22.272442 59.286791
3771 1 14.528112 20.844337 59.345622
3772 1 14.056020 22.600415 57.323722
3773 1 11.616817 20.667479 61.344718
3774 1 11.974489 22.673873 63.991326
3775 1 13.847952 20.525975 63.309683
3776 1 13.868343 22.331213 61.270322
3777 1 12.398316 20.392875 65.815400
3778 1 14.004283 28.844581 68.068587
3779 1 14.269263 24.389381 67.592854
3780 1 14.260479 22.493760 65.412875
3781 1 14.107461 20.756335 67.558401
3782 1 6.839228 24.636205 76.363196
3783 1 12.282656 18.613566 71.685161
3784 1 12.262953 22.632863 71.561345
3785 1 13.609387 14.039404 76.384107
3786 1 11.323852 31.209380 84.747011
3787 1 12.371617 24.589187 74.304098
3788 1 20.001943 3.317068 78.237206
3789 1 15.020229 17.588116 80.165703
3790 1 16.218126 22.569702 75.859487
3791 1 7.560025 15.755603 84.208902
3792 1 20.868629 27.236962 82.664289
3793 1 9.731438 14.267343 80.220637
3794 1 7.663694 12.121779 86.250433
3795 1 23.061978 16.350025 81.070780
3796 1 10.312792 25.075370 79.851823
3797 1 7.584886 25.572172 78.646892
3798 1 12.570732 26.247569 80.724463
3799 1 14.639063 14.967759 83.143157
3800 1 3.481881 17.282532 88.943758
3801 1 14.665371 21.881969 100.412009
3802 1 11.590646 18.659046 98.002579
3803 1 11.277796 14.591398 91.473675
3804 1 18.363355 15.374155 90.982992
3805 1 19.637450 20.433391 96.448711
3806 1 12.925304 18.354881 100.266396
3807 1 20.922239 24.859566 99.699439
3808 1 12.352631 22.898305 107.649485
3809 1 9.346591 20.071863 106.976912
3810 1 15.053332 22.155551 103.063943
3811 1 23.198755 15.809085 109.755424
3812 1 9.225929 26.259908 108.333174
3813 1 13.362567 23.431804 113.065654
3814 1 8.420932 13.977298 114.785980
3815 1 9.708446 23.175930 107.085717
3816 1 16.520263 15.585169 102.753098
3817 1 12.702264 14.944657 106.664482
3818 1 17.038327 16.703200 113.744981
3819 1 8.380001 15.336241 112.122340
3820 1 12.656220 16.528154 113.561166
3821 1 10.423898 25.842320 110.347844
3822 1 25.623656 15.058027 105.298506
3823 1 15.081896 28.137948 114.092575
3824 1 6.044949 23.952158 125.403302
3825 1 17.139839 21.649925 124.217523
3826 1 16.698782 17.094113 122.134340
3827 1 16.622006 22.083610 119.118141
3828 1 16.138903 18.759348 109.128334
3829 1 16.559966 29.451441 120.486590
3830 1 10.766152 24.729435 112.791872
3831 1 9.211214 23.063820 121.075551
3832 1 18.296416 22.784978 121.628152
3833 1 14.094154 26.755673 132.035681
3834 1 13.475439 0.495621 126.153250
3835 1 13.966479 30.774702 128.265873
3836 1 20.535657 4.432582 123.990908
3837 1 13.862106 20.435115 130.493715
3838 1 12.277526 22.531060 134.141506
3839 1 16.132854 20.741491 131.587301
3840 1 16.311429 14.396433 130.144090
3841 1 12.467111 24.429580 1.232999
3842 1 11.962104 26.564595 3.174335
3843 1 14.329693 24.488305 3.158279
3844 1 14.164906 26.613875 1.203960
3845 1 12.170271 24.510818 5.343973
3846 1 12.421974 26.490336 7.520329
3847 1 14.288714 24.683503 7.665554
3848 1 14.400438 26.460919 5.213402
3849 1 12.635710 24.261158 9.515964
3850 1 12.187698 26.796098 11.775624
3851 1 14.107729 24.716123 11.567717
3852 1 14.475897 26.742382 9.503372
3853 1 12.385661 24.258338 13.570370
3854 1 12.068258 26.660466 15.504082
3855 1 14.310731 24.384536 15.550795
3856 1 14.656173 26.589340 13.367557
3857 1 12.620369 24.672946 17.501068
3858 1 12.468094 26.457816 19.583152
3859 1 14.498025 24.341703 19.372374
3860 1 14.430754 26.421698 17.359274
3861 1 12.439782 24.600683 21.492865
3862 1 12.766461 26.383094 23.783246
3863 1 14.459856 24.409154 23.676928
3864 1 14.824747 26.469955 21.284189
3865 1 12.387436 24.564632 25.777352
3866 1 12.316192 26.316699 27.493308
3867 1 14.543416 24.427877 27.652817
3868 1 14.695363 26.446140 25.825875
3869 1 12.567882 24.631692 29.604215
3870 1 12.331211 26.647594 31.417960
3871 1 14.581963 24.546006 31.691798
3872 1 14.462267 26.472599 29.483051
3873 1 12.347538 24.453750 33.557223
3874 1 12.569345 26.567110 35.543820
3875 1 14.428006 24.714220 35.539847
3876 1 14.392582 26.542398 33.357854
3877 1 12.440300 24.421998 37.640705
3878 1 12.464294 26.756553 39.554437
3879 1 14.426666 24.593797 39.814588
3880 1 14.589181 26.970880 37.844267
3881 1 12.357402 24.409540 41.865567
3882 1 12.346469 26.426451 43.654651
3883 1 14.465712 24.712419 43.448119
3884 1 14.320925 26.748097 41.590639
3885 1 12.323487 24.073502 45.003026
3886 1 12.353875 26.360337 47.654421
3887 1 14.046388 23.956284 47.475124
3888 1 14.221960 26.572276 45.754573
3889 1 12.152629 24.147167 50.016859
3890 1 11.980734 26.417577 51.637168
3891 1 14.426313 23.987586 51.567024
3892 1 13.866511 26.028771 49.671629
3893 1 12.149794 24.212947 53.558161
3894 1 12.021645 26.243309 55.751358
3895 1 14.188078 24.627440 55.158388
3896 1 13.879423 26.591540 53.560639
3897 1 11.904938 24.588002 57.993031
3898 1 12.209264 26.468010 59.958085
3899 1 14.292329 24.341567 59.743122
3900 1 13.709146 26.581179 57.692087
3901 1 12.280058 24.467592 61.737722
3902 1 12.247013 26.425174 63.361678
3903 1 14.592608 24.736512 63.808042
3904 1 14.117237 26.461661 61.619466
3905 1 12.248634 24.690307 65.561621
3906 1 11.961744 22.774238 67.962357
3907 1 14.330872 26.610132 65.995185
3908 1 16.603572 25.166606 65.651479
3909 1 6.537077 19.589657 73.897869
3910 1 1.820453 28.407303 72.184909
3911 1 16.401145 28.369757 74.314286
3912 1 3.965565 28.501622 74.137478
3913 1 16.831338 0.268038 70.709981
3914 1 8.690930 6.395377 76.055900
3915 1 16.328939 24.450112 69.945598
3916 1 18.670495 27.964910 76.492944
3917 1 17.236206 23.938365 80.300236
3918 1 16.576430 30.574418 72.428405
3919 1 18.675829 26.686319 73.831420
3920 1 11.825135 0.557059 70.712945
3921 1 9.995890 28.362036 82.933708
3922 1 7.886018 29.648176 81.171891
3923 1 12.869339 28.315121 84.881670
3924 1 10.823780 0.890993 82.273262
3925 1 3.798667 31.322035 86.535403
3926 1 0.702225 21.210353 88.127180
3927 1 15.236228 28.957944 92.720102
3928 1 4.959777 29.516214 84.455081
3929 1 18.302585 22.484166 96.601596
3930 1 18.054811 19.543348 98.400252
3931 1 9.995419 22.857831 83.564689
3932 1 29.434757 28.630184 99.945092
3933 1 11.368945 20.275896 95.744852
3934 1 16.448135 24.605086 113.154861
3935 1 11.792038 22.065319 93.714182
3936 1 17.770602 21.903858 85.639888
3937 1 23.380039 16.565022 104.340248
3938 1 4.927246 0.177194 108.613978
3939 1 24.101351 24.056922 110.077527
3940 1 8.315859 23.704951 91.302624
3941 1 11.859312 12.234272 109.849562
3942 1 7.633624 22.138174 105.950167
3943 1 5.353975 10.243173 105.299246
3944 1 22.231683 28.901213 116.535946
3945 1 15.196181 29.088022 111.082937
3946 1 7.321367 2.374997 118.054069
3947 1 18.238749 19.824384 118.080140
3948 1 19.092860 18.826196 106.426103
3949 1 14.887486 23.692887 116.732379
3950 1 11.839432 3.949613 121.049303
3951 1 31.537017 30.810416 117.849222
3952 1 22.522679 26.303947 124.295926
3953 1 7.715670 26.412703 125.618570
3954 1 3.411036 1.719253 115.388388
3955 1 21.048737 17.059459 112.026673
3956 1 4.534457 32.129097 122.002845
3957 1 22.837425 26.636540 118.379540
3958 1 11.958187 31.211058 126.006884
3959 1 19.426658 2.026706 123.081184
3960 1 7.351777 21.506060 125.249232
3961 1 15.622478 27.183884 125.769378
3962 1 5.820714 20.844794 117.506125
3963 1 12.114667 22.556962 130.089257
3964 1 14.869230 23.280020 125.211917
3965 1 11.948279 24.884461 131.670864
3966 1 12.078962 26.445445 134.206548
3967 1 16.185748 24.652984 131.946173
3968 1 11.989210 26.471723 129.660539
3969 1 12.223578 28.885574 1.291238
3970 1 12.378930 30.539198 3.480935
3971 1 14.147598 28.292661 3.458754
3972 1 14.481688 30.521646 1.278358
3973 1 12.202782 28.641047 5.389674
3974 1 12.707038 30.829830 7.486677
3975 1 14.244923 28.615188 7.252312
3976 1 14.369599 30.636182 5.355769
3977 1 12.382435 28.636876 9.286827
3978 1 12.246175 30.689923 11.379279
3979 1 14.189933 28.698388 11.776550
3980 1 14.543302 30.738721 9.826125
3981 1 12.367918 28.848473 13.698346
3982 1 12.526535 30.938470 15.529427
3983 1 14.389634 28.645718 15.565499
3984 1 14.260224 30.906843 13.463160
3985 1 12.346098 28.111067 17.536626
3986 1 12.413267 30.162910 19.660471
3987 1 14.353381 28.520379 19.499936
3988 1 14.400196 30.446664 17.655861
3989 1 12.270880 28.432682 21.656272
3990 1 12.799179 30.842503 23.520639
3991 1 14.344136 28.419636 23.478629
3992 1 14.645898 30.569650 21.609337
3993 1 12.592970 28.436250 25.756769
3994 1 12.560803 30.884837 27.428296
3995 1 14.535763 28.598741 27.820943
3996 1 14.699242 30.848229 25.577088
3997 1 12.511507 28.363240 29.272398
3998 1 12.342134 30.235158 31.246759
3999 1 14.463765 28.428711 31.278276
4000 1 14.504190 30.663816 29.462597
4001 1 12.676950 28.648049 33.510304
4002 1 12.592209 30.636660 35.865747
4003 1 14.746879 28.476996 35.602543
4004 1 14.450446 30.620099 33.358313
4005 1 12.363472 28.533006 37.472244
4006 1 12.208450 30.889794 39.862351
4007 1 14.602692 28.749002 39.930486
4008 1 14.229725 30.539966 37.815735
4009 1 12.477240 28.686448 42.031316
4010 1 12.276087 30.803349 43.729182
4011 1 14.305967 28.823609 43.644229
4012 1 14.263001 30.799994 41.447756
4013 1 12.448164 28.331799 45.459566
4014 1 12.293732 30.906983 47.526913
4015 1 14.376268 28.496871 47.915695
4016 1 14.340229 30.523067 45.826659
4017 1 12.100780 28.511897 49.885552
4018 1 12.076766 30.379549 52.093204
4019 1 14.072805 28.487350 51.472569
4020 1 14.116258 30.467005 49.691495
4021 1 11.992372 28.444300 53.759234
4022 1 12.062827 30.496051 55.537022
4023 1 14.071408 28.714040 55.642045
4024 1 14.166439 30.633347 53.563438
4025 1 12.387804 28.748765 57.909566
4026 1 12.301749 30.662389 59.719215
4027 1 14.214524 28.315179 59.689877
4028 1 14.206150 30.700187 57.654029
4029 1 12.112197 28.665327 61.846506
4030 1 12.317368 30.746833 63.697150
4031 1 14.143793 28.723339 64.065178
4032 1 14.132964 30.277553 61.718501
4033 1 13.836577 30.532024 65.922220
4034 1 18.446124 32.269807 68.100721
4035 1 8.437750 4.451106 73.472178
4036 1 16.099984 28.771331 65.874360
4037 1 5.852554 4.112796 72.384607
4038 1 4.247278 0.218653 65.978691
4039 1 10.663367 24.074686 76.354875
4040 1 8.138162 3.884620 70.364145
4041 1 10.211827 30.724619 69.920390
4042 1 4.241796 30.608735 72.534487
4043 1 17.470467 0.058900 78.659498
4044 1 10.008142 1.227431 72.810502
4045 1 9.884492 28.862874 71.994800
4046 1 8.514729 2.549898 81.087524
4047 1 7.949890 27.690590 76.776730
4048 1 7.442086 2.053386 72.249527
4049 1 15.160126 31.755637 79.010512
4050 1 13.345477 30.741286 82.703157
4051 1 5.619286 32.239782 77.109357
4052 1 19.771228 2.714115 90.316708
4053 1 5.431479 29.580984 94.479948
4054 1 17.604470 31.392773 89.235795
4055 1 6.304880 27.643185 95.778767
4056 1 16.505277 31.988528 84.150636
4057 1 8.060533 28.290923 89.523611
4058 1 14.884989 7.418162 87.561380
4059 1 10.639455 24.638019 97.786211
4060 1 16.342969 22.863832 94.536773
4061 1 12.202788 26.858766 93.481204
4062 1 6.460122 25.024888 89.597041
4063 1 14.900509 27.074865 95.320576
4064 1 8.441389 1.559643 94.201874
4065 1 4.289357 27.651445 90.812095
4066 1 12.836355 27.158563 110.750177
4067 1 11.277889 1.201365 103.235172
4068 1 4.627002 3.352986 92.612382
4069 1 18.665223 18.139825 109.931885
4070 1 21.111289 26.374985 105.865747
4071 1 14.285377 28.840841 101.676802
4072 1 16.394902 17.343158 106.674877
4073 1 20.037600 17.814155 114.903964
4074 1 5.210073 30.225077 112.033400
4075 1 21.510537 28.522843 111.046523
4076 1 19.261795 26.404506 116.375526
4077 1 12.083386 22.983834 104.787108
4078 1 19.070553 7.622509 112.413952
4079 1 22.731249 18.943020 113.184757
4080 1 4.876431 14.717463 110.160804
4081 1 16.906283 2.515852 121.935091
4082 1 14.820414 3.169781 117.224302
4083 1 10.328574 2.278431 128.614821
4084 1 10.270930 6.058643 115.012327
4085 1 15.765520 28.610098 128.306032
4086 1 12.085011 0.078357 128.322901
4087 1 9.853730 30.518100 122.225404
4088 1 16.977617 3.858030 119.538653
4089 1 12.459231 27.660869 124.990369
4090 1 18.893762 1.962761 132.279247
4091 1 18.255806 27.742816 125.720001
4092 1 16.470397 1.835893 134.216008
4093 1 16.303718 28.491842 132.246017
4094 1 12.428730 30.878052 134.418073
4095 1 14.308523 28.799783 134.002284
4096 1 16.368369 32.540815 131.935111
4097 1 16.446691 32.660657 0.904647
4098 1 16.222918 2.049204 2.964741
4099 1 18.426557 0.195048 3.029740
4100 1 18.454740 2.029885 0.946310
4101 1 16.515635 0.363076 5.226279
4102 1 17.015290 2.400113 7.779866
4103 1 18.402686 0.072045 7.147427
4104 1 18.043867 2.467730 5.282198
4105 1 16.306555 32.430179 9.380441
4106 1 16.461607 1.762110 11.071086
4107 1 18.345471 32.371083 11.422309
4108 1 19.075653 1.893105 9.163970
4109 1 16.612429 0.437959 13.121096
4110 1 16.684354 1.846399 15.344331
4111 1 18.679713 0.059377 15.520639
4112 1 18.788126 2.127341 13.580610
4113 1 16.449784 32.650383 17.373293
4114 1 16.409476 1.910587 19.433791
4115 1 18.416721 32.519245 19.784880
4116 1 18.546910 1.884906 17.480184
4117 1 16.335203 0.114149 21.604610
4118 1 16.561488 2.140223 23.483469
4119 1 18.743770 32.320729 23.391004
4120 1 18.526851 1.910651 21.533572
4121 1 16.692441 0.131450 25.727062
4122 1 16.657831 2.288792 27.671704
4123 1 18.624984 32.502049 27.379961
4124 1 18.663497 2.118474 25.910415
4125 1 16.331864 32.523826 29.629880
4126 1 16.396933 1.977445 31.294854
4127 1 18.404957 0.065650 31.647489
4128 1 18.558992 1.728392 29.506262
4129 1 16.596757 32.290642 33.439877
4130 1 16.249839 1.568961 35.346966
4131 1 18.178800 32.636442 35.820342
4132 1 18.160905 1.853847 33.609464
4133 1 16.141805 32.532160 37.503972
4134 1 16.556476 1.751842 39.577605
4135 1 18.380500 32.346951 39.851860
4136 1 18.387588 1.579741 37.471338
4137 1 16.122071 32.640292 41.963153
4138 1 16.064919 1.975436 43.594594
4139 1 18.036285 0.435462 43.464817
4140 1 18.774570 2.300781 41.681087
4141 1 16.352744 0.009290 45.750050
4142 1 16.228919 2.047504 47.704270
4143 1 18.510714 0.073596 47.823397
4144 1 18.432652 1.978856 45.514190
4145 1 16.371387 0.056332 49.396952
4146 1 16.502745 2.078729 51.558923
4147 1 18.335233 0.242090 51.594621
4148 1 18.565002 2.256588 49.536640
4149 1 16.326078 32.653008 53.593355
4150 1 16.094154 1.862856 55.812338
4151 1 18.378137 32.379070 55.590466
4152 1 18.328809 1.989076 54.100515
4153 1 16.300886 0.046119 57.750209
4154 1 16.418672 2.029290 59.889746
4155 1 18.474364 32.526047 59.522021
4156 1 18.261606 2.179306 57.925948
4157 1 16.016567 0.031418 61.675126
4158 1 16.591700 1.614171 63.917652
4159 1 18.296817 32.301329 63.578378
4160 1 18.436257 1.473642 61.756157
4161 1 16.059196 30.700211 68.320778
4162 1 11.708586 6.663058 76.216872
4163 1 9.678232 0.265252 67.961200
4164 1 20.222926 32.552722 66.119305
4165 1 9.844783 31.552583 79.422713
4166 1 7.937398 0.144126 70.010299
4167 1 12.800753 2.332506 72.386168
4168 1 22.873094 4.608362 71.757048
4169 1 14.467412 29.863595 77.275430
4170 1 23.889368 3.717674 85.044237
4171 1 22.343955 26.651062 74.311172
4172 1 23.059667 26.352801 78.117015
4173 1 23.055284 29.487465 78.795232
4174 1 4.962728 4.020437 78.814099
4175 1 15.312741 30.039708 90.313906
4176 1 20.244155 31.833050 74.983714
4177 1 19.797938 1.187761 79.672680
4178 1 24.893104 27.097493 84.191162
4179 1 12.950516 22.947027 90.719858
4180 1 15.966270 27.498528 90.364004
4181 1 21.083393 0.146395 82.402182
4182 1 13.880133 2.625640 88.312202
4183 1 21.217206 25.857710 97.131933
4184 1 19.071417 27.120076 89.007954
4185 1 9.000085 0.049267 85.915544
4186 1 13.175649 30.730499 89.452997
4187 1 16.954363 32.404325 96.637125
4188 1 26.635339 25.222650 85.172570
4189 1 18.519414 25.361590 109.790320
4190 1 16.189413 27.304130 82.101947
4191 1 14.211545 24.525830 103.560746
4192 1 11.836231 31.794562 95.975351
4193 1 19.630938 26.501894 95.050886
4194 1 16.445849 28.153066 102.788935
4195 1 15.833932 22.588998 114.285307
4196 1 12.084494 32.316098 91.915607
4197 1 21.773260 22.390411 120.783689
4198 1 10.851933 2.479265 108.325795
4199 1 15.014287 21.167618 112.022040
4200 1 19.059567 2.267914 106.224970
4201 1 16.580331 25.965339 107.913177
4202 1 15.261232 30.553274 118.282140
4203 1 12.245439 30.384704 121.450091
4204 1 8.713631 8.411489 97.940898
4205 1 17.306296 0.222830 123.294749
4206 1 14.531560 3.590753 114.148626
4207 1 18.122353 29.960656 118.398945
4208 1 19.521517 29.658640 108.932268
4209 1 19.603309 1.417334 117.484898
4210 1 23.343274 5.315851 123.791346
4211 1 6.111670 3.350423 125.769879
4212 1 12.587585 8.280770 123.883822
4213 1 18.062049 31.017861 128.313204
4214 1 10.108337 30.754994 119.492137
4215 1 10.524602 6.203287 123.926509
4216 1 14.680494 6.552301 132.119497
4217 1 20.097531 0.490710 128.209034
4218 1 12.133716 30.699280 130.299329
4219 1 27.278317 4.179423 122.363123
4220 1 20.684226 2.100796 130.317377
4221 1 20.661431 32.651917 132.344133
4222 1 16.294505 4.633924 132.173583
4223 1 18.587301 32.554201 134.235520
4224 1 16.408341 6.261373 129.820180
4225 1 16.231307 3.897646 0.874184
4226 1 16.388278 5.988434 3.242757
4227 1 18.399240 4.418543 2.970980
4228 1 18.559267 5.892173 0.997267
4229 1 16.275649 4.219646 5.288413
4230 1 16.274563 6.549914 7.293173
4231 1 18.492604 4.714468 7.369223
4232 1 18.605415 6.224492 5.040206
4233 1 16.858099 4.589738 9.141195
4234 1 16.705293 6.359939 11.641595
4235 1 18.555999 3.811531 11.187133
4236 1 18.395145 6.505576 9.256853
4237 1 16.873339 3.971190 13.483286
4238 1 16.110602 5.824906 15.451189
4239 1 18.582464 3.979696 15.782385
4240 1 18.652653 5.872946 13.532688
4241 1 16.558014 3.772157 17.490667
4242 1 16.548000 6.145363 19.424129
4243 1 18.617508 3.845162 19.590562
4244 1 18.573785 6.310073 17.294591
4245 1 16.556352 4.229073 21.317366
4246 1 16.682075 6.215399 23.483667
4247 1 18.764471 4.341174 23.519469
4248 1 18.461604 6.061048 21.428601
4249 1 16.719909 4.052848 25.696622
4250 1 16.720379 6.148167 27.424626
4251 1 18.675635 4.100623 27.616259
4252 1 18.869734 6.432982 25.152112
4253 1 16.608737 4.105073 29.810634
4254 1 16.821388 6.212540 31.388942
4255 1 18.565279 4.073558 31.677885
4256 1 18.755435 6.264673 29.424252
4257 1 16.422583 4.149176 33.683018
4258 1 16.473941 5.976962 35.791036
4259 1 18.581490 4.505160 35.604753
4260 1 18.925671 6.141271 33.412890
4261 1 16.739596 4.025857 37.623766
4262 1 16.442870 6.256403 39.459792
4263 1 18.359298 4.114020 39.617501
4264 1 18.556343 6.088061 37.884295
4265 1 16.479039 4.205451 41.467432
4266 1 16.574489 6.315044 43.562549
4267 1 18.564731 4.285732 43.427466
4268 1 18.371082 6.234057 41.754708
4269 1 16.795078 4.017084 45.467346
4270 1 16.295594 6.181185 47.387886
4271 1 18.505102 4.124427 47.477577
4272 1 18.732474 6.001885 45.688817
4273 1 16.577174 4.030208 49.361724
4274 1 16.372807 5.980579 51.399105
4275 1 18.501440 3.974299 51.799956
4276 1 18.589484 5.820445 49.454450
4277 1 16.603689 4.082102 53.583643
4278 1 16.571619 5.996773 55.411282
4279 1 18.416885 4.098297 55.691852
4280 1 18.352585 6.115373 53.588974
4281 1 16.245935 3.886021 57.672995
4282 1 16.023271 5.927382 59.670208
4283 1 18.046951 4.443357 59.914269
4284 1 18.175946 5.974519 57.478751
4285 1 16.119739 3.844771 61.944445
4286 1 16.141108 5.646831 64.125571
4287 1 18.217854 3.540094 63.743075
4288 1 17.781716 5.910535 61.946672
4289 1 16.643314 3.872906 66.014612
4290 1 16.285874 4.282123 69.670815
4291 1 15.856893 32.183460 65.767584
4292 1 18.013934 6.225951 65.799019
4293 1 6.494214 8.810588 80.518238
4294 1 5.221709 12.943233 76.314956
4295 1 16.409977 6.370753 71.783779
4296 1 18.075323 2.171629 69.599755
4297 1 14.904845 0.170777 76.686701
4298 1 10.132584 8.533354 71.709376
4299 1 18.159427 1.552840 66.055452
4300 1 7.919534 3.606994 84.006313
4301 1 16.000293 8.175809 82.110744
4302 1 12.655854 31.899150 80.436504
4303 1 3.605726 4.324473 83.619190
4304 1 7.796676 0.642047 83.229476
4305 1 17.705109 9.588685 90.153339
4306 1 1.849486 6.826873 77.795360
4307 1 13.049038 2.973574 77.243309
4308 1 20.766264 2.237608 93.127605
4309 1 7.979465 10.475335 92.635684
4310 1 8.866554 4.512929 89.164660
4311 1 13.393454 5.968961 93.142771
4312 1 18.649142 4.629343 91.315772
4313 1 16.094995 24.864602 99.311943
4314 1 8.676740 8.436843 94.173800
4315 1 16.866924 0.608137 86.298313
4316 1 16.397729 7.574005 98.281054
4317 1 16.692974 1.843274 82.308565
4318 1 6.704022 10.307118 89.739970
4319 1 19.266880 6.773725 102.946769
4320 1 9.955883 31.910357 89.517711
4321 1 16.753912 30.300490 95.198973
4322 1 16.797806 1.038687 107.540795
4323 1 17.696514 32.539912 101.983123
4324 1 15.752092 0.493800 89.019385
4325 1 6.319777 27.666042 102.206401
4326 1 18.884437 32.601773 104.374131
4327 1 7.826365 29.852308 106.297893
4328 1 15.584365 30.278308 115.704327
4329 1 13.359360 7.977718 115.457031
4330 1 19.331158 1.151386 111.649885
4331 1 21.235668 5.389565 112.948792
4332 1 11.919172 32.142110 112.107271
4333 1 15.852381 11.097704 117.304655
4334 1 23.901957 14.808346 124.354135
4335 1 18.965629 2.653137 108.794446
4336 1 11.385777 0.159264 120.882524
4337 1 11.891206 4.804336 109.260037
4338 1 22.605493 2.560382 128.234362
4339 1 22.864041 7.291492 118.319332
4340 1 24.005502 10.913070 115.756903
4341 1 5.913307 1.719394 128.004863
4342 1 17.551190 32.427695 117.079903
4343 1 21.076423 5.718651 117.314838
4344 1 24.004969 12.478421 120.877897
4345 1 12.809276 6.366590 126.060568
4346 1 10.337063 6.012329 132.746121
4347 1 14.419570 0.179784 130.266667
4348 1 18.710901 9.246663 125.442936
4349 1 18.308036 2.460230 128.533668
4350 1 16.329222 6.463354 134.592955
4351 1 18.293854 4.008767 133.888875
4352 1 20.347873 4.401256 128.953049
4353 1 16.405544 8.590239 1.190869
4354 1 16.397742 10.482612 3.470201
4355 1 18.485150 8.419160 3.375695
4356 1 18.267608 10.630231 1.410076
4357 1 16.514858 8.366406 5.033540
4358 1 16.503482 10.210517 7.398395
4359 1 18.407431 8.110320 7.325683
4360 1 18.597030 10.228566 5.159211
4361 1 16.425930 8.439945 9.377136
4362 1 16.790330 10.369742 11.365145
4363 1 18.715658 8.320540 11.371633
4364 1 18.606924 10.435555 9.290855
4365 1 16.323889 8.361596 13.418814
4366 1 16.578531 10.604663 15.277070
4367 1 18.294987 8.084909 15.172942
4368 1 18.437154 10.387372 13.398355
4369 1 16.461289 8.216200 17.552842
4370 1 16.364570 10.315363 19.556465
4371 1 18.529153 7.895377 19.312301
4372 1 18.372229 9.920551 17.261177
4373 1 16.477076 8.253353 21.360159
4374 1 16.732974 10.524650 23.247754
4375 1 18.543699 8.435040 23.091742
4376 1 18.538104 10.317540 21.252795
4377 1 16.630190 8.215719 25.635938
4378 1 16.615914 10.352411 27.449314
4379 1 18.740412 8.481436 27.310712
4380 1 18.773266 10.455585 25.651302
4381 1 16.690475 8.224389 29.206845
4382 1 16.497393 10.266758 31.335233
4383 1 18.303378 8.166443 31.443287
4384 1 18.529251 10.564658 29.442706
4385 1 16.460546 8.010367 33.343359
4386 1 16.625064 10.298952 35.289682
4387 1 18.385384 8.363575 35.326112
4388 1 18.561571 10.303198 33.270785
4389 1 16.499144 8.555011 37.300230
4390 1 16.389108 10.479261 39.253355
4391 1 18.414813 8.258896 39.403124
4392 1 18.474792 10.202462 37.558830
4393 1 16.373871 8.273288 41.413404
4394 1 16.407816 10.502995 43.210886
4395 1 18.346359 8.307453 43.902607
4396 1 18.672450 9.910755 41.375815
4397 1 16.357431 8.368292 45.377731
4398 1 16.145118 9.933061 47.592955
4399 1 18.377684 7.817176 47.569858
4400 1 18.687643 10.491298 45.403148
4401 1 16.287594 8.130086 49.657217
4402 1 16.278984 10.209914 51.552136
4403 1 18.240131 8.100862 51.665393
4404 1 18.176610 10.167352 49.588927
4405 1 16.180260 8.306403 53.377269
4406 1 16.063643 10.047732 55.480109
4407 1 18.245839 8.099665 55.458934
4408 1 18.373576 9.971988 53.293626
4409 1 16.321500 8.224790 57.603091
4410 1 16.058589 10.350523 59.585372
4411 1 18.299013 7.759363 60.026896
4412 1 18.338237 9.843131 57.531367
4413 1 16.146191 8.192302 61.463084
4414 1 16.012109 10.428011 63.816630
4415 1 18.254308 7.858663 63.823025
4416 1 18.243690 9.977497 61.808947
4417 1 7.653433 6.461775 71.816249
4418 1 16.163030 1.287256 68.104804
4419 1 12.454677 32.484068 73.561380
4420 1 20.058715 8.439312 65.968463
4421 1 13.675453 32.471242 68.229710
4422 1 14.196736 10.708153 73.896259
4423 1 22.444557 2.471829 70.304321
4424 1 22.018523 9.917122 74.478956
4425 1 8.999324 3.785089 77.291239
4426 1 22.734301 0.307101 75.448992
4427 1 8.244865 9.483997 78.520395
4428 1 1.726453 8.724373 75.833933
4429 1 32.670845 14.086571 83.242977
4430 1 16.229479 16.905627 83.037431
4431 1 20.421527 26.616827 71.998096
4432 1 26.938849 30.289244 74.375046
4433 1 17.271580 4.533016 83.711588
4434 1 19.747285 14.144058 86.551673
4435 1 17.214342 2.967026 92.934927
4436 1 17.698784 6.885998 87.261154
4437 1 20.880469 8.055367 90.583117
4438 1 22.426960 7.471378 86.594244
4439 1 16.836323 7.325711 89.521435
4440 1 16.986761 9.246095 94.106696
4441 1 10.984569 3.469031 81.875753
4442 1 20.581697 9.435871 97.359495
4443 1 23.907612 9.351794 100.464472
4444 1 18.194604 12.522190 89.954281
4445 1 17.340263 32.541868 99.453454
4446 1 17.334323 13.415481 97.604750
4447 1 16.731504 3.277280 95.451326
4448 1 6.307232 5.184673 81.979196
4449 1 19.364922 8.305106 95.286910
4450 1 16.967466 6.940117 106.171014
4451 1 18.109798 14.052384 105.889904
4452 1 9.860597 9.663749 111.910312
4453 1 10.519374 8.874549 87.189272
4454 1 22.608208 7.954009 95.242891
4455 1 28.450663 15.187037 107.065533
4456 1 24.941815 23.190846 102.089283
4457 1 10.874402 8.525586 96.140736
4458 1 17.396916 3.755042 114.269965
4459 1 14.340754 16.075548 111.455699
4460 1 10.654455 6.573339 98.223119
4461 1 19.226200 29.170689 115.839900
4462 1 20.074149 11.902042 116.254618
4463 1 17.851927 13.394105 117.407197
4464 1 17.436563 8.236868 115.852578
4465 1 22.012282 4.997712 119.616534
4466 1 15.273701 10.092543 115.217830
4467 1 16.221530 5.804668 121.800691
4468 1 16.799635 6.407148 126.159753
4469 1 18.470447 8.510411 130.068913
4470 1 10.093538 6.293454 129.074290
4471 1 24.071882 12.702417 126.089959
4472 1 15.270780 14.326267 117.089585
4473 1 8.615426 14.525118 129.838525
4474 1 6.176309 12.396456 130.041383
4475 1 16.425892 10.730167 125.820338
4476 1 13.915943 13.399522 126.137908
4477 1 18.461199 11.052794 131.820842
4478 1 16.394357 10.371690 134.314049
4479 1 16.915226 8.660818 132.338326
4480 1 18.603413 12.211790 134.242323
4481 1 16.632539 12.523977 1.361413
4482 1 16.210333 14.627665 3.103748
4483 1 18.513225 12.343638 3.257256
4484 1 18.388686 14.544992 1.118461
4485 1 16.279784 12.502170 5.377071
4486 1 16.586589 14.239554 7.338361
4487 1 18.416101 12.118784 7.262414
4488 1 18.386981 14.448767 4.962615
4489 1 16.709254 12.398607 9.437148
4490 1 16.605530 14.477960 11.058882
4491 1 18.310749 12.334634 11.866984
4492 1 18.689113 14.324699 9.489769
4493 1 16.134422 12.367559 13.322897
4494 1 16.621936 14.210931 15.561700
4495 1 18.711214 11.948290 15.541784
4496 1 18.689718 14.163930 13.415896
4497 1 16.463497 12.398688 17.352786
4498 1 16.427065 14.302074 19.787354
4499 1 18.349649 12.253057 19.441095
4500 1 18.639606 14.230085 17.653699
4501 1 16.073175 12.336158 21.442713
4502 1 16.466767 14.331397 23.610453
4503 1 18.905919 12.671574 23.900573
4504 1 18.364906 14.264205 21.686332
4505 1 16.455201 12.433598 25.347914
4506 1 16.318434 13.849081 27.497680
4507 1 18.381096 12.563774 27.630854
4508 1 18.520363 14.533751 26.053818
4509 1 16.268709 12.157623 29.417755
4510 1 16.801741 14.153507 31.148613
4511 1 18.812123 12.247696 31.542660
4512 1 18.752384 14.549820 29.339912
4513 1 16.506069 12.251077 33.278286
4514 1 16.437574 14.572607 34.993281
4515 1 18.360704 12.694668 35.713138
4516 1 18.645978 14.460501 33.322742
4517 1 16.360231 12.370981 37.371103
4518 1 16.015142 14.283603 39.492673
4519 1 18.381418 12.356162 39.640695
4520 1 18.179654 14.284832 37.933607
4521 1 16.323745 12.131164 41.146413
4522 1 16.245005 14.525964 43.465193
4523 1 18.061150 12.492822 42.949295
4524 1 18.079254 14.657103 41.072561
4525 1 16.357113 12.156692 45.441224
4526 1 16.160929 14.424978 47.248187
4527 1 18.351618 12.373400 47.282913
4528 1 18.242687 14.445385 45.468165
4529 1 16.178614 12.073395 49.646699
4530 1 16.145812 14.395132 51.219510
4531 1 18.075578 12.450070 51.432760
4532 1 18.174869 14.150577 49.055302
4533 1 16.383348 12.332784 53.477738
4534 1 16.427371 14.295867 55.848827
4535 1 18.225322 11.750747 55.602163
4536 1 18.422715 14.268022 53.584304
4537 1 16.226298 12.159394 57.402083
4538 1 16.196149 14.154923 59.657154
4539 1 18.133795 12.094145 59.453567
4540 1 18.393206 14.503345 57.521065
4541 1 16.369775 12.077123 61.717429
4542 1 15.900892 14.378077 63.771183
4543 1 18.169646 12.187082 63.781162
4544 1 18.104168 14.368455 61.743467
4545 1 14.054191 8.152389 67.913472
4546 1 21.930914 14.347475 69.725938
4547 1 14.280430 5.818381 66.129873
4548 1 15.971140 12.413793 65.791112
4549 1 14.225682 6.067994 69.788868
4550 1 14.706494 14.327531 73.875154
4551 1 20.269142 10.201556 67.723751
4552 1 16.471619 8.765422 70.111010
4553 1 14.188413 8.638521 71.918475
4554 1 12.016286 20.361976 73.457239
4555 1 20.219517 5.759723 78.982706
4556 1 21.514108 11.957989 72.571867
4557 1 18.909565 10.451599 73.304387
4558 1 17.393375 12.986786 82.059415
4559 1 13.682363 13.588871 80.548721
4560 1 9.925586 17.830410 76.644405
4561 1 12.595522 13.441242 84.603447
4562 1 17.277136 20.912717 91.520971
4563 1 8.250900 11.655135 83.734261
4564 1 22.761487 11.366715 79.883187
4565 1 11.290858 6.116306 81.323335
4566 1 13.466964 4.235591 83.088482
4567 1 17.674550 11.441339 92.604243
4568 1 12.891456 18.983047 89.649447
4569 1 25.958953 14.528188 96.526550
4570 1 27.833354 23.878531 105.980885
4571 1 26.790857 9.831124 79.805294
4572 1 16.809525 14.420020 92.627812
4573 1 16.861015 10.507048 100.108964
4574 1 10.425905 17.204200 99.953231
4575 1 19.784044 11.620244 95.203114
4576 1 21.203671 17.874157 105.366501
4577 1 17.737506 12.172233 101.934860
4578 1 20.700472 0.690658 98.987113
4579 1 27.600751 29.013628 105.672505
4580 1 7.600147 6.612143 101.967482
4581 1 14.561994 10.792021 101.957309
4582 1 17.561663 13.271680 108.696503
4583 1 19.260486 8.478721 104.612429
4584 1 16.346766 18.805428 112.271108
4585 1 15.570965 8.245022 110.756548
4586 1 13.930625 21.548284 109.431072
4587 1 15.886836 31.079776 108.124809
4588 1 17.192400 4.971535 109.610792
4589 1 7.156350 3.473693 121.304094
4590 1 18.773314 12.759370 113.750106
4591 1 20.827960 20.049622 119.636575
4592 1 16.951237 6.106252 112.477015
4593 1 18.836051 17.750400 120.035443
4594 1 15.917058 23.714678 110.565707
4595 1 15.339469 25.396984 119.113788
4596 1 19.357829 15.637236 121.555866
4597 1 10.628574 28.357916 123.395326
4598 1 15.665657 7.326667 119.559748
4599 1 8.516823 12.299498 128.093157
4600 1 17.260334 11.489962 119.771212
4601 1 8.890182 5.931066 126.065188
4602 1 18.199197 23.148381 131.791884
4603 1 15.992678 20.652740 128.413723
4604 1 15.046206 18.029433 127.723103
4605 1 12.733369 10.498603 130.249350
4606 1 18.310902 18.508179 132.116105
4607 1 16.638296 14.635039 134.036828
4608 1 21.859572 16.087353 129.870055
4609 1 16.795651 16.600883 1.281826
4610 1 16.229573 18.374477 3.255196
4611 1 18.506455 16.435577 3.219689
4612 1 18.594252 18.767619 1.183699
4613 1 16.493711 16.318814 5.507337
4614 1 16.537394 18.886761 7.292044
4615 1 18.393615 16.230224 7.468330
4616 1 18.072279 18.611482 5.055697
4617 1 16.610840 16.649708 9.232903
4618 1 16.309605 18.280121 11.375912
4619 1 18.446926 16.370634 11.726751
4620 1 18.809100 18.186066 9.754586
4621 1 16.436309 16.685990 13.426100
4622 1 16.467607 18.374887 15.499522
4623 1 18.682928 16.207684 15.660494
4624 1 18.538959 18.310839 13.641915
4625 1 16.136881 16.289200 17.950126
4626 1 16.514215 18.308594 19.715417
4627 1 18.467851 16.125819 19.600818
4628 1 18.270506 17.993528 17.421957
4629 1 16.430048 16.330718 21.440350
4630 1 16.427689 18.130781 23.591364
4631 1 18.437856 16.548865 23.510190
4632 1 18.859470 18.499067 21.487717
4633 1 16.441312 16.226064 25.850832
4634 1 16.373692 18.471920 27.575287
4635 1 18.278715 16.707768 27.731134
4636 1 18.399534 18.364194 25.458265
4637 1 16.254125 16.186193 29.690195
4638 1 16.349353 18.507039 31.272653
4639 1 18.620478 16.550696 31.325766
4640 1 18.618693 18.582761 29.603870
4641 1 16.360435 16.583156 33.299633
4642 1 16.729749 18.376937 35.370232
4643 1 18.414263 16.445196 35.180473
4644 1 18.346174 18.384509 33.215212
4645 1 16.204260 16.167998 37.555391
4646 1 16.474023 18.442722 39.351802
4647 1 18.263362 16.622789 39.301703
4648 1 18.475013 18.467571 37.292459
4649 1 16.269156 16.476879 41.139616
4650 1 16.556044 18.378338 43.176439
4651 1 18.372928 16.069540 43.274105
4652 1 18.677764 18.596993 41.381713
4653 1 16.482680 16.434896 45.209868
4654 1 16.504355 18.431989 47.622962
4655 1 18.518704 16.296219 47.419177
4656 1 18.625801 18.009174 45.217171
4657 1 16.390460 16.504608 49.382277
4658 1 16.275667 18.552767 51.523837
4659 1 18.123957 16.112027 51.347959
4660 1 18.507606 18.469700 49.502562
4661 1 15.861315 16.023310 53.458408
4662 1 16.311736 18.314558 55.988051
4663 1 18.359626 16.260426 55.566310
4664 1 17.687345 17.915237 53.577918
4665 1 16.244894 16.318564 57.730452
4666 1 16.555349 18.332731 59.672991
4667 1 18.179368 16.281403 59.753081
4668 1 18.549683 18.420881 57.702385
4669 1 16.311125 16.309746 61.721286
4670 1 15.758480 18.577920 63.598976
4671 1 18.228684 16.358913 63.706970
4672 1 18.145002 18.199644 61.781312
4673 1 16.276639 16.224418 65.589988
4674 1 12.240056 18.475906 67.836743
4675 1 14.242169 16.627064 67.761715
4676 1 18.346182 18.444304 65.175309
4677 1 20.036486 18.073819 67.498544
4678 1 10.418846 20.904612 71.539492
4679 1 18.050649 12.156531 67.277278
4680 1 18.056703 22.419384 69.839390
4681 1 19.222103 14.482258 79.176142
4682 1 16.356708 14.897476 76.179522
4683 1 13.430349 1.823030 81.345694
4684 1 18.709916 15.138445 73.649738
4685 1 12.725756 12.293170 77.953620
4686 1 12.169539 15.873729 86.521695
4687 1 18.847611 5.323809 74.387236
4688 1 17.969147 9.689163 80.841956
4689 1 26.510021 6.594193 78.764712
4690 1 12.066393 15.356466 80.861829
4691 1 24.403233 21.987501 76.492467
4692 1 7.055289 22.248578 74.571203
4693 1 24.943485 17.907890 98.175643
4694 1 9.948915 15.692108 82.270772
4695 1 17.117122 12.534399 95.077041
4696 1 21.169613 15.581839 83.115866
4697 1 24.402278 15.010456 94.154165
4698 1 20.433977 17.343794 89.840423
4699 1 18.944648 21.610659 89.323638
4700 1 21.543190 20.082560 89.133188
4701 1 18.244139 16.687808 104.571176
4702 1 22.077282 16.816884 94.778058
4703 1 22.906899 13.331751 98.533128
4704 1 14.772368 23.367843 92.733811
4705 1 18.462869 9.495312 107.243240
4706 1 14.325912 6.155678 112.295368
4707 1 28.404445 11.835484 103.846911
4708 1 16.741328 23.206805 104.702277
4709 1 21.202215 14.663890 106.959201
4710 1 9.321107 2.963598 112.588770
4711 1 27.268005 21.934933 116.194290
4712 1 17.259569 21.234445 110.584805
4713 1 27.892874 17.643908 111.217076
4714 1 29.346966 22.434099 114.375741
4715 1 21.489034 12.936586 125.653349
4716 1 18.148089 11.122228 104.471857
4717 1 13.191059 15.601502 116.087070
4718 1 19.060295 20.025244 115.533556
4719 1 25.043182 17.652132 115.154780
4720 1 24.736800 20.124216 116.223096
4721 1 11.117235 18.776818 113.678654
4722 1 20.392803 20.394706 128.765139
4723 1 26.550438 20.383022 125.671591
4724 1 18.452984 10.124013 114.089070
4725 1 15.930070 24.669204 122.891401
4726 1 15.868229 19.903382 122.404387
4727 1 17.818489 17.134937 116.824382
4728 1 22.302903 16.588077 119.366573
4729 1 18.517085 14.117987 132.302587
4730 1 17.820846 0.102933 126.315225
4731 1 14.635794 20.914279 133.921752
4732 1 14.121941 22.717805 128.319955
4733 1 16.041594 30.470441 130.158467
4734 1 16.780278 16.475748 131.726623
4735 1 20.360686 18.415935 134.166289
4736 1 12.800232 24.547423 127.025054
4737 1 16.373663 20.373388 1.161212
4738 1 16.495379 22.542979 2.855250
4739 1 18.290298 20.669109 3.256261
4740 1 18.331267 22.599247 0.475237
4741 1 16.413138 20.560129 5.353280
4742 1 16.153213 22.773173 7.500074
4743 1 18.484107 20.500089 7.550297
4744 1 18.433329 22.594269 5.541378
4745 1 16.628905 20.451806 9.641329
4746 1 16.299028 22.636840 11.579849
4747 1 18.527572 20.484171 11.348124
4748 1 18.261272 22.501283 9.277654
4749 1 16.446951 20.210199 13.238025
4750 1 16.392542 22.061704 15.680735
4751 1 18.565083 20.204328 15.360218
4752 1 18.353256 22.203726 13.375637
4753 1 16.454252 19.941941 17.768362
4754 1 16.489132 22.254622 19.632550
4755 1 18.648965 20.412051 19.318341
4756 1 18.238736 22.582212 17.762875
4757 1 16.757470 20.100423 21.716154
4758 1 16.272920 22.701880 23.199323
4759 1 18.478577 20.252207 23.787617
4760 1 18.683181 22.723397 21.843395
4761 1 16.414097 20.163110 25.565629
4762 1 16.481145 22.386655 27.427715
4763 1 18.406077 20.447865 27.386373
4764 1 18.337737 22.257328 25.412275
4765 1 16.441663 20.400314 29.266975
4766 1 16.407818 22.266366 31.653257
4767 1 18.192069 20.512667 31.373179
4768 1 18.609585 22.573037 29.435415
4769 1 16.359519 20.374783 33.672267
4770 1 16.216480 22.653814 35.493969
4771 1 18.593923 20.682108 35.647510
4772 1 18.278589 22.446002 33.870999
4773 1 16.433640 20.489247 37.373756
4774 1 16.694964 22.617655 39.110777
4775 1 18.543354 20.510940 39.448849
4776 1 18.968780 22.502454 37.530841
4777 1 16.325933 20.453810 41.061939
4778 1 15.929501 22.378695 43.468509
4779 1 18.302036 20.396992 43.341828
4780 1 18.734302 22.413240 41.765246
4781 1 16.724562 19.927352 45.276747
4782 1 16.428590 21.874808 47.758449
4783 1 18.706444 20.196743 47.303213
4784 1 18.542193 22.214630 45.129298
4785 1 16.474970 20.275374 49.761362
4786 1 16.457083 22.417018 51.616368
4787 1 18.463144 20.095261 51.509563
4788 1 18.404771 22.398740 49.448726
4789 1 16.374451 20.210994 53.493811
4790 1 16.522861 21.858769 55.459379
4791 1 18.369148 20.016302 55.577669
4792 1 18.367238 22.072889 53.398106
4793 1 16.375536 20.396842 57.412742
4794 1 16.298194 22.481622 59.878236
4795 1 18.195257 20.537793 59.734717
4796 1 18.391341 22.078402 57.627436
4797 1 16.149217 20.090838 61.581829
4798 1 16.184493 22.423110 63.289256
4799 1 18.007279 20.792056 63.416000
4800 1 18.233140 22.700055 61.590215
4801 1 16.133144 18.614819 67.180330
4802 1 14.099321 24.650739 71.827480
4803 1 22.448287 26.672598 69.742988
4804 1 16.198641 20.435416 65.226544
4805 1 16.310401 22.655788 67.492096
4806 1 5.463861 28.429715 76.134665
4807 1 16.251249 26.766064 71.785368
4808 1 20.024449 18.612509 71.073924
4809 1 9.657022 16.877650 79.225186
4810 1 19.985507 29.788619 82.834987
4811 1 18.143214 18.960721 74.415110
4812 1 22.681735 16.157352 71.700551
4813 1 16.524205 18.440189 71.693967
4814 1 8.171686 19.011039 78.511815
4815 1 19.924053 28.089531 78.700850
4816 1 20.622558 16.307232 80.304005
4817 1 16.066821 19.265790 84.547871
4818 1 9.829234 26.869274 74.268367
4819 1 13.847337 22.498462 77.535088
4820 1 15.733887 19.431705 81.811410
4821 1 13.830526 18.634704 77.574745
4822 1 14.789647 18.517619 96.279269
4823 1 22.296415 23.702963 92.954201
4824 1 10.471903 32.262549 76.832433
4825 1 22.210774 18.884980 92.105781
4826 1 17.874110 23.726652 91.655889
4827 1 19.704739 13.560586 83.663378
4828 1 6.047890 22.640006 90.797058
4829 1 11.820218 27.094280 90.727251
4830 1 27.825121 27.284341 102.559947
4831 1 21.529356 21.127151 94.133389
4832 1 22.454122 23.720915 102.256046
4833 1 22.267055 30.046637 98.359662
4834 1 1.027410 25.422593 88.970609
4835 1 21.720201 27.608151 99.588995
4836 1 18.349281 15.949564 108.095626
4837 1 15.981953 3.250545 111.666469
4838 1 16.700442 9.412893 102.617900
4839 1 16.090610 14.682083 112.430711
4840 1 25.892183 11.260228 110.337479
4841 1 11.323944 17.864949 108.312184
4842 1 13.963064 17.014028 108.039181
4843 1 17.465890 26.662804 118.636263
4844 1 13.060417 7.468814 110.077092
4845 1 13.571367 18.771051 110.256721
4846 1 28.767224 19.975137 115.476646
4847 1 26.665673 4.028386 119.816548
4848 1 20.247561 22.684668 126.730680
4849 1 25.580528 21.762279 106.667478
4850 1 15.143660 20.041561 118.221022
4851 1 20.822190 21.095955 113.441059
4852 1 20.799814 24.405182 118.212984
4853 1 19.540465 22.124660 118.963504
4854 1 18.983823 15.843749 130.533765
4855 1 29.184860 20.547785 112.563187
4856 1 10.982050 15.860007 123.158481
4857 1 20.312244 24.949138 131.646217
4858 1 10.652963 26.662922 126.933905
4859 1 20.683412 11.915185 127.904762
4860 1 20.351327 22.712197 129.791593
4861 1 23.214494 23.997618 119.727884
4862 1 14.256903 24.471643 133.915080
4863 1 17.944319 20.572605 133.587880
4864 1 14.191926 22.715865 131.718414
4865 1 16.803384 24.975275 0.979743
4866 1 16.524862 26.863459 3.174845
4867 1 18.404572 24.621884 2.938127
4868 1 18.620360 26.849921 0.985336
4869 1 16.583569 24.578505 5.050620
4870 1 16.256591 26.336279 7.158419
4871 1 18.200955 24.734634 7.541332
4872 1 18.238018 26.534743 5.247332
4873 1 16.283210 24.668790 9.697622
4874 1 16.335229 26.940905 11.364454
4875 1 18.321150 24.580603 11.911282
4876 1 18.463812 26.478635 9.367330
4877 1 16.346254 24.199191 13.864117
4878 1 16.295879 26.316975 15.490281
4879 1 18.699172 24.399556 15.741206
4880 1 18.215949 26.366026 13.817174
4881 1 16.367621 24.571309 17.617818
4882 1 16.583345 26.348589 19.512261
4883 1 18.582568 24.397804 19.372409
4884 1 18.187768 26.456044 17.299228
4885 1 16.606631 24.527380 21.446382
4886 1 16.390671 26.421024 23.689968
4887 1 18.665025 24.930037 23.631139
4888 1 18.796041 26.283412 21.099121
4889 1 16.650817 24.382034 25.634285
4890 1 16.506077 26.712461 27.810314
4891 1 18.266531 24.482022 27.706886
4892 1 18.130326 26.548662 25.994707
4893 1 16.577644 24.500125 29.760583
4894 1 16.505356 26.435436 31.493392
4895 1 18.797370 24.040356 31.921770
4896 1 18.830285 26.350088 29.683087
4897 1 16.345389 24.457231 33.568240
4898 1 16.458523 26.763590 35.651906
4899 1 18.173954 24.909399 35.607559
4900 1 18.612570 26.210143 33.413007
4901 1 16.487467 24.701716 37.544870
4902 1 16.439971 26.745688 39.899190
4903 1 18.357506 24.728405 39.753724
4904 1 18.016255 26.853532 37.593252
4905 1 16.452930 23.979153 41.665742
4906 1 16.430631 26.308782 43.749789
4907 1 18.605940 24.256734 43.801728
4908 1 18.087052 26.429924 42.050622
4909 1 16.111464 24.331373 45.619150
4910 1 16.145629 26.285612 47.551741
4911 1 18.396650 24.083970 47.463826
4912 1 18.580520 26.300110 45.961070
4913 1 16.315616 24.360096 49.418951
4914 1 16.238264 26.618432 51.743896
4915 1 18.150995 24.427002 51.348994
4916 1 18.169039 26.532681 49.943742
4917 1 16.653246 24.034662 53.797712
4918 1 16.002977 26.362189 55.787431
4919 1 18.560073 23.975289 55.764346
4920 1 18.260908 26.378126 54.027744
4921 1 16.383550 24.378249 57.775889
4922 1 16.362335 26.760034 59.793303
4923 1 18.587869 24.539717 59.764611
4924 1 18.145299 26.569050 57.669686
4925 1 16.068358 24.356576 61.711533
4926 1 16.374803 26.600482 63.422435
4927 1 18.039098 24.380375 63.664076
4928 1 18.347304 26.552318 61.806208
4929 1 18.294200 22.687641 65.681344
4930 1 19.982520 24.672975 66.133875
4931 1 24.515747 26.333822 67.795112
4932 1 20.195080 29.323828 66.100415
4933 1 14.469872 28.929227 72.141120
4934 1 8.037504 28.670219 70.157289
4935 1 18.247364 20.783776 67.637503
4936 1 18.437540 22.057535 74.358638
4937 1 18.193262 27.060890 66.343777
4938 1 18.381094 26.951342 70.246623
4939 1 14.319663 22.643916 69.704648
4940 1 17.666206 30.476383 82.410972
4941 1 20.521794 2.029792 75.117409
4942 1 9.268473 28.959486 78.881946
4943 1 11.114641 22.365634 78.270612
4944 1 18.214216 30.304413 74.320941
4945 1 19.442301 16.179364 84.996038
4946 1 8.823359 30.188084 87.819842
4947 1 11.538566 19.341975 78.755999
4948 1 13.923551 29.649654 80.093563
4949 1 14.331415 22.643331 81.066256
4950 1 13.493795 22.121771 87.562881
4951 1 7.033511 26.630844 91.360105
4952 1 12.523639 23.627895 84.561233
4953 1 10.293032 18.979301 93.095526
4954 1 14.312291 0.954566 91.721613
4955 1 16.103945 24.853189 96.510985
4956 1 14.802180 27.412937 98.130932
4957 1 3.476170 27.597301 96.528819
4958 1 11.976382 26.489764 101.662904
4959 1 19.832983 18.080092 87.413657
4960 1 7.859296 28.209161 93.582960
4961 1 21.238835 20.742074 106.134726
4962 1 13.268596 25.037803 98.215091
4963 1 15.296408 19.188297 99.058526
4964 1 24.844860 2.533137 103.626594
4965 1 16.586793 10.616359 109.141975
4966 1 25.230457 27.507383 107.168859
4967 1 25.344568 23.891150 104.604875
4968 1 7.482307 26.062936 110.105403
4969 1 23.663050 21.420649 113.078233
4970 1 21.061402 30.075153 123.937496
4971 1 21.449373 24.105906 109.915932
4972 1 26.758332 20.077993 111.089590
4973 1 15.317651 17.323310 117.587733
4974 1 19.617281 28.562754 127.588525
4975 1 30.604296 12.366050 110.126396
4976 1 0.454803 0.816051 106.434751
4977 1 11.051255 23.806119 117.220458
4978 1 19.564861 28.141971 123.339391
4979 1 24.714815 32.030709 120.213774
4980 1 14.990600 4.412671 125.986059
4981 1 12.067358 22.446226 121.372431
4982 1 20.250680 31.599406 125.931959
4983 1 22.602609 30.510739 132.173247
4984 1 24.778956 23.632648 122.042146
4985 1 27.339990 24.396353 117.283653
4986 1 17.340421 2.508632 124.929934
4987 1 15.086328 32.093954 124.604383
4988 1 16.707874 27.057774 121.248946
4989 1 18.193104 30.590867 124.648664
4990 1 16.231320 26.421339 133.865527
4991 1 18.482353 24.955276 134.037831
4992 1 19.429384 1.994314 120.168258
4993 1 16.568312 28.452352 1.055066
4994 1 16.338710 30.826104 3.369565
4995 1 18.396606 28.742778 3.424807
4996 1 18.437143 30.832635 1.471177
4997 1 16.141188 28.777604 5.281577
4998 1 16.317479 30.877565 7.259318
4999 1 18.436041 28.419819 7.352160
5000 1 18.501209 30.783467 5.382462
5001 1 16.519324 28.842806 9.302550
5002 1 16.495017 30.652405 11.853013
5003 1 18.152412 28.584846 11.685763
5004 1 18.543855 30.501368 9.547941
5005 1 16.446921 28.577199 13.723949
5006 1 16.395899 30.878029 15.598363
5007 1 18.457869 28.596334 15.562106
5008 1 18.849361 30.697797 13.692389
5009 1 16.113475 28.425422 17.466961
5010 1 16.383448 30.505530 19.492950
5011 1 18.443374 28.606813 19.428540
5012 1 18.481614 30.446483 17.491822
5013 1 16.474310 28.394136 21.559808
5014 1 16.531053 30.793028 23.635049
5015 1 18.230060 28.590543 23.769884
5016 1 18.116108 30.709898 21.545978
5017 1 16.203591 28.642614 25.393459
5018 1 16.462642 30.843182 27.602705
5019 1 18.551281 28.663689 27.958554
5020 1 18.498244 30.472806 25.812748
5021 1 16.479940 28.909880 29.542727
5022 1 16.823418 30.710753 31.534365
5023 1 18.734112 28.288729 31.568761
5024 1 18.718406 30.810328 29.778881
5025 1 16.479651 28.699061 33.296767
5026 1 16.601758 30.491495 35.329471
5027 1 18.593491 28.208233 35.576580
5028 1 18.496705 30.676339 33.296785
5029 1 16.515865 28.868269 37.584947
5030 1 16.125384 30.882440 39.479980
5031 1 18.453421 28.604585 39.822541
5032 1 18.618955 30.700471 37.803292
5033 1 16.451862 28.562914 41.925163
5034 1 16.329163 30.439465 44.004205
5035 1 18.362653 28.656678 44.002199
5036 1 18.261874 30.646078 41.867372
5037 1 16.249057 28.288248 45.550651
5038 1 16.440671 30.431352 47.774238
5039 1 18.315554 28.549083 47.750843
5040 1 18.105490 30.754224 45.767751
5041 1 16.431801 28.600696 49.886950
5042 1 16.263446 30.999052 51.341431
5043 1 18.355613 28.516925 52.212050
5044 1 18.362277 30.618399 49.673854
5045 1 16.110395 28.483510 53.910124
5046 1 16.134501 30.517442 55.431628
5047 1 18.189391 28.629383 55.720336
5048 1 18.084497 30.503227 53.704355
5049 1 16.100916 28.590109 57.596550
5050 1 16.184275 30.619302 59.877548
5051 1 18.425031 28.439761 59.888926
5052 1 18.096518 30.632961 57.821535
5053 1 16.125467 28.613392 61.728677
5054 1 16.332350 30.487885 63.658133
5055 1 18.319101 28.170084 63.954079
5056 1 18.136960 30.370187 61.585645
5057 1 20.531437 28.758689 70.053363
5058 1 11.799831 30.704930 67.789164
5059 1 24.248325 27.219690 75.938350
5060 1 17.906671 30.856514 65.618099
5061 1 6.522591 4.510080 76.450304
5062 1 10.275146 29.203816 76.067418
5063 1 16.068231 26.595993 68.039234
5064 1 18.365747 28.906399 68.180894
5065 1 18.204234 28.659954 72.007812
5066 1 13.431619 27.425736 78.528000
5067 1 12.017459 30.241685 78.248933
5068 1 13.006279 28.013497 76.030128
5069 1 15.954248 2.397507 77.010444
5070 1 1.902487 0.527019 86.325519
5071 1 14.879016 0.423623 72.523857
5072 1 5.946120 2.368746 82.250653
5073 1 11.819769 24.014170 81.409454
5074 1 29.934209 3.491143 78.576452
5075 1 18.417267 15.816887 88.425672
5076 1 6.411112 29.251863 78.663628
5077 1 17.401277 17.483384 85.889388
5078 1 9.991855 23.216278 88.592823
5079 1 19.422539 19.491722 91.716212
5080 1 19.396451 29.652964 89.920077
5081 1 13.701510 25.115599 87.304623
5082 1 14.667736 0.447238 98.952039
5083 1 15.070461 28.029045 87.704330
5084 1 21.544132 27.758306 90.917121
5085 1 9.580819 26.913241 92.358354
5086 1 12.437201 1.731523 97.986819
5087 1 12.747317 29.364922 91.986261
5088 1 15.009847 3.076415 108.862755
5089 1 17.660874 18.819222 102.905815
5090 1 10.474016 3.307842 101.839635
5091 1 22.914502 30.415201 112.818788
5092 1 10.032715 28.578334 106.030459
5093 1 13.451056 25.368857 108.247030
5094 1 24.434801 28.910296 115.238813
5095 1 18.539360 20.410276 121.213753
5096 1 21.400570 21.601553 108.789855
5097 1 24.125470 24.125110 113.684687
5098 1 20.855587 24.750372 115.204456
5099 1 20.130230 31.209881 111.427396
5100 1 21.300963 20.092810 111.195161
5101 1 25.223028 5.946506 114.951369
5102 1 21.702577 10.530298 114.409015
5103 1 15.247252 6.004773 115.083084
5104 1 19.452262 4.406024 119.071085
5105 1 13.360645 27.945577 116.218135
5106 1 16.282770 30.366507 126.318569
5107 1 23.600127 28.644214 123.777805
5108 1 17.844647 28.554422 129.950626
5109 1 12.900631 2.296702 119.091676
5110 1 19.012175 6.694475 128.184217
5111 1 14.752246 0.023273 121.769298
5112 1 22.660387 0.294333 126.848684
5113 1 18.412435 30.732717 132.202085
5114 1 24.508116 0.074786 132.347009
5115 1 19.065474 4.526965 126.326180
5116 1 23.423596 7.371147 121.683593
5117 1 18.245533 26.779024 132.102412
5118 1 16.249545 30.828988 134.322845
5119 1 18.576174 28.982733 134.256255
5120 1 20.797009 4.267422 132.533002
5121 1 20.557870 32.289134 1.180627
5122 1 20.372937 1.977108 2.907586
5123 1 22.350029 32.554192 3.490449
5124 1 22.547595 1.836857 1.664339
5125 1 19.972197 0.159035 5.186741
5126 1 20.022826 2.386247 6.637330
5127 1 22.050138 32.563514 7.340317
5128 1 22.207627 2.162086 5.107989
5129 1 20.813338 32.448107 9.637228
5130 1 20.603575 1.835702 11.652226
5131 1 22.776725 32.285808 11.545075
5132 1 22.016459 1.946543 9.365767
5133 1 20.436456 32.430817 13.558297
5134 1 20.790216 2.189548 15.440636
5135 1 22.492837 0.051051 15.340805
5136 1 22.408406 1.743180 13.415408
5137 1 20.575001 0.132458 17.592603
5138 1 20.720788 1.637051 19.651199
5139 1 22.691251 32.316884 19.337177
5140 1 22.599565 2.043431 17.254762
5141 1 20.651756 32.401076 21.620887
5142 1 20.485418 1.844979 23.947489
5143 1 22.707443 32.377775 23.463593
5144 1 22.832274 2.087303 21.502057
5145 1 20.553590 32.280880 25.473233
5146 1 20.681150 2.159528 27.590766
5147 1 22.692032 32.488741 27.781337
5148 1 22.889539 1.760697 25.641939
5149 1 20.701620 32.628472 29.750117
5150 1 20.533893 2.261554 31.780014
5151 1 22.675906 32.594441 31.465239
5152 1 22.525267 1.723818 29.281332
5153 1 20.316055 0.014471 33.746946
5154 1 20.762032 1.976038 35.809224
5155 1 22.682157 32.636724 35.772379
5156 1 22.470300 1.829292 33.685497
5157 1 20.626455 0.044334 37.486052
5158 1 20.087651 1.900804 39.518038
5159 1 22.235596 32.560079 39.572316
5160 1 22.660153 1.639934 37.688388
5161 1 20.526221 32.439717 41.796322
5162 1 20.688307 1.959022 43.568139
5163 1 22.434557 31.978357 43.520934
5164 1 22.274756 1.830721 41.415443
5165 1 20.452061 0.215727 45.525183
5166 1 20.536638 2.023279 47.607581
5167 1 22.419857 32.518527 47.749977
5168 1 22.341980 2.174693 45.591941
5169 1 20.542310 0.089172 49.529824
5170 1 20.373771 2.041056 51.502566
5171 1 22.429477 0.387647 51.687980
5172 1 22.467243 2.104057 49.944815
5173 1 20.465641 0.032114 53.724126
5174 1 20.167190 1.506269 56.080576
5175 1 22.538083 0.121058 55.847091
5176 1 22.690221 2.016157 53.890739
5177 1 20.769403 32.530150 58.197266
5178 1 20.288307 1.857513 59.972537
5179 1 22.667879 32.599608 60.186391
5180 1 22.330489 2.071183 58.113566
5181 1 20.455887 32.223851 61.627558
5182 1 20.377274 2.128478 63.585529
5183 1 22.512963 32.455155 64.345470
5184 1 22.366864 1.756582 62.066100
5185 1 20.421118 30.780102 68.234740
5186 1 20.006102 3.641938 65.661062
5187 1 24.336273 2.565413 68.059709
5188 1 18.360839 4.333591 68.105107
5189 1 19.122087 0.980449 76.893455
5190 1 20.696889 5.178098 72.618884
5191 1 15.620592 27.522885 76.594157
5192 1 24.406618 30.910687 68.098556
5193 1 20.036780 7.263899 85.732029
5194 1 22.862187 3.155873 74.676579
5195 1 17.028108 32.190657 74.887152
5196 1 20.515461 2.453212 68.059260
5197 1 22.664192 24.523674 71.789408
5198 1 18.603046 23.001649 82.600029
5199 1 11.292753 28.421170 80.465296
5200 1 21.641900 29.807434 80.883565
5201 1 11.283636 2.347725 79.347628
5202 1 19.213866 2.160755 83.323701
5203 1 18.082178 27.444915 86.532401
5204 1 18.067622 2.490368 75.015081
5205 1 18.335893 25.629363 81.777773
5206 1 16.417732 4.818865 89.980036
5207 1 29.674814 29.923266 93.171140
5208 1 18.264548 28.320673 80.852879
5209 1 17.374304 28.105630 94.300553
5210 1 19.529153 1.182162 95.375193
5211 1 21.433712 20.415160 99.747046
5212 1 16.885254 29.800936 79.268713
5213 1 19.688267 31.337992 94.434168
5214 1 14.516110 2.975343 106.050561
5215 1 17.167038 28.107113 100.160776
5216 1 11.248203 24.412556 92.017712
5217 1 12.083393 4.809310 100.471900
5218 1 12.285416 3.382925 111.942973
5219 1 26.907263 3.003367 111.866839
5220 1 24.363144 1.363340 111.150796
5221 1 21.587400 3.589862 108.555058
5222 1 17.466017 30.639451 103.684094
5223 1 8.598174 5.250803 107.958072
5224 1 17.476190 2.515827 100.255552
5225 1 16.846408 25.278226 116.157465
5226 1 9.891674 30.560436 104.090735
5227 1 24.802543 4.113700 110.283815
5228 1 27.718083 5.904623 108.188377
5229 1 20.485069 26.192061 110.888905
5230 1 13.920116 1.636490 110.997949
5231 1 19.080776 25.276133 112.764700
5232 1 25.373611 10.985678 118.601404
5233 1 17.462172 27.077991 114.214996
5234 1 17.600681 31.921159 114.410773
5235 1 26.697616 23.310583 119.363496
5236 1 20.638443 29.548514 118.394965
5237 1 22.108556 8.475672 123.693024
5238 1 26.861667 9.520994 120.761431
5239 1 22.352325 12.641548 122.883964
5240 1 28.783802 14.604061 126.175229
5241 1 26.858230 6.291526 128.691729
5242 1 17.422518 2.732231 117.168348
5243 1 22.728318 2.583934 124.315558
5244 1 24.652508 2.469910 126.582417
5245 1 22.677748 2.070983 132.460693
5246 1 20.731621 2.160755 134.348300
5247 1 24.644248 6.527535 134.149901
5248 1 20.053328 30.293791 130.051134
5249 1 20.417302 4.332074 1.032154
5250 1 20.437183 6.301660 3.028982
5251 1 22.502220 4.018793 3.176688
5252 1 22.155195 6.736428 1.326295
5253 1 20.453253 4.230539 4.910954
5254 1 20.570552 6.405653 7.318665
5255 1 22.491623 4.122833 7.342551
5256 1 22.373884 6.158829 5.513114
5257 1 20.277461 4.365506 9.284725
5258 1 20.673887 6.091200 11.563598
5259 1 22.453722 4.257792 11.315812
5260 1 22.756132 6.375360 9.114140
5261 1 21.091718 4.173478 13.593123
5262 1 20.692029 6.381155 15.450191
5263 1 22.825266 4.295120 15.507258
5264 1 22.465371 6.521027 13.489301
5265 1 20.514912 4.168764 17.499989
5266 1 20.800327 6.070795 19.633140
5267 1 22.571903 3.728698 19.256476
5268 1 22.734376 5.986135 17.512797
5269 1 20.581107 3.809262 21.662803
5270 1 20.755338 6.269113 23.135318
5271 1 22.425695 4.036127 23.574358
5272 1 22.895702 6.010293 21.339858
5273 1 20.602841 4.289296 25.522663
5274 1 20.777560 6.513900 27.558006
5275 1 22.736309 3.983229 27.418269
5276 1 22.615133 6.271285 25.617121
5277 1 20.529589 3.940747 29.545050
5278 1 20.628511 6.103317 31.506531
5279 1 22.862868 3.934241 31.636433
5280 1 22.941370 6.089983 29.623952
5281 1 20.659249 3.856051 33.767353
5282 1 20.815662 6.286045 35.351016
5283 1 22.812083 4.100273 35.592227
5284 1 22.486247 6.313862 33.477436
5285 1 20.627860 4.111880 37.612707
5286 1 20.513494 6.261578 39.386629
5287 1 22.601841 3.962992 39.391194
5288 1 22.589327 5.921709 37.567941
5289 1 20.676911 3.885954 41.402133
5290 1 20.832882 5.984426 43.608247
5291 1 22.551055 3.873316 43.671729
5292 1 22.878550 5.628200 41.636329
5293 1 20.426197 3.979914 45.474284
5294 1 20.478294 5.970856 47.658129
5295 1 22.432678 4.097189 47.644320
5296 1 22.689926 6.168624 45.933554
5297 1 20.597023 4.269290 49.769028
5298 1 20.285905 6.086432 51.622977
5299 1 22.416796 3.881611 51.794748
5300 1 22.623789 6.031496 49.796087
5301 1 20.240040 3.610023 54.001854
5302 1 20.517868 5.732977 55.546709
5303 1 22.457411 3.868986 55.994326
5304 1 22.259561 5.716451 53.775843
5305 1 20.119680 4.233357 57.778965
5306 1 20.249019 6.007815 59.706143
5307 1 22.076723 4.073279 60.074551
5308 1 22.197091 5.813159 57.650098
5309 1 20.188467 3.909293 61.704053
5310 1 19.836829 5.523121 63.574097
5311 1 22.165540 4.076015 63.754183
5312 1 22.506307 6.133802 61.645563
5313 1 23.323925 7.853131 72.141328
5314 1 22.644166 8.296295 67.767631
5315 1 24.605517 0.401765 65.982709
5316 1 22.368547 6.055310 65.597289
5317 1 24.473454 4.421434 65.526697
5318 1 16.659992 2.198413 72.333245
5319 1 27.121815 28.551891 76.358889
5320 1 28.973395 8.530758 65.461962
5321 1 14.703657 2.075114 74.688842
5322 1 21.609661 0.205329 78.202942
5323 1 19.823818 2.544753 71.718634
5324 1 22.878932 12.853806 74.795516
5325 1 12.684992 10.950463 80.352091
5326 1 15.089923 1.755677 79.339940
5327 1 21.589413 28.800677 76.556206
5328 1 16.808499 10.199109 83.617380
5329 1 26.139633 1.047042 92.705536
5330 1 12.528119 28.225992 87.749807
5331 1 22.611262 11.116973 97.162726
5332 1 26.110863 29.614643 88.269641
5333 1 15.990551 7.741893 92.345364
5334 1 23.654773 5.849544 93.197299
5335 1 23.868605 28.621748 89.366305
5336 1 25.829887 25.260904 92.146629
5337 1 24.444130 12.631633 95.702258
5338 1 17.066490 27.812730 96.789525
5339 1 20.224653 29.005391 106.026324
5340 1 20.247035 8.722508 88.060131
5341 1 16.128735 29.951452 98.063842
5342 1 15.704293 2.645765 98.170098
5343 1 14.314925 31.825196 93.863403
5344 1 17.405943 29.253457 88.157818
5345 1 18.746509 25.134335 97.363462
5346 1 14.276804 0.939246 96.068145
5347 1 23.495242 28.834752 108.886774
5348 1 10.148152 3.194936 98.641684
5349 1 23.873900 15.923226 102.009776
5350 1 20.007405 6.058463 110.579359
5351 1 12.706749 3.562052 103.397776
5352 1 18.445002 28.131054 104.403889
5353 1 22.515952 10.703673 110.069777
5354 1 29.125102 14.588871 101.911112
5355 1 21.527459 7.822057 101.430024
5356 1 16.223930 4.306599 104.568912
5357 1 16.080454 1.290611 119.081654
5358 1 20.099828 14.655574 128.117864
5359 1 18.581919 6.796211 120.738131
5360 1 25.907007 9.279920 104.918762
5361 1 20.410778 31.532023 116.522610
5362 1 26.676707 8.278787 114.730445
5363 1 21.991030 9.970330 116.701598
5364 1 22.846630 10.990842 119.155547
5365 1 20.624385 7.072111 125.585447
5366 1 20.463653 6.146543 130.761156
5367 1 28.363950 10.668619 134.725072
5368 1 21.120631 21.057489 122.866630
5369 1 19.801339 3.645305 116.066473
5370 1 14.311214 8.089123 130.243068
5371 1 20.081898 8.786101 132.441682
5372 1 28.571704 1.988036 130.363216
5373 1 18.241378 6.576657 132.548582
5374 1 20.288683 6.450038 134.118819
5375 1 22.635568 4.119257 134.334062
5376 1 22.733816 4.245667 130.458931
5377 1 20.333031 8.581328 1.155137
5378 1 20.427182 10.485703 3.284536
5379 1 22.388095 8.091158 3.498404
5380 1 22.292327 10.400513 1.334668
5381 1 20.412894 8.243896 5.280278
5382 1 20.212030 10.048144 7.325339
5383 1 22.533855 8.292600 7.410447
5384 1 22.207304 10.062736 5.458184
5385 1 20.709259 8.139650 9.293418
5386 1 20.593274 10.525805 11.581705
5387 1 22.870037 8.706766 11.520519
5388 1 22.649002 10.591700 9.530222
5389 1 20.625234 8.436053 13.049506
5390 1 20.322177 9.922370 15.357437
5391 1 22.653914 8.252158 15.605825
5392 1 22.577940 10.349873 13.595848
5393 1 20.592473 8.229266 17.340570
5394 1 20.491401 10.099239 19.378069
5395 1 22.356047 7.993924 19.387252
5396 1 22.457540 10.033739 17.446772
5397 1 20.545278 8.492685 21.367464
5398 1 20.487052 10.440638 23.642358
5399 1 22.873507 8.259924 23.527134
5400 1 22.444221 10.442420 21.548705
5401 1 20.535269 8.577241 25.415359
5402 1 20.832137 10.470321 27.484192
5403 1 22.476320 8.545398 27.337936
5404 1 22.689526 10.434458 25.263057
5405 1 20.500857 8.287811 29.460539
5406 1 20.748918 10.610680 31.543374
5407 1 22.672018 8.020777 31.414275
5408 1 22.515420 10.352241 29.632008
5409 1 20.858719 8.422940 33.467609
5410 1 20.587202 10.354046 35.534811
5411 1 22.860255 8.269510 35.824587
5412 1 22.471464 10.564604 33.580964
5413 1 20.524563 8.138294 37.306711
5414 1 20.578922 10.083781 39.812912
5415 1 22.631353 8.079541 39.901592
5416 1 22.471189 10.347603 37.797555
5417 1 20.433877 8.066167 41.944777
5418 1 20.456174 10.118082 43.583206
5419 1 22.748625 7.791203 43.811058
5420 1 22.811338 9.811448 42.036602
5421 1 20.596214 8.037706 45.650479
5422 1 20.264609 10.042219 47.453014
5423 1 22.785262 8.165493 47.477457
5424 1 22.358366 10.146523 45.631573
5425 1 20.267459 8.035862 49.394701
5426 1 20.308436 10.020783 51.657296
5427 1 22.474380 8.193489 51.447266
5428 1 22.338522 10.034125 49.416820
5429 1 20.415575 7.863523 53.643659
5430 1 20.498385 9.915298 55.405472
5431 1 22.602005 7.842109 55.962152
5432 1 22.373886 10.189923 53.413718
5433 1 20.371758 8.048432 57.565435
5434 1 20.063339 9.866641 59.853043
5435 1 22.248565 7.882040 59.604979
5436 1 22.283765 10.036129 57.621098
5437 1 20.020702 7.713746 61.969635
5438 1 20.174727 10.387035 63.759403
5439 1 22.119656 8.086750 64.008250
5440 1 21.932604 9.918412 61.796654
5441 1 18.350758 6.444515 69.590313
5442 1 20.275605 8.217574 69.754996
5443 1 26.747930 8.271401 67.657468
5444 1 22.315738 10.024713 65.753705
5445 1 20.795132 6.236129 67.585703
5446 1 23.328357 7.164100 90.417029
5447 1 14.370103 5.036908 76.868415
5448 1 24.481782 12.748369 69.727127
5449 1 22.368690 2.074015 65.975233
5450 1 8.534311 4.842168 80.007802
5451 1 17.641504 5.177220 79.216844
5452 1 20.610186 4.468044 69.940974
5453 1 11.515386 1.410695 75.136781
5454 1 28.695032 12.533091 73.898528
5455 1 22.318486 2.340353 77.283579
5456 1 23.068731 6.104503 74.364631
5457 1 14.941771 5.917075 83.913558
5458 1 21.469796 8.761697 83.448970
5459 1 10.460888 6.861517 101.271374
5460 1 20.829000 4.511922 76.077629
5461 1 22.943807 13.538171 92.127106
5462 1 18.033074 5.856178 81.693426
5463 1 23.580562 24.578758 90.504638
5464 1 17.864743 10.067371 96.620805
5465 1 22.260154 31.110860 90.398461
5466 1 19.672688 5.858117 100.035883
5467 1 24.213963 13.490635 101.059143
5468 1 24.329040 14.532829 88.071601
5469 1 19.788972 28.958820 96.472038
5470 1 19.695144 6.357183 97.037136
5471 1 22.229100 0.565509 94.489426
5472 1 11.331911 1.720079 93.664557
5473 1 10.036558 28.800695 111.095073
5474 1 16.538389 32.366867 91.565548
5475 1 12.330866 9.905459 94.297251
5476 1 15.773183 2.648520 85.024333
5477 1 14.557972 2.707161 93.629934
5478 1 19.246019 11.220676 98.572761
5479 1 10.821328 6.879295 93.443818
5480 1 12.665991 8.417257 91.992661
5481 1 16.303097 6.840232 103.533931
5482 1 21.692788 1.042912 109.437575
5483 1 15.191726 12.940488 110.196218
5484 1 25.732139 14.853609 109.181433
5485 1 15.259645 5.245834 107.399500
5486 1 18.866335 15.554371 112.018248
5487 1 21.254360 2.886570 104.333567
5488 1 21.942239 5.597294 103.246710
5489 1 22.785243 8.023660 126.616205
5490 1 16.904795 9.361415 121.594169
5491 1 18.935085 1.575372 114.647707
5492 1 21.825016 20.056766 115.608867
5493 1 24.556951 5.959882 126.251153
5494 1 20.116386 13.906013 123.657284
5495 1 15.238298 11.789124 121.715842
5496 1 23.013964 10.956992 132.351270
5497 1 22.537329 6.361430 132.819852
5498 1 10.614004 10.175140 128.330763
5499 1 18.385589 4.099342 130.711984
5500 1 9.634229 4.029579 119.732633
5501 1 14.743613 7.486248 127.789035
5502 1 20.820126 10.859972 134.031250
5503 1 18.303808 8.442855 134.685845
5504 1 19.117899 11.825725 125.728087
5505 1 20.798469 12.689344 1.272172
5506 1 20.341954 14.563242 3.143798
5507 1 22.443732 12.343328 3.297743
5508 1 22.478106 14.887493 1.371893
5509 1 20.272562 12.573726 5.433541
5510 1 20.480808 14.474174 7.630669
5511 1 22.408873 12.354983 7.099886
5512 1 22.383309 14.421591 5.371866
5513 1 20.451941 12.368746 9.185910
5514 1 20.679421 14.213840 11.527297
5515 1 22.657246 12.172097 11.962651
5516 1 22.808242 14.446921 9.703252
5517 1 20.512465 12.393413 13.454435
5518 1 20.488513 14.178079 15.614266
5519 1 22.051728 12.137370 15.524592
5520 1 22.647498 14.299467 13.757852
5521 1 20.450290 12.103975 17.806943
5522 1 20.521492 14.348272 19.757973
5523 1 22.497200 12.225514 19.736698
5524 1 22.345690 14.196420 17.538738
5525 1 20.572735 12.228354 21.360771
5526 1 20.504258 14.627753 23.279055
5527 1 22.074783 12.743834 23.777621
5528 1 22.657539 14.406375 21.571862
5529 1 20.522090 12.940551 25.991570
5530 1 21.096152 14.809584 27.809701
5531 1 22.877762 12.490579 27.550383
5532 1 22.625297 14.597700 25.742720
5533 1 20.632381 12.452398 29.261686
5534 1 20.700528 14.440482 31.519297
5535 1 22.548974 12.368013 31.467463
5536 1 22.607381 14.366471 29.645753
5537 1 20.369618 12.282144 33.839351
5538 1 20.698716 14.438719 34.999300
5539 1 22.521805 12.379644 35.742846
5540 1 22.831460 14.347168 33.429397
5541 1 20.367077 12.182723 37.818448
5542 1 20.261874 14.623880 39.493469
5543 1 22.783199 11.790456 40.027386
5544 1 22.581603 14.221481 37.358913
5545 1 20.585853 12.122000 41.327370
5546 1 20.418594 14.254526 42.836700
5547 1 22.481520 11.915179 43.520630
5548 1 22.653293 14.235306 41.409849
5549 1 20.416383 12.597534 45.293132
5550 1 20.287423 14.369853 47.406978
5551 1 22.242854 12.144202 47.643548
5552 1 22.656476 14.156512 45.151877
5553 1 19.988135 12.353828 49.370651
5554 1 20.302958 14.342526 51.629308
5555 1 22.329060 12.112131 51.749400
5556 1 22.078300 14.039301 49.561460
5557 1 20.243382 12.142732 53.799414
5558 1 20.538345 14.655720 55.519444
5559 1 22.252130 12.099065 55.644230
5560 1 22.652490 14.473984 53.676381
5561 1 19.998342 12.047151 57.690825
5562 1 20.029352 14.021698 59.992899
5563 1 22.013791 12.192642 59.506330
5564 1 22.277220 14.088520 57.615547
5565 1 20.063219 12.119411 61.662604
5566 1 20.422517 14.399394 63.388730
5567 1 22.136324 12.214654 63.616487
5568 1 22.239649 14.014123 61.514587
5569 1 20.403388 12.384559 65.659203
5570 1 24.658006 8.213173 65.829754
5571 1 18.310617 12.883168 71.434541
5572 1 22.237550 14.313108 65.514542
5573 1 17.906593 9.999795 65.380774
5574 1 18.694962 7.717286 71.811658
5575 1 25.410275 4.006514 74.661877
5576 1 28.474528 16.465151 69.653242
5577 1 11.293354 14.936614 78.301490
5578 1 21.493558 7.251081 76.437310
5579 1 20.546653 14.370949 71.916479
5580 1 18.156327 4.458593 71.378300
5581 1 18.291477 7.146012 76.834750
5582 1 16.011467 4.311480 74.380808
5583 1 30.456477 15.142237 78.406172
5584 1 26.099088 14.215682 78.256582
5585 1 20.268888 19.728146 78.214256
5586 1 27.859258 19.016570 87.138787
5587 1 25.123790 11.752824 75.935860
5588 1 22.503337 22.710093 73.977761
5589 1 30.770979 6.934166 91.201257
5590 1 30.146927 19.892490 86.690720
5591 1 12.884202 11.799687 92.196043
5592 1 18.399568 20.368953 83.168927
5593 1 27.960330 9.506133 95.374279
5594 1 9.476218 3.485310 96.051880
5595 1 15.071118 9.318754 90.073721
5596 1 14.328475 16.080044 93.396408
5597 1 23.818078 8.139312 97.449997
5598 1 17.791737 8.017369 109.339874
5599 1 14.332092 5.208509 95.488687
5600 1 9.130071 7.236705 84.916291
5601 1 27.573961 24.422420 98.508118
5602 1 20.687749 13.016866 102.355556
5603 1 15.628145 12.481607 104.013353
5604 1 0.028951 14.726646 106.379781
5605 1 19.888926 17.527907 102.795979
5606 1 16.115798 5.612763 99.771790
5607 1 0.581068 27.508180 110.027479
5608 1 27.409483 18.532589 123.907160
5609 1 17.793232 7.415498 100.636841
5610 1 23.493891 5.335262 108.513018
5611 1 18.639140 8.585322 98.621232
5612 1 26.686885 15.585733 101.512078
5613 1 18.344284 9.967375 111.063523
5614 1 19.311328 15.175862 115.312172
5615 1 24.320035 13.696602 114.937018
5616 1 26.484345 15.326460 111.412374
5617 1 17.990792 11.252370 123.149552
5618 1 16.047249 13.493364 119.806217
5619 1 16.855668 8.797416 127.812676
5620 1 19.610556 17.437228 127.833349
5621 1 13.962810 12.536595 115.352889
5622 1 13.826484 14.216049 123.420591
5623 1 21.063394 12.499164 132.156943
5624 1 17.062952 14.389967 122.355499
5625 1 13.866659 11.048229 123.926539
5626 1 18.993291 16.180915 124.521795
5627 1 14.456154 16.623090 134.173384
5628 1 16.494515 12.872273 127.973758
5629 1 24.622864 10.059492 130.528768
5630 1 22.265578 12.724888 129.818563
5631 1 23.269904 14.404088 132.238578
5632 1 17.431068 22.354212 126.690240
5633 1 20.349801 16.644548 1.339335
5634 1 20.596547 18.423148 3.294058
5635 1 22.237580 16.453118 3.748767
5636 1 22.188932 18.521980 1.249116
5637 1 20.196666 16.343257 5.399094
5638 1 19.958069 18.276133 7.448356
5639 1 22.448911 16.727601 7.127166
5640 1 22.381629 18.561431 5.210986
5641 1 20.721526 16.188913 9.727889
5642 1 20.562890 18.066941 11.739512
5643 1 22.752167 16.150717 11.724698
5644 1 22.475562 18.105428 10.013554
5645 1 20.669910 15.985166 13.627563
5646 1 20.514625 18.105942 15.310416
5647 1 22.612589 16.371552 15.557759
5648 1 22.537319 18.391873 13.440384
5649 1 20.567793 16.350582 17.511680
5650 1 20.453880 18.327995 19.364779
5651 1 22.711355 16.101835 19.162288
5652 1 22.627692 18.156529 17.637910
5653 1 20.538949 16.549824 21.334361
5654 1 20.693001 18.520757 23.730229
5655 1 22.426063 16.587409 23.530066
5656 1 22.278070 18.551511 21.174662
5657 1 20.420064 16.423908 25.767102
5658 1 20.674823 18.427300 27.400978
5659 1 22.591686 16.773970 27.539414
5660 1 22.648775 18.664479 25.555475
5661 1 20.587644 16.588640 29.438043
5662 1 20.531690 19.061755 31.612783
5663 1 22.550765 16.688675 31.586075
5664 1 22.380834 18.772817 29.542182
5665 1 20.612617 16.799775 33.382467
5666 1 20.398786 18.357869 35.371899
5667 1 22.498640 16.533220 35.201427
5668 1 22.614554 18.531290 33.502267
5669 1 20.500509 16.091697 37.190177
5670 1 20.478328 18.154025 39.025322
5671 1 22.521209 16.371488 39.171558
5672 1 22.584174 18.493816 37.378744
5673 1 20.522972 16.430164 41.296284
5674 1 20.709426 18.487152 43.240324
5675 1 22.808231 16.240086 43.231753
5676 1 22.503526 18.335075 41.411235
5677 1 20.597286 16.246806 45.461443
5678 1 20.652146 18.191594 47.054652
5679 1 22.287193 16.298176 47.479610
5680 1 22.495235 18.514826 45.331711
5681 1 20.367480 16.402830 49.308652
5682 1 20.166999 18.264080 51.354527
5683 1 22.129580 16.229269 51.410541
5684 1 22.116136 18.755831 49.405225
5685 1 20.449181 16.273750 53.496503
5686 1 20.386609 18.316107 55.575810
5687 1 22.268452 16.631589 55.515088
5688 1 22.121329 18.180038 53.218116
5689 1 20.668545 16.296993 57.829583
5690 1 20.251186 18.669040 59.897999
5691 1 22.711836 16.306701 59.679777
5692 1 22.649952 18.501742 58.092455
5693 1 20.572593 16.560719 61.334123
5694 1 20.211375 18.611368 63.638711
5695 1 22.390352 16.345997 63.303285
5696 1 22.717825 18.521805 61.594670
5697 1 20.152704 16.469429 65.497597
5698 1 22.414731 20.257052 67.550016
5699 1 24.505346 12.517489 65.603078
5700 1 24.335050 16.341491 65.624881
5701 1 14.547968 14.174792 70.113009
5702 1 20.956719 18.385627 75.970023
5703 1 23.829732 10.848308 72.141415
5704 1 20.073523 20.547307 65.540933
5705 1 17.045742 13.364216 87.475776
5706 1 14.849122 20.382180 75.673946
5707 1 21.651116 12.446809 77.803644
5708 1 16.730462 18.926347 78.910618
5709 1 13.352821 19.922506 82.330547
5710 1 25.971953 23.431951 89.557203
5711 1 22.859822 26.615136 86.015194
5712 1 18.736610 10.878474 78.037115
5713 1 29.169918 30.029820 97.882371
5714 1 16.128699 21.597477 83.211788
5715 1 24.652851 24.249424 86.718985
5716 1 24.687566 16.197925 83.402953
5717 1 16.414986 16.915011 73.985603
5718 1 27.133275 14.380746 87.878540
5719 1 30.780483 26.642083 98.284573
5720 1 26.340399 27.224166 90.104514
5721 1 23.379052 21.897060 89.878699
5722 1 16.955025 25.366978 93.719743
5723 1 25.939250 17.482313 95.765160
5724 1 30.878494 16.130032 90.304627
5725 1 29.400803 17.192308 100.588569
5726 1 14.705084 22.343201 106.056986
5727 1 24.942538 19.447217 107.902421
5728 1 20.156653 13.507160 99.330132
5729 1 23.224405 0.661142 100.208728
5730 1 25.621262 18.086292 109.887651
5731 1 28.148108 24.328094 108.640019
5732 1 18.731808 13.962836 103.429156
5733 1 27.587528 17.879305 114.245161
5734 1 25.526007 22.674542 111.851812
5735 1 29.026881 14.664301 110.082677
5736 1 22.547342 0.347268 103.284018
5737 1 14.872627 17.229906 115.165777
5738 1 26.645301 17.263458 122.052340
5739 1 29.420446 14.608518 114.790039
5740 1 21.891615 7.917491 109.234437
5741 1 32.401453 27.891946 112.868865
5742 1 22.501239 22.629849 128.204429
5743 1 24.507286 8.831686 109.587656
5744 1 28.337443 10.177442 113.729491
5745 1 22.263399 18.563221 121.351992
5746 1 19.317688 18.695559 112.670627
5747 1 32.514150 21.045912 119.543476
5748 1 21.681932 30.936319 120.756510
5749 1 21.330777 14.886039 117.124046
5750 1 24.421357 26.932072 130.291166
5751 1 12.274642 8.108674 128.445881
5752 1 19.518854 15.537500 118.491824
5753 1 24.737930 12.566387 129.347618
5754 1 20.035298 20.592526 132.076870
5755 1 17.519710 18.411745 129.556368
5756 1 14.928157 18.436622 131.910781
5757 1 21.077520 16.583612 132.321420
5758 1 24.574415 18.444259 134.573015
5759 1 22.748054 16.418463 134.255220
5760 1 20.324641 18.343661 130.415420
5761 1 20.340483 20.665732 0.840215
5762 1 20.198231 22.203582 2.991526
5763 1 22.401233 20.664638 2.778540
5764 1 21.901211 22.561274 1.015056
5765 1 20.069215 20.356309 5.186890
5766 1 20.252660 22.440413 7.611816
5767 1 21.917212 20.157723 7.626776
5768 1 22.059640 22.373933 5.314218
5769 1 20.915181 20.176575 9.934193
5770 1 20.487828 22.256540 11.603705
5771 1 22.648181 20.372485 11.880663
5772 1 22.371495 22.209378 9.505784
5773 1 20.405348 20.380683 13.544707
5774 1 20.249843 22.275727 15.567853
5775 1 22.375153 20.437960 15.590885
5776 1 22.282903 22.416246 13.667447
5777 1 20.365486 20.023597 17.563777
5778 1 20.666317 22.283559 19.388816
5779 1 22.530311 20.330885 19.367434
5780 1 22.830430 22.341261 17.257672
5781 1 20.451329 20.732855 21.514660
5782 1 20.526266 22.849334 23.685285
5783 1 22.674659 20.358689 23.337857
5784 1 22.627582 22.331934 21.238482
5785 1 20.502845 20.557472 25.444593
5786 1 20.699679 22.434563 27.474841
5787 1 22.650029 20.672103 27.411043
5788 1 22.512442 22.627013 25.634127
5789 1 20.405335 20.590059 29.176002
5790 1 20.450360 22.145518 31.717107
5791 1 22.510178 20.488513 31.396557
5792 1 22.648383 22.467445 29.434541
5793 1 20.535329 20.491307 33.718637
5794 1 20.626779 22.475293 35.636383
5795 1 22.676748 20.399912 35.484945
5796 1 22.730640 22.291157 33.528602
5797 1 20.689207 20.361232 37.423891
5798 1 20.390104 22.978719 39.648133
5799 1 22.564355 20.402057 39.505780
5800 1 22.298562 22.741403 37.649307
5801 1 20.623639 20.482594 41.228437
5802 1 20.689640 22.561998 43.592946
5803 1 22.762065 20.479248 43.311487
5804 1 22.442442 22.778670 41.279822
5805 1 20.443196 20.133548 45.160372
5806 1 20.547051 22.128481 47.051010
5807 1 22.539950 20.405605 47.175950
5808 1 22.655238 22.292113 45.338307
5809 1 20.308892 20.548165 49.241408
5810 1 20.343656 22.625903 51.672029
5811 1 22.073680 20.479809 51.414354
5812 1 22.112926 22.452546 49.541053
5813 1 20.517673 20.263375 53.801969
5814 1 20.592300 22.589257 55.582145
5815 1 22.418046 20.384642 55.846616
5816 1 22.083868 22.531880 53.357194
5817 1 20.423543 20.334508 57.700423
5818 1 20.520101 22.370894 60.108939
5819 1 22.269181 20.646762 59.826397
5820 1 22.404677 22.682284 57.756318
5821 1 20.426102 20.635771 62.060527
5822 1 20.264763 22.704730 63.862460
5823 1 22.378079 20.273567 63.806283
5824 1 22.766202 22.383576 61.988836
5825 1 23.978554 22.290244 67.459294
5826 1 28.481368 20.358664 69.280021
5827 1 18.440471 16.379922 71.281475
5828 1 20.289332 22.575417 67.542572
5829 1 20.177670 16.315557 69.564363
5830 1 24.158052 17.953873 67.666992
5831 1 20.561989 11.936744 69.993776
5832 1 17.641068 12.559988 74.125019
5833 1 18.289487 14.391233 65.667794
5834 1 15.922655 16.456239 69.970879
5835 1 17.852957 25.290366 75.954009
5836 1 28.849755 26.488229 71.688539
5837 1 16.295673 20.470608 73.584354
5838 1 14.752665 16.105266 78.399249
5839 1 30.574715 20.314001 71.359260
5840 1 16.861937 30.399982 76.651860
5841 1 18.432578 16.380555 75.994700
5842 1 14.293653 26.583859 73.806490
5843 1 22.377483 14.173534 85.624442
5844 1 12.881238 24.909824 77.987914
5845 1 4.630237 15.582216 84.704110
5846 1 28.522078 21.920567 88.858198
5847 1 31.716877 25.294497 79.818697
5848 1 13.142240 28.203360 82.367810
5849 1 12.294085 27.135627 106.463381
5850 1 27.195184 21.754806 94.420245
5851 1 8.702910 21.558010 85.977336
5852 1 19.577014 18.781955 100.672330
5853 1 9.558448 25.803904 89.731492
5854 1 27.459891 19.600129 95.921895
5855 1 31.040220 22.811205 112.043976
5856 1 21.141467 25.795410 93.220255
5857 1 16.116557 20.894525 96.524243
5858 1 23.255452 25.738461 103.287924
5859 1 32.396299 13.921708 114.626722
5860 1 20.368261 22.243049 101.922546
5861 1 0.487120 25.209759 107.666947
5862 1 23.234400 18.192589 110.383090
5863 1 24.020672 15.291058 116.776353
5864 1 21.800148 26.224632 88.552167
5865 1 25.025769 25.271881 116.185406
5866 1 24.861752 13.680339 112.431149
5867 1 28.675306 22.420644 110.445242
5868 1 30.458333 28.033796 110.690714
5869 1 21.271563 0.298928 124.263395
5870 1 15.253186 24.809126 127.249601
5871 1 23.555061 11.006842 104.950540
5872 1 18.275956 19.718285 127.343411
5873 1 30.272558 16.643460 116.452779
5874 1 21.505526 24.024438 123.168199
5875 1 23.047244 23.901067 125.541700
5876 1 29.788915 24.861843 116.019411
5877 1 23.335731 21.732622 123.895029
5878 1 16.934464 15.758604 118.987071
5879 1 17.605884 25.004232 125.447113
5880 1 30.795556 20.638190 126.546910
5881 1 14.262465 14.633771 128.444345
5882 1 16.326028 26.308915 129.975089
5883 1 24.026703 20.108490 128.649830
5884 1 30.147874 26.623752 132.692957
5885 1 21.492786 15.544667 125.948871
5886 1 22.312733 20.690917 134.064828
5887 1 22.183897 24.563331 134.256401
5888 1 20.141360 22.660043 133.767596
5889 1 20.184358 24.566727 0.889037
5890 1 20.401676 26.767643 3.175264
5891 1 21.915891 24.265066 3.208359
5892 1 22.191489 26.338164 1.287235
5893 1 20.302141 24.956609 5.160550
5894 1 20.474116 26.370724 7.241484
5895 1 22.310904 24.357722 7.470738
5896 1 22.534868 26.191487 5.272404
5897 1 20.286092 24.537464 9.382591
5898 1 20.464252 26.514911 11.560143
5899 1 22.120276 24.417967 11.621979
5900 1 22.221288 26.415588 9.572185
5901 1 20.341604 24.537349 13.599848
5902 1 20.608406 26.520722 15.564456
5903 1 22.470826 24.452711 15.555696
5904 1 22.674884 26.484376 13.543607
5905 1 20.630581 24.456341 17.349080
5906 1 20.525931 26.234600 19.387194
5907 1 22.639783 24.285275 19.480769
5908 1 22.725767 26.482048 17.276446
5909 1 20.666900 24.203122 21.336835
5910 1 20.730511 26.419256 23.307485
5911 1 22.713053 24.305208 23.369792
5912 1 22.519521 26.795975 21.380330
5913 1 20.039343 24.644171 25.744892
5914 1 20.820994 26.668773 27.603019
5915 1 22.874007 24.345349 27.580109
5916 1 22.403812 26.298613 25.564994
5917 1 20.715276 24.375387 29.519782
5918 1 20.573695 26.365426 31.690800
5919 1 22.636689 24.698498 31.587143
5920 1 22.790394 26.494045 29.375774
5921 1 20.654789 24.224709 33.777738
5922 1 20.659972 26.431957 35.303725
5923 1 22.820960 24.435712 35.259112
5924 1 22.755475 26.635575 33.321345
5925 1 20.415611 24.712328 37.523244
5926 1 20.404914 26.638098 39.526420
5927 1 22.563303 24.947364 39.698434
5928 1 22.537842 26.508823 37.439375
5929 1 20.547588 24.985996 41.751214
5930 1 20.468689 26.904401 43.955516
5931 1 22.395510 24.736045 43.461897
5932 1 22.633511 26.809949 41.830486
5933 1 20.615759 24.519489 45.431194
5934 1 20.358790 26.592777 48.187447
5935 1 22.107325 24.352524 47.618081
5936 1 22.589406 26.619807 45.858979
5937 1 20.561010 24.660014 49.974009
5938 1 20.391907 26.799040 51.616046
5939 1 22.547276 24.668452 51.455105
5940 1 22.613254 26.552373 49.737628
5941 1 20.237521 24.708190 53.681011
5942 1 20.061214 26.380347 55.913210
5943 1 22.265829 24.815648 56.081317
5944 1 22.376052 26.584460 53.744428
5945 1 20.049971 24.611289 57.913062
5946 1 20.579110 26.411538 59.994010
5947 1 22.430165 24.582247 59.932564
5948 1 23.078427 26.584575 58.095527
5949 1 20.434132 24.277768 61.804253
5950 1 20.257282 26.027521 63.662464
5951 1 22.519299 24.538686 63.802128
5952 1 22.996294 26.543627 61.720868
5953 1 22.446576 22.286521 65.398689
5954 1 18.278553 24.506356 71.464572
5955 1 20.492015 20.692669 69.493643
5956 1 22.381871 26.497233 65.793478
5957 1 26.507185 24.630319 72.152617
5958 1 14.143108 22.730342 73.682394
5959 1 30.925791 28.564962 67.822379
5960 1 20.479131 24.615667 69.407251
5961 1 18.545653 20.466713 71.976473
5962 1 22.711445 30.234607 83.643286
5963 1 26.909002 20.517499 71.320304
5964 1 18.418921 25.695577 78.897320
5965 1 24.660468 22.248168 71.905920
5966 1 18.759597 15.360430 82.168108
5967 1 20.642051 22.481171 76.078832
5968 1 21.827473 28.454430 87.799982
5969 1 15.307583 20.541551 88.762882
5970 1 18.401300 23.806502 88.126936
5971 1 16.119485 21.484698 79.161254
5972 1 22.736105 25.363678 83.559781
5973 1 14.413483 19.203113 86.764820
5974 1 22.308461 17.776008 78.961775
5975 1 20.203448 28.982877 92.943432
5976 1 22.904749 20.663283 80.172292
5977 1 20.327184 21.479534 87.025907
5978 1 15.761989 30.757529 100.552539
5979 1 11.149640 20.248128 88.054463
5980 1 16.491450 25.781212 88.294564
5981 1 23.204047 30.083520 93.229173
5982 1 18.230936 26.469065 91.861645
5983 1 30.322475 26.250377 101.135482
5984 1 19.480502 27.039335 108.158185
5985 1 16.886314 22.183937 99.073294
5986 1 18.070408 28.064392 111.308496
5987 1 18.628908 24.204021 100.797678
5988 1 2.593829 25.567384 102.083380
5989 1 23.174384 16.598191 107.005179
5990 1 26.987004 3.455222 108.179017
5991 1 19.752705 20.443901 103.524887
5992 1 16.804150 21.222353 116.568561
5993 1 28.947004 17.425755 105.856546
5994 1 21.476471 25.387583 120.593136
5995 1 10.173626 20.364391 125.335134
5996 1 30.590657 19.920224 117.556274
5997 1 19.247993 23.007691 114.147772
5998 1 20.483977 22.075486 116.116332
5999 1 28.597093 27.329630 125.173888
6000 1 26.873729 25.118069 112.057075
6001 1 17.142385 32.092889 120.445461
6002 1 31.383468 27.547586 121.496474
6003 1 24.993131 17.035711 124.455170
6004 1 29.094649 30.820943 120.874318
6005 1 27.222692 31.920859 122.191694
6006 1 32.294638 25.127692 111.738338
6007 1 24.769455 21.668133 126.404855
6008 1 22.983270 26.291948 127.433122
6009 1 20.900624 28.050230 125.371387
6010 1 20.318780 25.527609 125.851251
6011 1 24.445700 0.113768 124.993751
6012 1 21.884143 2.649092 117.947949
6013 1 17.490019 17.373581 126.264468
6014 1 20.662973 26.787162 134.036354
6015 1 17.491296 26.161236 127.707203
6016 1 20.277284 28.618831 131.992940
6017 1 20.416245 28.753232 1.150163
6018 1 20.501407 30.473048 3.323767
6019 1 22.465406 28.723840 3.156993
6020 1 22.411050 30.543561 1.034045
6021 1 20.660953 28.644522 5.371661
6022 1 20.162558 30.595948 7.406568
6023 1 22.513411 28.541011 7.245771
6024 1 22.338846 30.840716 5.293675
6025 1 20.395492 28.399154 9.527363
6026 1 20.493227 30.249389 11.592070
6027 1 22.968555 28.406116 11.341128
6028 1 22.644269 30.412171 9.181704
6029 1 20.197713 28.404985 13.426898
6030 1 20.590256 30.597750 15.613456
6031 1 22.662166 28.452903 15.399746
6032 1 22.680783 30.511786 13.729665
6033 1 20.457369 28.631252 17.500010
6034 1 20.398144 30.791925 19.406911
6035 1 22.552826 29.078370 19.745398
6036 1 22.738620 30.283029 17.336952
6037 1 20.336359 28.583046 21.336348
6038 1 20.584532 30.072141 23.549125
6039 1 22.694077 28.268956 23.686786
6040 1 22.619163 30.501650 21.812104
6041 1 20.112553 28.375107 25.618114
6042 1 20.593332 30.178887 27.496020
6043 1 22.827033 28.244664 27.572657
6044 1 22.811992 30.482702 26.125487
6045 1 20.538768 28.556188 29.805823
6046 1 20.415263 30.608181 31.689127
6047 1 22.509059 28.391723 31.598314
6048 1 22.723273 30.536769 29.749575
6049 1 20.426384 28.540141 33.611895
6050 1 20.626890 30.823624 35.578151
6051 1 22.511947 28.599650 35.491489
6052 1 22.673837 30.417806 33.119213
6053 1 20.267663 28.373077 37.451305
6054 1 20.220097 30.362202 39.983976
6055 1 22.566146 28.398095 39.496163
6056 1 22.221700 30.537538 37.860944
6057 1 20.442615 28.587508 41.780265
6058 1 19.990759 30.518784 43.817128
6059 1 22.379248 28.767457 43.760945
6060 1 22.447653 30.462515 41.239791
6061 1 20.215770 28.353982 45.963384
6062 1 20.411128 30.502818 47.848842
6063 1 22.343120 28.624637 47.835726
6064 1 22.527893 30.708175 45.778520
6065 1 20.380640 28.773589 50.000467
6066 1 19.881829 30.656593 51.778194
6067 1 22.579829 28.604962 51.867404
6068 1 22.354011 30.543725 49.803670
6069 1 20.353257 28.156098 53.983232
6070 1 20.703581 30.606007 55.666841
6071 1 22.254523 28.422927 55.819138
6072 1 22.188131 30.835852 53.372585
6073 1 20.257011 28.639030 57.593005
6074 1 20.252507 30.424818 59.723954
6075 1 22.455651 28.453304 59.859266
6076 1 22.321608 29.989864 57.852253
6077 1 20.557914 28.464388 61.688978
6078 1 20.225554 30.347254 63.451642
6079 1 22.479249 28.702036 63.870876
6080 1 22.535924 30.511163 62.092002
6081 1 22.756510 28.636647 67.981144
6082 1 20.356154 26.881414 67.802129
6083 1 18.258837 24.537544 68.104008
6084 1 24.455801 28.871615 66.061622
6085 1 14.684009 1.724885 65.847127
6086 1 20.693395 20.282324 73.779998
6087 1 26.102321 23.946457 75.603181
6088 1 22.599857 0.490437 68.290510
6089 1 26.505926 26.905653 74.096400
6090 1 28.130235 26.084038 76.096370
6091 1 19.674721 1.640747 85.889022
6092 1 24.507749 7.429521 77.067742
6093 1 18.024473 29.986867 85.175578
6094 1 12.353016 30.922874 75.715958
6095 1 25.949161 30.366609 79.210473
6096 1 19.165021 31.358390 87.143257
6097 1 9.836699 26.867005 95.154155
6098 1 15.612409 22.854248 90.292643
6099 1 22.452548 18.756269 86.323843
6100 1 16.264603 27.320406 79.331851
6101 1 23.234868 24.054019 81.178968
6102 1 25.328812 25.750449 97.755485
6103 1 24.104479 25.153385 100.351728
6104 1 18.442992 27.642757 83.837192
6105 1 15.203584 26.373909 85.319984
6106 1 13.695941 24.624488 94.456837
6107 1 16.474053 24.637787 101.955345
6108 1 18.738885 0.815255 92.787713
6109 1 10.102413 28.897851 85.821067
6110 1 16.068735 27.684506 105.739453
6111 1 20.201294 25.351600 86.403310
6112 1 24.109659 26.162555 88.511727
6113 1 17.665250 21.934060 102.382851
6114 1 23.705063 20.966763 110.226503
6115 1 13.594169 24.287980 101.145670
6116 1 24.315122 30.971048 103.686181
6117 1 11.461267 28.144402 103.551096
6118 1 19.864652 32.150385 119.527918
6119 1 31.678814 14.699988 103.300285
6120 1 24.406130 32.599934 106.490755
6121 1 23.062999 21.152348 102.216625
6122 1 26.179108 22.435327 109.168203
6123 1 26.853124 5.691004 117.101940
6124 1 18.660086 24.719928 106.129298
6125 1 24.757879 22.175386 118.147474
6126 1 18.201328 29.473989 113.362593
6127 1 24.984827 30.213203 117.448194
6128 1 25.261976 31.356700 114.483916
6129 1 18.972683 30.529330 122.184853
6130 1 23.906453 2.674953 119.791404
6131 1 2.933362 24.201191 125.117839
6132 1 11.602898 23.430424 123.987150
6133 1 23.077774 1.100872 122.236541
6134 1 23.329457 30.279497 125.727838
6135 1 2.256427 28.852324 118.979264
6136 1 20.428039 2.091919 126.115879
6137 1 21.917387 30.526051 128.021888
6138 1 24.626336 2.202138 130.590852
6139 1 24.727200 24.570391 132.108615
6140 1 27.104242 32.284141 125.203591
6141 1 24.752105 4.794062 128.661612
6142 1 20.610961 30.843717 134.382831
6143 1 22.306265 28.902095 134.055334
6144 1 25.199295 32.231340 127.541142
6145 1 24.885030 0.137894 1.534110
6146 1 24.487469 1.732277 3.390605
6147 1 26.742876 32.657459 3.496070
6148 1 26.638881 2.462850 1.189284
6149 1 24.713598 32.419183 5.216185
6150 1 24.058443 1.446341 7.030846
6151 1 26.738790 32.660010 7.113643
6152 1 26.433806 2.111116 5.449725
6153 1 24.120802 0.026309 9.090188
6154 1 24.663629 1.906038 11.516945
6155 1 26.673872 0.175616 11.088404
6156 1 26.316069 2.235470 9.090778
6157 1 24.604456 0.193628 13.528162
6158 1 24.611564 2.023026 15.283796
6159 1 26.750159 32.641953 15.601444
6160 1 26.681570 1.727109 13.581101
6161 1 24.516506 32.666720 17.321242
6162 1 24.751116 1.889827 19.490522
6163 1 26.735862 32.651802 19.386741
6164 1 26.402194 1.967767 17.572787
6165 1 24.616566 32.586056 21.254659
6166 1 24.588961 2.398809 23.759489
6167 1 26.373413 32.604834 23.278456
6168 1 26.563901 2.057604 21.526073
6169 1 24.915593 32.610597 25.663674
6170 1 24.885295 1.772281 27.450112
6171 1 26.894247 32.460391 27.716618
6172 1 26.908660 1.806859 25.691064
6173 1 24.939655 0.026696 29.477163
6174 1 24.964102 2.206354 31.793488
6175 1 26.775147 32.506276 31.483961
6176 1 26.778181 2.192281 29.708961
6177 1 24.532683 0.095947 33.388754
6178 1 24.688153 2.021717 35.681674
6179 1 26.543378 32.450378 35.799806
6180 1 26.927972 1.575440 33.794313
6181 1 24.650254 32.299468 37.832292
6182 1 24.581246 2.068080 39.539550
6183 1 26.715085 32.315837 39.296062
6184 1 26.539665 1.881817 37.608249
6185 1 24.254963 32.555310 41.296855
6186 1 24.432668 1.786978 43.444013
6187 1 26.128506 32.544018 43.336210
6188 1 26.749409 1.699273 41.362575
6189 1 24.719358 0.298197 45.556987
6190 1 24.170545 1.872133 47.599412
6191 1 26.768917 32.668528 47.753860
6192 1 26.593088 1.880046 45.803314
6193 1 24.544939 32.624817 49.770028
6194 1 24.657656 1.859634 51.707431
6195 1 26.738450 32.669200 51.329013
6196 1 26.610433 1.882311 49.454947
6197 1 24.542090 32.519674 53.611190
6198 1 24.399438 1.802891 55.729863
6199 1 26.734070 32.564044 55.661298
6200 1 26.836703 1.867165 53.735855
6201 1 24.444654 32.536760 57.612582
6202 1 24.848876 1.939448 59.747504
6203 1 26.568517 32.628476 59.787268
6204 1 26.430405 1.792722 57.515992
6205 1 24.498846 0.121423 61.979999
6206 1 24.445958 2.137242 63.939212
6207 1 26.618940 32.467884 63.779714
6208 1 26.740002 2.004262 62.034101
6209 1 22.608690 30.861933 66.265873
6210 1 24.565164 6.120773 67.903971
6211 1 28.562819 32.571056 66.180255
6212 1 26.431976 2.350737 66.271386
6213 1 22.483542 28.796006 71.889945
6214 1 22.579727 4.622548 68.012868
6215 1 22.526873 24.778248 67.960222
6216 1 26.378405 0.120159 68.166502
6217 1 20.087115 24.144011 73.620298
6218 1 16.909844 7.829448 74.214287
6219 1 26.177782 5.061382 86.493778
6220 1 28.827527 30.505477 71.949998
6221 1 26.878784 32.142706 76.055358
6222 1 24.043263 6.233127 88.068307
6223 1 29.713358 30.056185 83.486660
6224 1 27.060774 27.118845 79.929116
6225 1 9.966369 20.779771 76.774091
6226 1 20.305315 4.377057 84.009378
6227 1 0.193363 2.409918 93.292833
6228 1 12.583507 7.975959 88.622602
6229 1 23.493653 31.066536 87.912008
6230 1 21.019270 12.351792 88.771142
6231 1 13.322703 20.677006 79.678443
6232 1 24.680787 4.504783 95.416910
6233 1 18.526902 1.305712 88.411629
6234 1 21.251573 23.628317 88.607247
6235 1 16.149036 22.416963 87.346446
6236 1 27.278373 29.904505 103.198210
6237 1 25.168192 30.159567 106.943517
6238 1 22.026516 1.824514 106.775657
6239 1 20.804900 3.396563 99.489913
6240 1 24.974707 31.225634 99.297003
6241 1 29.575842 32.525547 93.905661
6242 1 22.472962 2.860793 96.469947
6243 1 27.682301 32.169803 103.906862
6244 1 20.210710 1.640577 101.722033
6245 1 13.316643 32.477725 105.077439
6246 1 17.219499 28.551103 108.821951
6247 1 2.194217 4.497973 109.793423
6248 1 27.862942 4.455306 103.583756
6249 1 22.792220 3.038991 101.899466
6250 1 17.698630 30.595992 110.581966
6251 1 29.070199 2.487426 121.162536
6252 1 3.482953 4.348157 106.116331
6253 1 28.295407 7.124170 103.427164
6254 1 18.562309 25.219033 122.569303
6255 1 25.484035 8.970414 123.044115
6256 1 28.854809 4.339633 110.059635
6257 1 22.224504 3.726929 110.963365
6258 1 2.447542 10.426510 124.980788
6259 1 23.704538 3.459178 113.173298
6260 1 21.330986 8.525128 120.448176
6261 1 21.521778 3.176217 121.515802
6262 1 26.066601 32.440138 130.558807
6263 1 28.649911 1.899731 134.280381
6264 1 26.693738 8.425210 130.475585
6265 1 23.640768 31.028703 122.418748
6266 1 26.620067 3.926886 126.639935
6267 1 28.344777 32.655106 132.166983
6268 1 32.706788 28.085558 132.471091
6269 1 22.332553 4.389111 126.173991
6270 1 26.317938 30.718811 132.394630
6271 1 28.188618 28.557718 132.573824
6272 1 26.881593 4.236650 130.433451
6273 1 24.294431 4.109157 1.119714
6274 1 24.260053 6.056180 3.482995
6275 1 26.308423 3.995185 3.498399
6276 1 26.395011 6.062875 1.274876
6277 1 24.535455 3.927990 5.564088
6278 1 24.651271 5.704510 7.405495
6279 1 26.736308 4.161345 7.535820
6280 1 26.651135 6.025017 5.477585
6281 1 24.526907 4.224301 9.769166
6282 1 24.483706 6.470248 11.432832
6283 1 26.458368 4.199217 11.598707
6284 1 26.582079 6.296541 9.659072
6285 1 24.384381 3.806345 13.525703
6286 1 24.675454 6.282282 15.446221
6287 1 26.476405 4.003134 15.384120
6288 1 26.525830 6.241258 13.657569
6289 1 24.707488 4.235008 17.505130
6290 1 24.613118 6.376517 19.182872
6291 1 26.845176 3.952262 19.392592
6292 1 26.680721 5.807065 17.625440
6293 1 24.893978 3.793449 20.947697
6294 1 24.605625 5.895503 23.219237
6295 1 26.551694 4.092090 23.873223
6296 1 26.606273 5.805159 21.597229
6297 1 24.590545 4.279978 25.576003
6298 1 24.632505 6.268502 27.661051
6299 1 26.623617 4.065717 27.467190
6300 1 26.465509 6.346855 25.528039
6301 1 24.730973 4.189842 29.336459
6302 1 24.613427 6.311491 31.596821
6303 1 26.630354 4.340093 31.415402
6304 1 26.990679 6.170910 29.299124
6305 1 24.815249 4.207828 33.716661
6306 1 24.645267 6.351176 35.258322
6307 1 26.616335 3.926461 35.642504
6308 1 26.680506 6.185331 33.398999
6309 1 24.532299 3.871778 37.542612
6310 1 24.477527 5.831109 39.699439
6311 1 26.824790 3.947360 39.638953
6312 1 26.217707 5.960737 37.724832
6313 1 25.194999 3.888132 41.646159
6314 1 24.741285 6.036583 43.688518
6315 1 26.695631 4.005237 44.147246
6316 1 26.771832 6.187221 41.810130
6317 1 24.441861 4.199362 45.898815
6318 1 24.598510 6.035227 47.926992
6319 1 26.597389 3.741396 47.776801
6320 1 26.486051 5.997167 45.744117
6321 1 24.570519 3.970211 49.834552
6322 1 24.390559 6.155591 51.815754
6323 1 26.339758 3.957214 51.570480
6324 1 26.801075 6.050904 49.862753
6325 1 24.859916 3.802812 54.032078
6326 1 24.445273 5.872975 55.714687
6327 1 26.803798 4.113114 55.586953
6328 1 26.415277 6.362001 53.927252
6329 1 25.104651 4.036412 57.539505
6330 1 24.554271 6.018142 59.632068
6331 1 26.433416 4.054341 60.137398
6332 1 26.680920 6.241115 57.354667
6333 1 24.195430 3.746508 61.767457
6334 1 24.513251 6.470709 63.866879
6335 1 26.476029 4.218737 64.150170
6336 1 26.371154 6.116508 61.849170
6337 1 28.710656 2.139908 67.902841
6338 1 28.776785 4.351144 65.971898
6339 1 24.546230 28.508194 69.834220
6340 1 24.818654 4.677352 70.243907
6341 1 24.747003 28.734193 73.526166
6342 1 29.017017 6.626281 67.706851
6343 1 22.863599 30.378994 74.626155
6344 1 30.799218 1.939780 66.195234
6345 1 26.363988 4.378570 82.474725
6346 1 30.274586 6.236099 74.009403
6347 1 23.179340 27.987508 82.297971
6348 1 30.028472 10.185743 80.866339
6349 1 12.843340 4.258558 74.361521
6350 1 27.324798 5.759224 91.984047
6351 1 22.637256 10.314357 69.632222
6352 1 22.321086 1.465614 84.549785
6353 1 27.378709 2.804593 91.309144
6354 1 20.944678 7.330418 93.462651
6355 1 23.752655 27.025167 92.168919
6356 1 27.843853 3.107860 93.974351
6357 1 26.489008 2.136501 100.028902
6358 1 17.904359 4.684466 98.155594
6359 1 25.395312 14.361804 90.811256
6360 1 28.647710 8.295826 90.847429
6361 1 15.428814 9.877813 97.347462
6362 1 13.378375 10.062352 99.431201
6363 1 19.778351 32.392539 90.271898
6364 1 13.412172 4.990311 87.991855
6365 1 25.207432 28.292893 104.422635
6366 1 24.387322 28.301376 98.608290
6367 1 24.181892 7.341970 106.062249
6368 1 1.948736 5.949296 89.894028
6369 1 17.031350 25.757956 104.164235
6370 1 13.899613 7.802690 97.021783
6371 1 4.209676 2.728129 102.165952
6372 1 23.570421 28.039115 101.469556
6373 1 24.365185 6.768223 100.603676
6374 1 25.348963 0.375060 101.476537
6375 1 20.460583 7.707584 107.017212
6376 1 31.187298 10.403345 99.952973
6377 1 28.335687 13.033882 96.378505
6378 1 20.237631 8.384860 114.843189
6379 1 25.620666 5.237759 112.572007
6380 1 31.471040 2.786315 101.828051
6381 1 23.316528 31.366035 109.639076
6382 1 20.126034 14.300519 109.343499
6383 1 22.262993 0.399089 119.785217
6384 1 32.600732 30.369630 105.503194
6385 1 15.938052 5.653913 117.664969
6386 1 28.880464 8.120022 132.741827
6387 1 28.405298 10.630887 118.535675
6388 1 26.434774 2.058571 128.715258
6389 1 31.087564 3.743621 130.421623
6390 1 18.091541 10.864388 128.021167
6391 1 18.934383 32.622489 109.490121
6392 1 26.620070 7.497442 126.040473
6393 1 24.413325 8.644535 132.729160
6394 1 24.510212 6.424233 130.850241
6395 1 28.911650 6.106605 134.395989
6396 1 26.664960 10.195647 128.142010
6397 1 26.987943 30.585609 128.869630
6398 1 26.670468 8.346228 134.782453
6399 1 24.692501 2.121102 134.162340
6400 1 27.038917 4.562425 134.381630
6401 1 24.469612 8.245504 1.626755
6402 1 24.444350 10.200381 3.693632
6403 1 26.413677 8.195693 3.298902
6404 1 26.434047 10.528870 1.734291
6405 1 24.437193 8.059900 5.499900
6406 1 24.458828 10.256879 7.517567
6407 1 26.482214 8.248672 7.389872
6408 1 26.462078 10.340291 5.806218
6409 1 24.568745 8.059062 9.603761
6410 1 24.725361 10.608230 11.409167
6411 1 26.451246 8.659301 11.575213
6412 1 26.531419 10.328897 9.301769
6413 1 24.252671 8.309998 13.697901
6414 1 24.489516 10.505756 15.565622
6415 1 26.346505 8.201737 15.759032
6416 1 26.704066 10.277336 13.545308
6417 1 24.505670 8.581879 17.592444
6418 1 24.565098 10.330084 19.567217
6419 1 26.531587 8.286644 19.744473
6420 1 26.630760 10.485838 17.835390
6421 1 24.653664 8.009578 21.306804
6422 1 24.564772 9.919010 23.267979
6423 1 26.686509 8.060991 23.273968
6424 1 26.436648 10.466206 21.579967
6425 1 24.578685 8.326377 25.774961
6426 1 24.751239 10.096398 27.607816
6427 1 26.582777 8.122999 27.600442
6428 1 26.707298 10.074647 25.672145
6429 1 24.691628 8.374204 29.461977
6430 1 24.798059 10.254664 31.354878
6431 1 26.669676 8.131801 31.376180
6432 1 26.614230 10.394132 29.555455
6433 1 24.314089 8.553831 33.581889
6434 1 24.481099 10.620717 35.608786
6435 1 26.859898 8.148283 35.203365
6436 1 26.618278 10.293760 33.410299
6437 1 24.721947 8.412789 37.574094
6438 1 24.732837 10.210407 39.822409
6439 1 26.457785 7.977367 39.844733
6440 1 26.673755 10.004664 37.229183
6441 1 24.571265 7.955340 41.973903
6442 1 24.782493 9.945351 43.778038
6443 1 26.544889 8.034935 43.639004
6444 1 26.760733 10.037255 41.730286
6445 1 24.524564 8.286655 45.510879
6446 1 24.519345 10.549786 47.462549
6447 1 26.492938 8.027089 47.648879
6448 1 26.664516 10.429566 45.649736
6449 1 24.528473 8.262768 49.512767
6450 1 24.732758 10.176085 51.551921
6451 1 26.377432 7.943577 51.745370
6452 1 26.261516 10.307411 49.667166
6453 1 24.305060 7.952862 53.740673
6454 1 24.363605 10.111701 55.374085
6455 1 26.492935 8.485006 55.489351
6456 1 26.673060 10.049330 53.274946
6457 1 24.621583 8.123240 57.560275
6458 1 24.094118 10.210110 59.630022
6459 1 26.614145 8.519468 59.399990
6460 1 26.804277 10.211229 57.404046
6461 1 24.488187 8.231429 61.856826
6462 1 24.323061 10.223993 63.810592
6463 1 26.628594 8.204776 63.753105
6464 1 26.431356 10.252945 61.442468
6465 1 26.893480 6.439125 65.903365
6466 1 22.525278 6.978303 69.918433
6467 1 26.540032 6.545599 74.501019
6468 1 32.688369 12.059971 66.082491
6469 1 23.915105 16.365005 75.308778
6470 1 12.443015 6.365213 71.828857
6471 1 31.636029 17.942419 75.109894
6472 1 24.150612 19.278678 77.361701
6473 1 24.624910 16.602931 69.784974
6474 1 26.618075 0.188822 71.742861
6475 1 32.141887 5.052690 78.341662
6476 1 27.498855 1.633833 86.718727
6477 1 20.884337 9.912786 81.016592
6478 1 14.743459 7.978686 75.977104
6479 1 21.777562 4.903194 86.630944
6480 1 22.516883 4.396177 79.425404
6481 1 21.978665 6.247331 84.318616
6482 1 25.592800 19.527599 85.177784
6483 1 19.181065 8.081020 82.805906
6484 1 23.105339 8.693480 92.359135
6485 1 23.251672 10.847888 94.377139
6486 1 14.779960 18.530274 93.015565
6487 1 31.059654 14.072646 96.150220
6488 1 20.115961 22.333564 84.411651
6489 1 22.889601 11.432695 102.208895
6490 1 27.790928 3.997665 96.514310
6491 1 25.964818 6.647884 104.169672
6492 1 8.384170 17.694107 90.872953
6493 1 23.523596 32.565684 97.434274
6494 1 31.477744 8.236152 103.477804
6495 1 29.165611 11.981652 106.807136
6496 1 31.384754 13.498162 100.344513
6497 1 30.002956 14.941263 98.513174
6498 1 27.182070 4.306780 98.878543
6499 1 23.531963 13.363219 103.888319
6500 1 27.101545 12.438915 108.606492
6501 1 14.681679 5.036380 102.200083
6502 1 0.623756 17.427518 110.912533
6503 1 12.222130 4.186902 94.932175
6504 1 14.249329 6.671541 90.571922
6505 1 24.658631 2.490922 108.289309
6506 1 30.461491 12.081466 125.277659
6507 1 17.089278 3.513558 107.271735
6508 1 0.372115 16.509102 95.157395
6509 1 3.796052 12.598436 111.543515
6510 1 22.064208 12.345209 107.759070
6511 1 23.764950 4.830344 117.661220
6512 1 21.549668 5.457479 106.259607
6513 1 19.431646 8.792081 122.389996
6514 1 24.937652 9.462231 125.661982
6515 1 29.030939 4.284343 124.307387
6516 1 26.967133 15.490219 124.148423
6517 1 20.631908 18.116140 125.485167
6518 1 25.165415 12.850846 132.534302
6519 1 26.602242 11.826750 125.649076
6520 1 1.684532 8.168656 126.968887
6521 1 32.417003 19.203814 122.383033
6522 1 13.410455 27.059647 127.644030
6523 1 28.861800 4.096272 128.409999
6524 1 16.587504 10.400048 130.368882
6525 1 24.952599 4.158762 132.592504
6526 1 22.723723 12.487779 134.525885
6527 1 22.070168 10.424294 125.880603
6528 1 22.211257 8.622516 134.329602
6529 1 24.472486 12.435512 1.516919
6530 1 24.218913 14.407236 3.437139
6531 1 26.777224 12.238118 3.583479
6532 1 26.470834 14.424896 1.614142
6533 1 24.538980 12.225112 5.367915
6534 1 24.445461 14.286021 7.223774
6535 1 26.474959 12.274874 7.423729
6536 1 26.767205 14.497134 5.127393
6537 1 24.309669 12.506100 9.792547
6538 1 25.078142 14.568791 11.286626
6539 1 26.783536 12.518208 11.233348
6540 1 26.616377 14.141764 9.373326
6541 1 24.730008 12.390976 13.683011
6542 1 24.490605 14.260309 15.339458
6543 1 26.499616 12.379713 15.625914
6544 1 26.944283 14.351794 13.690683
6545 1 24.426237 12.233077 17.506283
6546 1 24.536401 14.415376 19.239094
6547 1 26.519031 12.568955 19.614098
6548 1 26.808333 14.401713 17.651649
6549 1 24.381598 12.175067 21.701661
6550 1 24.670298 14.076645 23.711233
6551 1 26.503940 11.892249 23.577791
6552 1 26.556490 14.270607 22.014037
6553 1 24.687539 12.288711 25.721379
6554 1 24.463041 14.604727 27.591430
6555 1 26.440814 12.181612 27.552203
6556 1 26.741390 14.631124 25.219055
6557 1 24.581746 12.170204 29.604635
6558 1 24.552683 14.407355 31.414570
6559 1 26.645048 12.516153 31.480032
6560 1 26.640269 14.169117 29.404749
6561 1 24.374876 12.167420 33.375129
6562 1 24.789777 14.204909 35.567230
6563 1 26.845333 12.384061 35.375270
6564 1 26.639665 14.242762 33.430011
6565 1 24.595369 12.229684 37.574631
6566 1 24.521814 14.095785 39.381134
6567 1 26.668826 11.886513 39.496717
6568 1 26.670081 14.085485 37.651574
6569 1 24.895304 11.791536 41.719268
6570 1 24.746485 14.083143 43.365638
6571 1 26.543875 12.042053 43.515395
6572 1 26.499474 14.033250 41.553710
6573 1 24.355452 11.820283 45.211566
6574 1 24.064583 13.783412 47.366364
6575 1 26.608207 12.286363 47.562376
6576 1 26.386377 14.546634 45.297953
6577 1 24.372406 12.185090 49.475818
6578 1 24.622791 14.494535 51.454853
6579 1 26.591164 12.313345 51.483220
6580 1 26.504242 14.326026 49.426507
6581 1 24.495458 12.277233 53.342012
6582 1 24.623937 14.358198 56.136173
6583 1 26.275826 12.386805 55.251318
6584 1 26.420557 14.309177 53.484948
6585 1 24.325771 11.909559 57.618122
6586 1 24.282061 14.200979 59.336037
6587 1 26.497451 12.012982 59.460685
6588 1 26.774279 14.175209 57.745724
6589 1 24.155371 12.172327 61.729202
6590 1 24.263104 14.650881 63.611537
6591 1 26.549963 12.101393 63.517025
6592 1 26.256349 14.098387 61.411746
6593 1 26.333129 12.761166 67.687095
6594 1 24.479300 10.387290 67.488985
6595 1 28.539801 10.858135 71.982609
6596 1 26.473146 14.758829 69.595870
6597 1 24.960668 8.506383 69.782919
6598 1 18.289513 8.633470 68.033796
6599 1 29.105390 27.842036 73.957203
6600 1 28.550518 8.817998 69.778859
6601 1 24.694487 2.448713 72.178193
6602 1 27.580506 14.748766 83.120043
6603 1 30.594515 16.285068 71.675019
6604 1 31.576677 18.126388 80.442674
6605 1 23.868199 14.100758 77.114098
6606 1 21.075726 9.315692 72.057375
6607 1 25.677328 9.518884 77.619872
6608 1 25.248819 21.980321 81.351407
6609 1 20.935427 15.401313 77.579055
6610 1 22.160474 20.584218 84.551037
6611 1 19.073109 16.771128 94.970883
6612 1 2.006357 12.507612 89.928465
6613 1 30.546234 21.031856 97.293449
6614 1 22.744664 17.575677 88.781220
6615 1 21.720240 11.100021 99.839406
6616 1 24.716997 2.205172 82.762216
6617 1 24.559693 10.732923 91.974104
6618 1 20.189630 14.703476 96.327835
6619 1 27.247187 15.365958 93.388513
6620 1 28.169073 11.547599 101.059600
6621 1 22.388466 30.795795 101.397776
6622 1 2.213219 14.763639 110.222198
6623 1 20.062608 18.960391 94.232958
6624 1 22.136407 17.129645 99.207713
6625 1 24.519226 1.709597 95.182529
6626 1 31.968197 17.051475 107.635797
6627 1 0.384886 24.035502 103.879017
6628 1 28.404994 15.750350 95.812974
6629 1 27.268665 16.689642 104.153404
6630 1 19.573303 10.146661 101.064604
6631 1 1.620242 21.886801 117.375416
6632 1 30.755203 10.336226 105.042058
6633 1 23.721503 8.713810 114.511766
6634 1 23.784914 14.001589 106.815948
6635 1 24.803200 11.321558 123.617753
6636 1 23.363575 6.365243 110.972134
6637 1 19.147528 12.041792 107.029164
6638 1 20.359110 18.169169 117.549967
6639 1 22.090324 15.971433 114.544757
6640 1 29.742480 17.579994 108.982314
6641 1 26.644853 10.473486 116.105150
6642 1 20.967509 9.740873 111.969180
6643 1 28.001344 17.724559 119.484079
6644 1 5.899760 14.500398 116.323485
6645 1 20.537291 12.314993 118.903474
6646 1 32.422358 21.915550 122.152622
6647 1 15.991874 12.689139 124.259312
6648 1 22.825232 14.343238 127.777051
6649 1 2.084117 15.485493 119.875901
6650 1 25.624562 20.521895 123.039802
6651 1 2.363081 10.173631 132.203519
6652 1 0.074888 11.402018 123.871958
6653 1 20.452403 14.472869 134.383899
6654 1 24.566116 14.507896 134.710416
6655 1 26.703436 12.537369 134.540960
6656 1 26.286450 14.437773 127.457086
6657 1 24.505301 16.608739 1.593315
6658 1 24.271533 18.509297 3.507553
6659 1 26.592572 16.735371 3.265608
6660 1 26.277314 18.648655 1.534652
6661 1 24.726661 16.286541 5.586409
6662 1 24.606726 18.372901 7.358772
6663 1 26.516092 16.145406 7.454952
6664 1 26.833462 18.433709 5.749383
6665 1 24.508003 16.199054 8.943010
6666 1 24.674805 18.073875 11.649790
6667 1 26.879145 16.487489 11.151544
6668 1 26.717105 18.259713 9.171412
6669 1 24.787803 16.272965 13.690167
6670 1 24.534987 18.377277 15.680880
6671 1 26.841980 16.659450 15.538420
6672 1 26.788520 18.237372 13.511452
6673 1 25.086469 16.328605 17.280163
6674 1 24.787383 18.155838 19.610650
6675 1 26.662666 16.150186 19.637045
6676 1 26.666488 18.406116 17.691733
6677 1 24.689671 15.945100 21.231444
6678 1 24.622660 18.498840 22.952601
6679 1 26.383797 16.430076 23.330258
6680 1 26.977740 18.582285 21.378831
6681 1 24.567539 16.607622 25.467759
6682 1 24.738146 18.752108 27.803189
6683 1 26.530666 16.618484 27.449109
6684 1 26.747773 18.282248 25.173163
6685 1 24.427819 16.600177 29.443001
6686 1 24.492779 18.526934 31.776006
6687 1 26.915834 16.269578 31.712674
6688 1 26.605145 18.366908 29.876483
6689 1 24.712153 16.241405 33.631247
6690 1 25.028185 18.511491 35.252491
6691 1 26.570639 16.243217 35.774551
6692 1 26.940982 18.260551 33.190488
6693 1 24.398294 16.499992 37.156245
6694 1 24.607109 18.496502 39.263201
6695 1 26.594606 16.292189 39.202220
6696 1 26.891387 18.505687 37.512299
6697 1 24.670257 16.064108 41.072616
6698 1 24.525247 18.103177 43.120125
6699 1 27.153603 16.347253 43.511065
6700 1 26.644624 18.109179 41.499688
6701 1 24.140212 16.267418 45.822224
6702 1 24.415211 18.226579 47.313869
6703 1 26.452040 16.092183 47.468236
6704 1 26.384616 18.057148 45.439546
6705 1 24.201831 16.115491 49.484351
6706 1 23.890885 18.273039 51.347871
6707 1 26.390331 16.384556 51.311422
6708 1 26.340497 18.307182 49.605813
6709 1 24.540688 16.678841 53.546203
6710 1 24.617310 18.678521 55.580907
6711 1 26.309590 16.524237 55.445166
6712 1 26.539294 18.424140 53.125251
6713 1 24.573492 16.451000 57.828337
6714 1 24.631165 18.567039 59.821395
6715 1 26.627690 16.591666 59.552386
6716 1 26.246039 18.796331 57.906012
6717 1 24.540337 16.535995 61.540210
6718 1 24.251029 17.999550 63.706767
6719 1 26.517014 16.152579 63.451873
6720 1 26.665098 18.364534 61.514490
6721 1 20.190797 12.396867 75.183214
6722 1 21.999786 16.197724 67.574100
6723 1 23.585401 13.535034 72.301948
6724 1 24.550978 14.707286 67.725485
6725 1 26.291027 18.184686 73.686906
6726 1 21.650350 14.965739 74.360517
6727 1 24.252573 18.990645 90.313863
6728 1 20.209555 14.219168 67.559000
6729 1 25.630559 13.549325 81.761937
6730 1 25.433037 14.450029 74.185686
6731 1 27.534945 17.056522 81.164294
6732 1 2.234450 14.043484 80.953156
6733 1 18.459088 23.212453 77.691143
6734 1 30.361698 23.201505 81.437094
6735 1 22.173908 21.797753 77.928107
6736 1 20.987965 24.483435 78.343236
6737 1 24.222619 9.154874 79.679014
6738 1 17.305308 7.096637 84.502116
6739 1 28.102825 27.400162 83.342337
6740 1 20.732259 22.930436 97.834549
6741 1 32.714239 18.287846 87.159441
6742 1 30.150738 24.695992 106.975040
6743 1 0.034032 14.338861 90.616497
6744 1 29.762880 22.158223 84.188344
6745 1 20.242720 16.727277 92.564088
6746 1 20.831074 28.386610 85.182252
6747 1 28.970956 14.870973 104.691359
6748 1 32.243267 16.294553 92.347636
6749 1 1.129392 18.763285 106.672129
6750 1 23.804118 18.900878 105.579889
6751 1 10.837161 22.920990 101.585103
6752 1 31.409721 19.022364 89.635970
6753 1 26.396002 26.250365 105.115008
6754 1 12.506678 23.138876 96.329560
6755 1 25.563753 20.629522 102.896663
6756 1 0.096460 21.493231 103.378654
6757 1 30.962764 11.963276 102.659108
6758 1 31.137441 30.934144 109.712369
6759 1 17.899860 7.810281 118.632563
6760 1 28.321339 10.324606 109.786147
6761 1 18.712626 13.493282 120.630434
6762 1 28.368100 21.358901 118.418419
6763 1 30.353818 18.430591 114.146407
6764 1 0.242021 13.246804 109.319800
6765 1 26.528218 19.456264 118.092720
6766 1 1.900276 16.551672 112.899425
6767 1 3.837383 18.731924 119.150523
6768 1 16.769387 13.881138 114.962562
6769 1 22.859430 11.871259 112.384768
6770 1 24.996343 25.434580 124.210699
6771 1 2.038632 21.356414 120.676363
6772 1 3.986961 22.451368 129.870557
6773 1 22.185126 20.567375 126.417914
6774 1 22.874698 18.484964 123.932974
6775 1 21.323773 16.401410 123.401659
6776 1 26.986837 16.789615 126.216086
6777 1 20.822031 10.707804 123.854031
6778 1 24.577666 16.670841 132.297467
6779 1 26.759219 18.513851 132.521556
6780 1 20.934492 9.058170 127.676949
6781 1 22.489130 18.552328 132.403216
6782 1 24.468376 20.226354 132.227739
6783 1 24.174753 16.578306 128.129277
6784 1 26.825987 20.388455 134.375553
6785 1 24.403786 20.632456 0.674374
6786 1 23.903795 22.717375 2.951021
6787 1 26.480388 20.049599 3.711347
6788 1 26.598337 22.235876 1.536634
6789 1 24.114415 20.166936 5.534592
6790 1 23.971275 22.040959 7.287436
6791 1 26.653691 20.583279 7.740564
6792 1 26.244180 22.185714 5.677201
6793 1 24.445591 20.353643 9.444477
6794 1 24.825382 22.197526 11.397846
6795 1 26.622409 20.346755 11.385293
6796 1 26.141956 22.537300 9.275567
6797 1 24.710599 20.418808 13.739532
6798 1 24.748509 22.623214 15.415019
6799 1 26.483472 20.534618 15.722554
6800 1 26.620819 22.316367 13.496107
6801 1 24.488778 20.276923 17.504343
6802 1 24.609185 22.330462 19.498586
6803 1 26.705752 20.331300 19.459144
6804 1 26.627224 22.260800 17.727408
6805 1 24.580948 20.366890 21.414057
6806 1 24.529817 22.441747 23.635123
6807 1 26.959795 20.521289 23.281770
6808 1 26.559660 22.522027 21.441602
6809 1 24.768427 20.235542 25.096920
6810 1 24.627104 22.180582 27.470462
6811 1 26.892913 20.819913 27.771671
6812 1 26.863733 22.378125 25.535490
6813 1 24.775189 20.660951 29.543785
6814 1 24.883074 22.625289 31.491398
6815 1 26.678593 20.493147 31.446955
6816 1 27.021942 22.556467 29.650827
6817 1 24.755773 20.570620 33.534354
6818 1 24.693475 22.545954 35.443167
6819 1 26.944772 20.590954 35.498349
6820 1 26.876768 22.428084 33.400047
6821 1 24.612327 20.423793 37.285079
6822 1 24.639616 22.659174 39.221392
6823 1 26.732944 20.413012 39.500726
6824 1 26.745761 22.230318 37.547767
6825 1 24.700427 20.379051 41.278153
6826 1 24.474361 22.617064 43.446875
6827 1 26.320497 20.411621 43.408711
6828 1 26.712753 22.413904 41.550692
6829 1 24.726812 20.422714 45.556671
6830 1 24.344022 22.418309 47.214140
6831 1 26.557594 20.533880 47.491648
6832 1 26.534158 22.705517 45.546917
6833 1 24.629103 20.166301 49.158034
6834 1 24.135780 22.483008 51.601365
6835 1 25.977500 20.176379 51.558689
6836 1 26.502005 22.396696 49.588309
6837 1 23.897658 20.323701 53.439166
6838 1 24.510420 22.608407 55.557223
6839 1 26.398784 20.630039 55.608529
6840 1 26.358569 22.471638 53.711542
6841 1 24.233178 20.595247 57.747169
6842 1 24.457406 22.496243 59.910073
6843 1 26.432217 20.562328 60.126393
6844 1 26.631234 22.458985 57.785998
6845 1 24.646746 20.216118 62.120596
6846 1 24.781046 22.596745 63.729053
6847 1 27.181308 20.854143 63.390529
6848 1 26.543992 22.547972 61.640539
6849 1 24.466656 20.599079 65.584216
6850 1 26.735493 22.571766 69.752150
6851 1 26.574994 14.425631 65.389985
6852 1 28.810916 18.190470 67.444630
6853 1 26.669284 18.212347 69.657854
6854 1 26.065583 19.999220 67.507796
6855 1 22.083700 18.204983 65.730736
6856 1 30.936086 20.223621 68.081888
6857 1 29.014151 22.793995 72.024156
6858 1 17.926022 18.827709 69.291856
6859 1 17.718934 20.625114 76.753819
6860 1 24.333409 16.589144 77.990189
6861 1 22.400844 18.164944 69.815601
6862 1 32.429928 18.311341 71.956570
6863 1 21.579441 18.748254 81.439937
6864 1 22.685550 20.492346 75.746056
6865 1 23.375964 21.366799 87.295964
6866 1 21.267498 13.662149 81.135294
6867 1 5.244305 32.161274 93.213766
6868 1 24.432457 23.718233 78.626263
6869 1 24.136395 30.120902 81.502283
6870 1 28.413739 17.631578 93.687859
6871 1 31.928590 16.580284 99.220728
6872 1 0.620217 30.386989 86.790485
6873 1 23.808046 19.051431 100.181266
6874 1 31.869619 25.408361 93.807986
6875 1 31.011465 19.247534 103.956934
6876 1 30.360216 27.617183 93.194598
6877 1 30.631417 10.655357 87.513165
6878 1 27.623516 25.013310 101.026250
6879 1 5.034892 20.863354 102.240556
6880 1 30.759794 26.952753 108.395730
6881 1 19.330789 15.753957 101.144407
6882 1 25.499284 18.654147 112.691899
6883 1 31.854222 24.177607 100.154364
6884 1 29.212130 25.210642 113.456485
6885 1 13.085476 26.163421 113.063172
6886 1 22.992057 12.823625 117.335005
6887 1 27.571471 26.367553 115.301025
6888 1 0.152092 19.402266 114.789704
6889 1 2.818737 22.636271 110.371161
6890 1 28.849481 32.438428 97.336756
6891 1 26.558554 28.652543 113.757980
6892 1 6.753160 11.908812 115.503057
6893 1 32.519008 17.720472 119.295789
6894 1 20.054972 26.725306 118.818393
6895 1 2.593693 19.726582 125.687328
6896 1 27.842361 19.715076 121.088418
6897 1 30.269107 18.859191 120.260739
6898 1 27.930393 1.731462 123.532380
6899 1 22.964798 17.685654 116.565797
6900 1 21.637811 13.373848 114.443577
6901 1 23.440780 20.765928 121.382250
6902 1 22.439072 0.125551 130.256295
6903 1 20.221044 26.954388 129.625132
6904 1 22.267133 28.616454 130.337001
6905 1 16.510346 23.224782 129.555996
6906 1 20.841301 24.694342 128.229548
6907 1 22.044858 20.247250 130.520869
6908 1 28.783504 22.498368 130.430668
6909 1 18.273165 21.021874 130.098375
6910 1 22.404863 26.646692 132.085897
6911 1 22.807240 24.964936 130.097936
6912 1 26.187622 24.037968 130.099973
6913 1 24.375358 24.658361 0.884360
6914 1 24.173326 26.358476 3.063728
6915 1 26.171851 24.131056 3.294834
6916 1 26.652085 26.596833 1.255433
6917 1 24.279880 24.130378 5.268705
6918 1 24.462977 26.736974 7.437876
6919 1 26.130984 24.588085 7.499650
6920 1 26.447360 26.505384 5.230648
6921 1 24.044587 24.150050 9.310932
6922 1 24.402445 26.173301 11.112698
6923 1 26.698299 24.392507 11.215945
6924 1 26.534585 26.458658 9.697938
6925 1 24.348355 24.114739 13.102742
6926 1 24.902371 26.642696 15.367986
6927 1 26.889822 24.522758 15.420437
6928 1 26.818674 26.215353 13.214731
6929 1 24.843247 24.386892 17.390754
6930 1 24.725012 26.489295 19.216884
6931 1 26.613648 24.598329 19.574575
6932 1 26.925911 26.539393 17.181563
6933 1 24.290818 24.547404 21.403958
6934 1 24.857833 26.474627 23.449082
6935 1 26.444444 24.303541 23.356022
6936 1 26.784495 26.286869 21.250514
6937 1 24.443281 24.471786 25.394921
6938 1 24.745852 26.371633 27.415291
6939 1 26.650407 24.517724 27.331937
6940 1 26.955001 26.271123 25.304135
6941 1 24.882108 24.471948 29.251765
6942 1 24.984131 26.258448 31.113162
6943 1 26.686465 24.591725 31.351242
6944 1 26.976214 26.491253 29.181077
6945 1 24.598575 24.667116 33.439974
6946 1 24.611005 26.579069 35.426027
6947 1 26.954477 24.250225 35.617127
6948 1 26.848918 26.231483 33.689689
6949 1 24.900567 24.679996 37.206129
6950 1 24.626006 26.434598 39.952239
6951 1 26.799443 24.531763 39.180830
6952 1 26.431799 26.902255 37.670004
6953 1 24.409705 24.902326 41.653548
6954 1 24.506868 26.583113 43.769545
6955 1 26.745920 24.534844 43.586294
6956 1 26.715473 26.571377 41.739600
6957 1 24.316615 24.533002 45.672362
6958 1 24.688392 26.419099 47.769720
6959 1 26.556682 24.283782 47.509917
6960 1 26.598380 26.731752 46.004399
6961 1 24.343044 24.414323 49.508916
6962 1 24.509507 26.798095 51.621124
6963 1 26.273319 24.376812 51.488680
6964 1 26.389915 26.388570 49.749914
6965 1 24.315589 24.780569 53.761504
6966 1 24.468821 26.355056 55.949208
6967 1 26.490043 24.614628 55.490783
6968 1 26.673276 26.886774 53.920919
6969 1 24.656834 24.433145 57.916965
6970 1 24.787124 26.766168 59.875541
6971 1 26.675533 24.565064 59.524467
6972 1 26.398363 26.935081 57.728461
6973 1 24.795201 24.441074 61.850230
6974 1 24.783336 26.574452 63.773418
6975 1 26.716953 24.587826 63.982959
6976 1 26.844819 26.339708 61.715947
6977 1 24.847889 24.386578 65.825357
6978 1 31.169456 24.313167 71.804695
6979 1 31.040368 18.294579 69.821444
6980 1 26.653641 26.624810 66.053049
6981 1 19.384683 30.600175 77.437358
6982 1 20.458944 0.527970 70.137380
6983 1 0.102446 18.429539 67.547992
6984 1 27.199204 0.215211 83.256208
6985 1 24.340807 24.485695 70.035714
6986 1 15.093814 25.003253 75.704119
6987 1 26.540860 26.795327 70.189054
6988 1 28.660947 29.665208 80.969475
6989 1 16.763293 18.248622 76.557664
6990 1 21.400883 21.461407 82.039342
6991 1 26.543268 17.128409 76.162172
6992 1 22.231924 17.840508 83.951829
6993 1 23.299835 22.529256 83.307464
6994 1 15.471516 24.508979 78.152340
6995 1 29.298704 32.506038 81.349994
6996 1 29.804584 27.994059 79.182365
6997 1 9.953836 24.109262 85.689491
6998 1 23.794346 32.571392 92.156374
6999 1 24.405527 17.820756 93.288817
7000 1 0.268986 15.554577 87.719771
7001 1 23.795092 20.895388 92.804898
7002 1 16.783418 19.205005 94.753071
7003 1 32.637438 21.979866 95.806082
7004 1 25.064557 1.861240 90.483425
7005 1 0.120152 26.163676 102.363998
7006 1 24.557507 15.367879 99.005087
7007 1 2.008201 26.348915 104.445208
7008 1 1.494951 20.725063 99.478514
7009 1 1.759680 14.093445 116.567155
7010 1 19.122752 24.284776 103.444147
7011 1 18.503142 21.832336 105.838409
7012 1 18.697056 26.671806 101.833578
7013 1 26.371522 21.047977 113.657107
7014 1 11.039952 20.542361 100.276595
7015 1 8.757196 21.182069 111.394536
7016 1 5.770546 16.692232 108.547846
7017 1 26.874777 15.480740 114.806993
7018 1 25.170924 26.654585 113.763296
7019 1 31.469107 26.258007 117.593178
7020 1 27.269333 23.889708 114.341623
7021 1 21.343324 23.224146 104.730199
7022 1 24.605551 29.272890 119.735848
7023 1 28.121080 30.141653 111.579223
7024 1 25.885554 6.305777 123.842793
7025 1 18.222464 24.676158 119.748862
7026 1 0.015222 28.340272 123.912522
7027 1 24.187624 28.591880 128.072725
7028 1 24.179576 26.461946 121.770550
7029 1 29.820171 28.022193 130.238884
7030 1 28.351854 29.754956 123.862725
7031 1 20.858955 6.250652 121.825289
7032 1 29.997716 0.025047 122.994716
7033 1 29.599062 25.474229 119.537142
7034 1 26.873229 28.609543 130.387316
7035 1 32.565770 18.505214 134.401375
7036 1 25.647329 27.527857 125.672382
7037 1 24.104384 30.637153 129.885417
7038 1 24.077683 26.621078 134.232389
7039 1 26.336606 26.752038 132.350307
7040 1 26.672541 24.826047 134.342490
7041 1 24.516832 28.326171 1.428467
7042 1 24.253457 30.656971 2.998134
7043 1 26.462371 28.650096 3.104348
7044 1 26.628767 30.245986 0.904665
7045 1 24.664805 28.803044 5.195204
7046 1 24.513321 30.608623 7.278177
7047 1 26.598414 28.185194 7.266743
7048 1 26.577437 30.342716 5.456468
7049 1 24.642350 28.439989 9.329265
7050 1 24.758211 30.624098 11.347132
7051 1 26.644765 28.772920 11.240544
7052 1 26.323649 30.851531 9.120361
7053 1 24.752578 28.186971 13.291201
7054 1 24.763525 30.801780 15.171306
7055 1 26.850476 28.690462 15.197807
7056 1 26.843952 30.879093 13.244829
7057 1 24.927892 28.678943 17.231309
7058 1 24.886417 30.288217 19.369817
7059 1 26.865203 28.656449 19.264984
7060 1 26.739446 30.877254 17.472335
7061 1 24.611616 28.453266 21.340962
7062 1 24.745571 30.507092 23.789290
7063 1 26.844928 28.362969 23.716565
7064 1 26.739945 30.621775 21.448941
7065 1 24.793247 28.380466 25.657402
7066 1 25.138766 30.338330 27.880389
7067 1 26.815669 28.214817 27.463801
7068 1 26.702553 30.550198 25.346196
7069 1 24.906038 28.479759 29.730724
7070 1 24.878045 30.908155 31.484604
7071 1 26.653690 28.638193 31.618067
7072 1 27.329477 30.600783 29.366860
7073 1 24.521794 28.685930 33.381551
7074 1 24.375630 30.635528 35.379981
7075 1 26.445643 28.508939 35.536644
7076 1 26.337109 30.671391 33.848866
7077 1 24.319668 28.889904 37.509981
7078 1 24.809552 30.098495 39.484923
7079 1 26.737776 28.419181 39.777303
7080 1 26.741440 30.426133 37.620805
7081 1 24.789497 28.536142 41.760246
7082 1 24.510920 30.463788 43.706181
7083 1 26.452494 28.579144 43.983456
7084 1 26.795959 30.543581 41.474362
7085 1 24.744958 28.563993 45.938588
7086 1 24.766166 30.648628 47.939280
7087 1 26.787181 28.586978 48.046668
7088 1 26.572852 30.555011 45.587409
7089 1 24.450874 28.475448 49.737862
7090 1 24.400447 30.391095 51.725285
7091 1 26.700547 28.616307 51.691842
7092 1 26.431174 30.470045 49.861856
7093 1 24.584925 28.405001 53.876032
7094 1 23.962038 30.590682 55.562906
7095 1 26.482046 28.911905 55.771000
7096 1 26.724105 30.509392 53.689081
7097 1 24.643514 28.889245 57.787861
7098 1 24.389957 30.774451 59.842993
7099 1 26.508625 28.775174 59.967705
7100 1 26.654415 30.988096 57.541670
7101 1 24.478281 28.721650 61.931843
7102 1 24.439957 30.738239 64.069453
7103 1 26.366144 28.897184 64.154298
7104 1 26.829680 30.572754 61.941832
7105 1 26.693810 30.887129 66.007669
7106 1 26.795100 24.788115 67.887238
7107 1 18.350961 20.576382 80.523616
7108 1 28.887130 30.429917 67.923629
7109 1 29.227755 25.649043 78.496399
7110 1 22.618506 30.965817 69.939622
7111 1 30.398171 0.827798 78.917095
7112 1 22.454717 22.756730 69.748638
7113 1 20.123558 21.980398 79.403386
7114 1 22.894885 24.099998 76.283454
7115 1 22.589271 32.456996 80.501639
7116 1 30.342927 2.146531 81.288964
7117 1 20.034099 24.974740 83.669556
7118 1 23.443099 32.496472 83.136621
7119 1 21.441978 26.566463 80.262440
7120 1 20.687607 24.094673 80.996100
7121 1 26.192537 29.870310 84.456554
7122 1 26.238910 27.701951 86.430341
7123 1 25.871828 23.276263 96.294226
7124 1 24.626058 2.740044 78.915934
7125 1 0.171308 25.960532 84.898966
7126 1 19.777996 19.439696 85.342790
7127 1 29.240928 18.862918 80.834713
7128 1 28.290085 28.865885 90.684796
7129 1 25.556135 26.070764 102.542587
7130 1 23.496647 23.483977 98.647966
7131 1 2.580329 2.531888 108.134059
7132 1 27.989115 31.525374 86.021759
7133 1 25.986418 29.355390 109.730067
7134 1 19.317925 27.457624 98.765954
7135 1 25.581303 24.742398 107.731623
7136 1 25.523922 29.700887 101.406009
7137 1 30.635462 6.270816 108.163393
7138 1 21.204273 23.974005 107.415949
7139 1 22.633216 27.843676 113.392051
7140 1 24.487036 0.334682 117.958105
7141 1 13.834687 31.062525 109.561506
7142 1 20.971412 26.520750 103.299544
7143 1 18.960297 20.251353 108.555960
7144 1 22.235912 28.953266 103.930306
7145 1 29.466354 20.017274 109.937665
7146 1 20.352496 31.900181 101.476123
7147 1 22.634254 26.644887 115.606491
7148 1 27.441381 22.577818 121.709205
7149 1 23.951078 1.329366 115.649866
7150 1 23.673049 4.186108 105.748280
7151 1 4.066640 9.312713 122.817010
7152 1 20.447426 28.712656 101.616338
7153 1 14.845468 2.138859 123.939148
7154 1 22.729121 30.825283 118.402334
7155 1 1.869431 3.039539 123.035294
7156 1 20.656156 0.234017 121.739723
7157 1 23.011553 9.980757 121.927481
7158 1 26.510540 29.590856 126.548772
7159 1 4.410018 23.908830 113.377159
7160 1 26.580454 1.114881 119.363447
7161 1 25.646966 30.325976 123.951806
7162 1 24.444231 28.614630 132.336179
7163 1 31.159112 28.082939 135.089801
7164 1 2.041276 32.280952 130.391249
7165 1 24.512652 31.019414 134.622071
7166 1 22.708268 0.253723 134.757204
7167 1 26.348668 28.408188 134.388559
7168 1 26.580153 2.118205 132.244254
7169 1 28.506220 32.230778 1.539918
7170 1 28.485443 2.377692 3.423463
7171 1 30.280359 32.589137 3.366724
7172 1 30.645688 1.608702 1.407830
7173 1 28.872473 0.361295 5.350480
7174 1 28.743590 1.884765 7.288611
7175 1 30.724829 0.378448 7.155585
7176 1 30.953988 2.436697 5.102219
7177 1 28.403767 0.080257 9.166336
7178 1 28.505068 2.009565 11.167917
7179 1 30.702077 32.545218 11.502771
7180 1 30.392356 2.286380 9.328957
7181 1 28.762978 32.617564 13.646475
7182 1 28.817262 1.883646 15.304935
7183 1 30.870756 0.165897 15.581674
7184 1 30.875024 2.022416 13.236578
7185 1 28.808333 32.659754 17.399956
7186 1 28.873314 2.142184 19.680502
7187 1 30.701003 32.511325 19.167098
7188 1 30.885103 1.876446 17.490934
7189 1 28.675929 32.461858 21.358565
7190 1 28.606058 1.833553 23.494439
7191 1 30.762547 32.541361 23.448589
7192 1 30.796104 1.744936 21.653568
7193 1 28.708445 32.583428 25.211929
7194 1 28.669903 2.030665 27.470827
7195 1 30.983868 0.139354 27.299864
7196 1 30.713992 2.111604 25.329769
7197 1 29.096178 32.536171 29.309212
7198 1 28.903261 1.791244 31.585334
7199 1 30.604775 32.176580 31.405957
7200 1 30.830572 1.871295 29.249198
7201 1 28.684658 32.333317 34.166835
7202 1 28.908917 2.014615 35.581946
7203 1 30.871352 32.663964 35.721148
7204 1 30.662042 1.943928 33.493247
7205 1 28.796964 32.308470 37.479130
7206 1 28.552208 1.826755 39.239048
7207 1 30.734909 0.055631 39.683945
7208 1 30.826690 2.093673 37.714148
7209 1 28.828822 32.642441 41.460135
7210 1 28.260107 1.943074 43.683143
7211 1 30.542767 32.660684 43.814159
7212 1 30.379640 2.103696 41.721626
7213 1 28.992549 32.152768 45.906692
7214 1 28.965788 2.189573 47.469914
7215 1 30.876120 0.076327 48.264686
7216 1 30.771427 1.852732 45.774932
7217 1 28.825136 32.257579 49.843467
7218 1 28.712817 2.167486 51.922167
7219 1 30.726846 32.624878 51.486790
7220 1 30.241234 2.248974 49.695478
7221 1 28.557170 32.468631 53.235696
7222 1 28.579191 1.907798 55.777080
7223 1 30.737692 32.532952 55.807151
7224 1 30.738060 1.789402 53.653687
7225 1 28.892314 32.602620 57.730983
7226 1 28.524366 2.264817 59.670041
7227 1 30.906028 0.325742 59.532319
7228 1 30.721020 2.395942 57.644849
7229 1 29.013272 0.184287 61.831268
7230 1 28.288913 2.114269 64.218281
7231 1 30.568196 0.083749 64.310560
7232 1 30.544485 2.375175 61.951131
7233 1 30.977135 30.563561 66.117683
7234 1 0.094369 28.556693 69.990350
7235 1 32.497047 28.170250 65.754193
7236 1 2.155689 2.181625 65.713297
7237 1 32.251048 28.769773 74.656547
7238 1 27.915671 2.086910 78.756732
7239 1 26.663801 30.517814 69.892524
7240 1 26.773505 1.876809 73.660870
7241 1 20.762955 25.978706 76.288490
7242 1 21.210329 31.418343 72.166346
7243 1 25.571693 3.647540 92.802161
7244 1 25.069546 1.717221 75.753181
7245 1 25.562665 32.500360 88.546647
7246 1 19.581429 3.855714 88.015785
7247 1 19.469075 12.144918 80.248009
7248 1 24.883450 30.874579 90.233541
7249 1 19.457832 32.122136 84.084966
7250 1 21.081383 11.707413 84.964866
7251 1 24.954899 31.729962 94.844986
7252 1 21.818232 5.002056 97.687534
7253 1 24.345372 29.221070 86.088253
7254 1 29.296084 0.997024 84.905905
7255 1 26.474619 21.479213 87.405900
7256 1 17.653296 30.292549 92.629874
7257 1 22.619244 2.664870 90.838831
7258 1 24.128834 19.765019 82.894272
7259 1 30.895693 29.183147 91.078595
7260 1 6.864168 30.092894 103.848349
7261 1 2.821765 26.868253 111.357795
7262 1 28.042581 24.720795 103.491523
7263 1 30.703249 30.693790 95.847792
7264 1 23.975472 8.919649 102.963938
7265 1 28.655150 2.881378 106.008214
7266 1 31.171793 7.866054 106.443090
7267 1 21.859792 30.742187 107.592892
7268 1 22.031119 29.870929 95.739120
7269 1 31.147720 7.403875 116.311313
7270 1 26.516231 4.707416 106.051029
7271 1 24.706736 4.838382 102.559215
7272 1 20.090115 32.486823 106.899218
7273 1 32.576601 32.478639 111.224654
7274 1 6.039844 20.884742 110.494606
7275 1 2.543633 29.712842 108.694827
7276 1 6.775855 2.728160 111.584676
7277 1 25.456803 31.544176 111.726445
7278 1 1.192859 8.719469 102.252135
7279 1 29.791763 10.460397 120.796426
7280 1 31.889258 0.076129 97.727923
7281 1 32.525381 25.155496 121.615227
7282 1 30.380172 0.430859 119.937524
7283 1 32.595395 4.193569 124.562937
7284 1 28.811386 9.162761 116.113905
7285 1 28.854863 32.062902 118.250243
7286 1 28.761472 2.016508 126.501003
7287 1 0.139107 31.605991 121.958639
7288 1 28.534456 5.785074 126.195613
7289 1 32.545740 24.881239 131.963860
7290 1 0.216227 8.047553 132.584848
7291 1 0.496961 4.178983 132.446131
7292 1 30.622844 1.779932 128.452164
7293 1 28.674725 32.427518 128.543535
7294 1 26.721878 0.007236 134.736613
7295 1 0.223910 1.727822 134.317702
7296 1 29.248699 29.429391 118.669518
7297 1 29.079893 3.947732 0.998320
7298 1 28.051872 6.057729 3.165290
7299 1 30.469222 4.449779 3.247890
7300 1 30.773892 6.312082 1.354819
7301 1 28.814402 4.172529 5.473503
7302 1 28.511164 6.236631 7.197406
7303 1 30.148349 4.320908 7.745978
7304 1 30.829996 6.107074 5.223418
7305 1 28.584131 4.442246 10.148030
7306 1 28.453006 6.520342 11.739419
7307 1 30.746265 4.105806 11.465675
7308 1 30.354724 6.583469 9.286407
7309 1 28.613429 3.650300 13.138145
7310 1 28.542007 5.964818 15.529833
7311 1 30.801847 3.915240 15.660651
7312 1 30.740612 6.025704 13.788021
7313 1 28.824586 3.752033 17.391811
7314 1 28.817397 6.121360 19.653243
7315 1 30.901982 3.953004 19.745585
7316 1 30.809729 5.769486 17.697209
7317 1 28.381599 3.969581 21.720356
7318 1 28.522548 6.058349 23.697076
7319 1 30.481198 3.913300 23.355814
7320 1 30.749116 6.020645 21.376619
7321 1 28.651172 4.149640 25.557749
7322 1 28.653114 6.221039 27.603482
7323 1 30.629629 3.978486 27.293080
7324 1 30.536903 6.124612 25.578858
7325 1 29.016819 3.864825 29.698271
7326 1 28.622468 5.947917 31.494150
7327 1 30.937077 3.829821 31.573242
7328 1 30.559363 5.805416 29.451781
7329 1 28.577175 3.711232 33.398968
7330 1 28.477820 5.645966 35.249878
7331 1 30.809966 4.043435 35.933683
7332 1 30.476936 5.634202 33.483034
7333 1 28.604739 4.035002 37.597922
7334 1 28.624898 6.086461 39.424177
7335 1 30.747806 4.141244 39.340973
7336 1 30.609255 6.341664 37.225473
7337 1 28.385515 4.130728 41.884909
7338 1 28.588943 6.091254 43.759502
7339 1 30.808338 3.944681 43.827521
7340 1 30.640998 5.894290 41.582799
7341 1 28.769027 4.302398 45.797170
7342 1 28.298951 5.925019 47.908478
7343 1 30.443986 4.335803 48.077085
7344 1 30.382634 6.135809 45.818006
7345 1 28.458677 4.293194 49.771034
7346 1 28.719842 6.181652 51.814017
7347 1 30.902398 3.878899 51.494014
7348 1 30.521006 6.262566 49.728552
7349 1 28.568026 4.077849 53.546224
7350 1 28.501621 6.205408 55.729709
7351 1 30.801618 4.067551 55.445816
7352 1 30.876579 5.635770 53.483522
7353 1 28.678305 4.079098 57.596234
7354 1 28.393682 5.988435 59.710822
7355 1 30.425903 4.341841 59.681279
7356 1 30.403939 6.029341 57.625870
7357 1 28.757365 4.111053 61.850029
7358 1 28.542988 6.129655 63.807563
7359 1 30.632699 4.292968 63.880907
7360 1 30.428317 6.237058 61.854521
7361 1 30.567989 4.474742 68.174367
7362 1 24.462452 0.484068 70.121385
7363 1 27.073686 4.352748 72.167992
7364 1 30.526725 6.369401 65.489468
7365 1 26.519308 28.531850 67.842002
7366 1 24.443810 32.604864 78.111621
7367 1 31.962099 1.604804 85.939295
7368 1 24.989355 29.917695 76.464861
7369 1 22.751402 2.240533 81.006505
7370 1 18.040625 4.577513 76.769502
7371 1 0.160391 4.177032 73.834579
7372 1 28.456024 4.173015 74.949038
7373 1 23.561153 4.943916 76.695874
7374 1 27.033179 4.693909 79.999558
7375 1 24.019058 3.270860 88.147335
7376 1 19.153977 11.067045 82.831717
7377 1 25.418700 7.231842 82.791343
7378 1 21.836170 5.134285 94.903636
7379 1 28.663653 28.853104 85.843884
7380 1 30.055774 2.869883 89.289744
7381 1 27.518088 0.578084 95.214866
7382 1 19.449544 9.950889 85.418135
7383 1 26.033834 1.553463 97.358063
7384 1 30.372180 9.345120 92.722232
7385 1 19.872713 3.803706 96.069341
7386 1 27.332212 10.892947 97.670184
7387 1 24.526041 32.019756 85.694584
7388 1 27.131136 30.158407 94.217659
7389 1 29.197679 9.324123 101.954874
7390 1 26.199838 13.079398 102.793135
7391 1 26.766613 8.465556 101.952119
7392 1 1.030352 11.822410 99.399828
7393 1 0.442701 2.697459 98.946153
7394 1 2.433355 1.326406 100.260457
7395 1 30.317485 5.698036 102.691613
7396 1 30.069678 15.510430 87.342388
7397 1 28.491272 6.898722 106.050824
7398 1 25.512968 10.870389 101.916995
7399 1 30.507399 5.617114 112.710675
7400 1 22.326049 5.105375 100.308209
7401 1 5.987129 3.819446 108.779594
7402 1 17.635508 12.696608 111.098465
7403 1 28.136839 12.575422 111.846442
7404 1 20.979152 32.117181 96.615446
7405 1 32.304224 1.695796 116.883562
7406 1 0.297289 5.844242 126.490739
7407 1 22.412496 0.191588 111.859944
7408 1 28.869879 6.769439 114.663470
7409 1 19.230250 12.909173 130.112402
7410 1 21.861133 14.403588 120.916155
7411 1 30.144106 12.307165 114.198082
7412 1 27.039891 12.189090 120.818932
7413 1 18.855836 3.752514 111.959025
7414 1 19.765963 5.237283 108.094263
7415 1 27.943737 0.786599 110.470269
7416 1 0.081988 1.734652 126.375986
7417 1 25.198538 6.312288 119.261005
7418 1 26.770376 6.517704 132.814153
7419 1 30.926265 0.011399 130.626333
7420 1 2.306447 13.085091 124.938225
7421 1 29.061249 6.243252 130.425635
7422 1 0.317711 6.126027 130.483035
7423 1 29.251949 3.987052 132.573140
7424 1 31.097904 3.842564 134.453355
7425 1 28.415136 8.165945 1.155418
7426 1 28.635553 10.144443 3.486942
7427 1 30.955963 8.370561 3.287603
7428 1 31.087597 9.775869 1.083078
7429 1 28.404985 8.142598 5.244944
7430 1 28.546383 10.069622 7.499800
7431 1 30.534143 8.137904 7.004205
7432 1 30.747588 10.194531 5.004739
7433 1 28.078717 8.297964 9.434793
7434 1 28.493892 10.423247 11.258168
7435 1 30.495464 8.229046 11.476275
7436 1 30.500496 9.867608 9.259760
7437 1 28.496574 8.324621 13.321036
7438 1 28.622237 10.109766 16.164637
7439 1 30.475484 8.272788 15.393162
7440 1 30.344151 10.384444 13.733823
7441 1 28.510590 7.974661 17.505481
7442 1 28.664294 10.378192 19.753500
7443 1 30.637913 8.111413 19.546771
7444 1 30.623984 10.312541 17.945171
7445 1 28.723453 8.137024 21.489818
7446 1 28.777710 10.161652 23.708609
7447 1 30.613723 8.270849 23.277395
7448 1 30.895820 10.267455 21.153627
7449 1 28.674020 8.153295 25.731071
7450 1 28.518574 10.077523 27.549717
7451 1 30.782614 8.378245 27.895117
7452 1 30.686198 10.228431 25.368508
7453 1 28.904474 8.199110 29.508022
7454 1 28.661794 10.285989 31.293737
7455 1 30.931438 8.132373 31.541125
7456 1 30.748724 10.362744 29.547506
7457 1 28.524591 7.986264 33.306688
7458 1 28.672263 10.345718 35.166122
7459 1 30.451761 8.136998 35.079382
7460 1 30.623096 10.065181 33.267266
7461 1 28.261412 7.772618 37.611801
7462 1 28.619187 9.943767 39.445504
7463 1 30.566353 8.090366 39.219750
7464 1 30.241111 9.898409 37.273654
7465 1 28.745280 7.863554 41.437982
7466 1 28.907955 9.796565 43.586774
7467 1 30.542176 7.819271 43.575754
7468 1 30.551562 9.898451 41.341408
7469 1 28.286798 8.075647 45.828895
7470 1 28.632381 10.326056 47.608040
7471 1 30.794549 8.075592 47.699229
7472 1 30.714327 10.172679 45.821542
7473 1 28.419985 8.276297 49.661871
7474 1 28.708360 10.055422 51.563453
7475 1 30.894394 8.020870 51.629939
7476 1 30.583662 10.107863 49.581245
7477 1 28.553036 8.053046 53.682881
7478 1 28.836086 10.068160 55.323851
7479 1 30.537359 7.731253 55.310710
7480 1 30.556363 10.614928 53.219342
7481 1 28.979062 8.232765 57.479918
7482 1 28.625845 10.512079 59.359887
7483 1 30.242472 8.161987 59.816952
7484 1 30.912733 10.409036 57.690400
7485 1 28.262360 8.176234 61.539414
7486 1 28.265983 10.265787 63.712339
7487 1 31.026725 8.129288 63.642577
7488 1 30.399628 10.120781 61.630895
7489 1 28.853894 0.001940 69.734213
7490 1 26.481191 10.316994 65.793786
7491 1 26.504022 4.342190 67.831375
7492 1 30.656107 10.667480 65.461179
7493 1 27.036121 6.709857 69.491983
7494 1 17.035511 9.942007 75.776251
7495 1 30.343203 6.593463 69.873566
7496 1 32.268538 12.851347 77.715985
7497 1 30.027537 4.574192 71.877279
7498 1 25.114739 6.154342 72.393323
7499 1 31.054105 1.928673 76.404501
7500 1 5.516995 3.428234 84.932104
7501 1 15.494278 4.158072 81.244653
7502 1 31.727830 16.173184 84.924890
7503 1 29.212163 5.400279 89.966098
7504 1 25.157356 16.756370 88.841659
7505 1 21.255345 14.914589 89.597511
7506 1 23.221614 13.694888 83.098147
7507 1 6.838142 11.084749 81.218965
7508 1 29.702907 17.616376 88.685522
7509 1 24.018218 3.156612 98.956054
7510 1 28.588094 13.185415 92.093391
7511 1 17.007264 6.521858 95.788055
7512 1 24.703950 5.572056 80.421241
7513 1 26.210545 8.423265 99.054879
7514 1 22.400394 10.397704 87.678785
7515 1 1.882579 5.337900 97.750457
7516 1 23.032436 3.247144 93.626399
7517 1 25.207183 11.342515 99.236654
7518 1 26.207675 8.996148 112.165147
7519 1 0.223474 5.844004 103.050850
7520 1 29.543658 5.559870 99.450647
7521 1 19.803940 4.230406 102.091590
7522 1 0.004879 5.244490 100.215638
7523 1 32.570770 9.989830 110.165969
7524 1 30.831050 13.804658 107.877956
7525 1 26.411604 6.227318 95.749071
7526 1 31.773665 19.853991 112.089860
7527 1 32.717810 3.494925 107.836146
7528 1 5.107461 1.625304 98.809246
7529 1 30.562353 10.336036 108.062754
7530 1 5.272987 9.503798 115.877186
7531 1 28.525478 1.293364 113.632788
7532 1 27.300075 30.474510 99.526953
7533 1 16.735696 4.787460 123.931693
7534 1 19.263786 9.799688 119.713067
7535 1 24.589556 4.865559 121.388436
7536 1 24.168080 18.794923 126.269095
7537 1 30.578031 2.237145 124.097591
7538 1 30.334985 10.732902 111.850459
7539 1 27.917402 4.380393 113.789701
7540 1 2.323528 2.359767 120.181382
7541 1 32.394510 14.351977 125.738410
7542 1 4.049356 12.562841 132.197569
7543 1 23.870115 16.177580 121.863310
7544 1 31.536846 13.281730 116.861922
7545 1 22.625778 8.508560 130.506035
7546 1 24.956842 10.592949 134.783938
7547 1 4.253341 30.221352 126.605953
7548 1 24.666680 14.834863 130.078671
7549 1 30.884875 10.054948 132.317456
7550 1 29.191875 10.005290 130.037549
7551 1 30.879821 8.158654 134.308998
7552 1 4.460856 14.802234 129.605637
7553 1 28.478072 12.392314 1.338789
7554 1 28.402805 14.466131 3.185118
7555 1 30.779869 12.586352 3.215738
7556 1 30.875051 14.393413 1.196746
7557 1 28.655246 12.387591 5.402376
7558 1 28.584352 14.227179 7.537568
7559 1 30.673694 12.258099 7.246706
7560 1 30.430438 14.324464 5.301832
7561 1 28.944395 12.448235 9.521888
7562 1 28.636811 14.758819 11.193493
7563 1 30.457529 12.380826 11.827169
7564 1 30.606645 14.340318 9.396243
7565 1 28.446408 12.092919 13.666083
7566 1 28.572066 14.378490 15.756511
7567 1 30.342636 12.106819 15.546149
7568 1 30.702917 14.541030 13.653939
7569 1 28.881557 12.364628 17.787690
7570 1 28.770882 14.042746 19.928392
7571 1 30.996645 12.477899 19.501823
7572 1 30.790575 14.573291 17.247808
7573 1 28.674269 12.280186 21.747109
7574 1 28.721951 14.156839 23.755920
7575 1 30.886237 12.302604 23.549398
7576 1 30.934187 14.122200 21.659957
7577 1 28.672538 12.081082 25.434218
7578 1 28.424716 14.395672 27.362967
7579 1 30.779594 12.177040 27.410931
7580 1 30.744741 14.181542 25.435505
7581 1 28.731597 12.266158 29.379623
7582 1 28.861652 14.305903 31.187368
7583 1 30.481703 12.258192 31.219915
7584 1 30.851135 14.175849 29.444692
7585 1 28.767914 12.149983 33.463488
7586 1 28.675489 14.334605 35.455325
7587 1 30.691843 12.251752 35.218565
7588 1 30.928675 14.059133 33.290595
7589 1 28.504493 12.153309 37.295056
7590 1 28.642524 13.778346 39.816058
7591 1 30.503037 12.045327 39.224034
7592 1 31.022545 14.382601 37.165156
7593 1 28.496118 11.827352 41.627014
7594 1 28.460916 13.915848 43.374331
7595 1 30.506533 11.942995 43.752583
7596 1 30.843132 14.367296 41.130749
7597 1 28.487880 12.393332 45.560130
7598 1 28.558055 14.431826 47.289452
7599 1 30.375644 12.112486 47.826019
7600 1 30.613799 14.125664 45.763377
7601 1 28.433996 12.556859 49.411365
7602 1 28.490003 14.411104 51.447930
7603 1 30.720977 12.579546 51.331443
7604 1 30.653674 14.252923 49.313942
7605 1 28.470059 12.331991 53.499903
7606 1 28.336302 14.292748 55.550903
7607 1 30.560177 12.180053 55.442784
7608 1 30.407850 14.520836 53.393629
7609 1 28.664376 12.033975 57.182506
7610 1 28.646825 14.006414 59.719267
7611 1 30.607657 12.444381 59.638742
7612 1 30.456055 14.129037 57.539806
7613 1 28.472336 12.020483 61.632866
7614 1 28.290414 14.113950 63.583466
7615 1 30.691649 12.404913 63.214017
7616 1 31.057403 14.437625 61.683269
7617 1 26.694113 2.064484 70.012972
7618 1 28.389272 12.423199 65.695411
7619 1 28.371247 6.690059 71.906803
7620 1 32.661227 16.252994 65.554012
7621 1 27.315460 7.913483 76.484331
7622 1 21.775932 1.452408 72.857656
7623 1 27.482470 11.886234 77.766255
7624 1 26.908558 22.288442 73.670606
7625 1 27.860808 10.681504 75.616295
7626 1 27.343349 17.484519 83.694513
7627 1 30.232778 10.085798 84.766292
7628 1 25.636585 15.938265 80.377336
7629 1 21.863642 11.463493 82.543571
7630 1 26.969606 18.688117 78.460024
7631 1 31.216159 12.762799 84.927943
7632 1 28.910613 5.798484 77.202361
7633 1 28.688885 14.563241 71.663422
7634 1 32.560956 7.090634 81.698593
7635 1 1.074250 20.394874 85.709267
7636 1 26.444378 19.649402 93.403351
7637 1 27.982507 17.698574 98.153610
7638 1 20.121631 10.425454 90.257227
7639 1 2.803972 13.772616 83.815399
7640 1 28.884649 12.565097 87.375594
7641 1 24.720648 21.455623 98.033320
7642 1 20.556263 10.028484 93.207288
7643 1 32.493121 9.999360 97.686307
7644 1 26.756035 11.758041 95.144591
7645 1 27.596245 21.696883 104.136024
7646 1 23.139940 26.023825 108.272266
7647 1 32.472531 11.063635 114.015251
7648 1 4.637785 7.925304 106.604980
7649 1 0.356187 10.437169 103.671181
7650 1 2.561810 14.144317 107.567935
7651 1 3.638548 9.614155 110.991376
7652 1 0.329793 19.856775 109.756192
7653 1 22.080459 21.087944 96.875548
7654 1 20.758792 16.923196 108.984071
7655 1 3.536623 16.753584 106.345338
7656 1 5.934694 14.597288 106.735831
7657 1 3.699620 9.737601 107.949398
7658 1 25.179255 17.198043 118.809299
7659 1 28.434908 7.955079 111.284218
7660 1 0.856735 11.847767 111.646116
7661 1 26.337854 9.965224 107.588235
7662 1 8.406790 16.124586 123.964845
7663 1 29.678485 15.759674 119.026424
7664 1 31.274570 15.259665 121.416769
7665 1 29.811625 21.594181 121.185932
7666 1 1.261864 14.142662 112.464316
7667 1 27.914352 12.862752 123.824438
7668 1 1.286322 24.062564 119.315369
7669 1 30.924350 10.206476 128.098197
7670 1 30.780403 18.630951 132.022000
7671 1 30.782449 7.462757 126.435202
7672 1 30.482915 16.510393 125.977724
7673 1 0.565821 1.578256 130.650716
7674 1 30.789162 12.414847 134.066226
7675 1 23.702883 10.524497 127.811524
7676 1 0.238383 12.214123 128.623841
7677 1 27.046412 14.360228 131.725379
7678 1 28.684507 14.123910 134.021286
7679 1 0.228023 10.129041 134.127189
7680 1 26.365297 10.355655 132.641412
7681 1 28.700933 16.466297 1.467118
7682 1 28.671146 18.561767 3.578845
7683 1 30.351409 16.339506 3.367641
7684 1 30.841899 18.412740 1.595008
7685 1 28.548141 16.323369 5.883249
7686 1 29.089722 18.457923 7.306264
7687 1 31.102675 16.528018 7.375905
7688 1 31.057381 18.842312 5.349719
7689 1 29.007672 16.537564 8.951852
7690 1 28.886789 18.384579 11.379839
7691 1 30.706733 16.445585 11.266050
7692 1 31.076178 18.619149 9.308592
7693 1 28.651093 16.357479 13.233374
7694 1 28.749031 18.618721 15.288728
7695 1 30.608383 16.544920 15.203192
7696 1 30.787075 18.657730 13.272722
7697 1 28.737462 16.484229 17.445321
7698 1 28.808812 18.123717 19.397020
7699 1 31.012271 16.220132 19.600585
7700 1 30.864920 18.300413 17.416165
7701 1 28.733339 16.296617 21.718601
7702 1 28.986528 18.280615 23.255190
7703 1 30.832322 16.251497 23.460528
7704 1 31.023535 18.233163 21.284251
7705 1 28.818826 16.413655 25.381954
7706 1 28.678188 18.098078 27.829992
7707 1 30.512157 15.918654 27.378282
7708 1 30.746504 18.178394 25.644577
7709 1 28.698156 16.436489 29.771296
7710 1 29.216550 18.446607 31.520831
7711 1 30.951845 16.432427 31.619166
7712 1 31.304280 18.275685 29.822203
7713 1 29.181666 16.559912 33.515871
7714 1 28.840395 18.566570 35.291837
7715 1 30.947487 16.608790 35.557111
7716 1 31.063343 18.729105 33.391171
7717 1 28.827334 15.986259 37.492941
7718 1 28.959610 18.322413 39.375296
7719 1 30.794511 16.422598 39.432554
7720 1 30.785085 18.489232 37.419768
7721 1 28.827648 16.131111 41.255996
7722 1 28.415442 18.532587 43.577268
7723 1 30.308007 15.964183 43.303199
7724 1 30.845081 18.473918 41.488321
7725 1 28.687832 16.254461 45.527643
7726 1 28.309012 18.465149 47.637773
7727 1 30.639062 16.126727 47.658476
7728 1 30.603980 18.011339 45.287221
7729 1 28.438768 16.409930 49.287366
7730 1 28.565392 18.099400 51.468644
7731 1 30.332807 16.363102 51.126840
7732 1 30.372615 18.274998 49.533195
7733 1 28.388642 16.246555 53.518788
7734 1 28.265501 18.768522 55.721435
7735 1 30.673468 16.043858 55.653263
7736 1 30.012662 18.392614 53.509013
7737 1 28.549462 16.188316 57.498464
7738 1 28.662372 18.099698 59.485787
7739 1 30.577127 16.106357 59.616469
7740 1 30.526823 18.738629 57.574711
7741 1 28.708184 16.050328 61.665747
7742 1 28.411321 18.351562 63.764860
7743 1 31.088544 16.066697 63.643702
7744 1 30.857392 18.170126 61.827292
7745 1 30.577092 14.026429 65.575465
7746 1 28.409057 14.713182 67.634403
7747 1 26.723688 16.643626 67.194473
7748 1 28.616767 20.282878 65.838706
7749 1 32.678562 12.446389 69.702325
7750 1 23.416625 14.056492 79.689668
7751 1 30.437856 12.402973 68.053443
7752 1 0.387972 16.262349 69.755028
7753 1 22.708725 20.404216 71.796488
7754 1 24.233470 24.906062 74.154910
7755 1 30.244797 12.809481 76.143724
7756 1 4.136117 16.569456 69.704901
7757 1 24.566695 18.410366 80.607902
7758 1 24.471762 11.080607 81.806609
7759 1 1.144605 13.695299 85.687084
7760 1 25.513189 9.722840 83.887281
7761 1 26.582450 20.239386 89.860844
7762 1 26.093162 16.960144 91.519431
7763 1 1.470731 17.381179 75.866040
7764 1 29.862741 23.042557 78.731184
7765 1 23.178318 9.550159 85.211059
7766 1 24.543609 20.630568 95.348367
7767 1 22.941385 7.444902 81.716303
7768 1 30.373057 25.161179 91.590152
7769 1 1.393053 18.895140 95.399629
7770 1 27.204534 12.550670 89.682116
7771 1 28.251535 15.677748 90.105400
7772 1 22.786740 18.371717 96.848019
7773 1 25.773807 12.593203 93.020429
7774 1 31.170635 18.683662 92.339168
7775 1 32.061381 23.796315 84.204714
7776 1 30.004751 7.996933 96.343157
7777 1 3.804994 10.304337 98.344827
7778 1 28.563907 19.593366 102.258971
7779 1 4.113096 19.251415 108.121759
7780 1 3.628103 13.164050 105.608739
7781 1 29.426164 20.118343 106.066773
7782 1 20.875011 10.373226 106.512792
7783 1 28.877769 15.924040 112.657431
7784 1 31.299075 30.268276 113.621256
7785 1 32.092997 17.076748 104.855929
7786 1 3.832118 14.587926 118.110036
7787 1 10.000780 18.008655 116.137970
7788 1 6.073900 17.733854 117.449172
7789 1 30.479451 17.780464 111.541962
7790 1 2.382315 20.625744 114.677576
7791 1 1.512802 5.752679 116.547030
7792 1 9.903411 16.048362 114.487409
7793 1 9.131284 17.719891 112.127667
7794 1 26.906273 11.777201 130.349093
7795 1 2.120644 25.528434 113.522701
7796 1 5.024132 21.309965 123.980830
7797 1 26.362875 18.683402 128.101857
7798 1 28.847382 18.140786 134.470022
7799 1 29.195448 16.327916 128.368811
7800 1 25.611794 21.068210 120.167651
7801 1 29.862860 14.935823 123.942851
7802 1 21.999166 22.941384 131.853447
7803 1 26.566426 20.559751 130.295372
7804 1 1.787547 20.627366 130.314196
7805 1 26.747856 16.260494 134.301777
7806 1 28.806586 16.285658 132.299349
7807 1 31.036602 13.985066 131.904335
7808 1 28.713115 18.563214 126.235861
7809 1 28.492623 20.340562 1.505542
7810 1 28.428432 22.400876 3.614079
7811 1 30.685172 20.578484 3.273681
7812 1 30.409584 22.486807 1.364471
7813 1 29.025825 20.461209 5.594338
7814 1 28.661650 22.211082 7.277426
7815 1 30.965660 20.840619 7.379523
7816 1 30.701858 22.811575 5.287749
7817 1 28.725770 20.636224 9.472959
7818 1 28.719969 22.648822 11.617836
7819 1 30.885333 20.589305 11.517567
7820 1 30.622004 22.773306 9.166808
7821 1 28.766085 20.574533 13.387858
7822 1 28.648893 22.207882 15.251972
7823 1 30.678267 20.367215 15.423726
7824 1 31.056577 22.615348 13.459480
7825 1 28.809858 20.357425 17.413274
7826 1 28.576648 22.333043 19.487768
7827 1 30.856983 20.290512 19.482084
7828 1 30.925098 22.247232 17.387662
7829 1 28.947237 20.309054 21.293533
7830 1 28.764261 22.334796 22.995947
7831 1 30.940081 19.988603 23.509278
7832 1 31.347880 22.005078 21.526409
7833 1 28.643017 20.268975 25.285529
7834 1 29.059818 22.530445 27.102777
7835 1 30.514600 19.996787 27.668730
7836 1 30.820413 22.132394 24.984793
7837 1 28.701842 20.317976 29.721206
7838 1 28.969867 22.585985 31.289908
7839 1 30.888233 20.700174 31.601001
7840 1 30.710054 22.265145 29.020532
7841 1 28.857104 20.487289 33.364683
7842 1 28.990354 22.280170 35.345758
7843 1 30.895482 20.384093 35.514294
7844 1 31.023201 22.427459 33.249315
7845 1 28.847049 20.544069 37.577624
7846 1 28.931110 22.580067 39.832855
7847 1 30.910377 20.258363 39.486863
7848 1 31.103662 22.579993 37.302356
7849 1 28.626587 20.356644 41.289535
7850 1 28.632133 22.506510 43.723693
7851 1 31.049260 20.329239 43.486210
7852 1 30.743923 22.230535 41.658898
7853 1 28.524646 20.370550 45.465760
7854 1 28.513389 22.394879 47.602156
7855 1 30.387092 20.086748 47.562838
7856 1 30.693609 22.328787 45.760466
7857 1 28.686926 20.414916 49.348889
7858 1 28.377094 22.325621 51.854388
7859 1 30.435865 20.274690 51.702781
7860 1 30.814440 22.041629 49.506321
7861 1 28.421740 20.579251 53.637939
7862 1 28.446230 22.419863 55.339986
7863 1 30.527981 20.583518 55.545619
7864 1 30.689567 22.242076 53.435515
7865 1 28.174116 20.533008 57.472403
7866 1 28.507924 22.548186 59.785291
7867 1 30.300837 20.464444 59.445375
7868 1 30.775795 22.344705 57.586467
7869 1 28.862686 20.169584 61.365439
7870 1 28.769179 22.669197 64.065481
7871 1 30.341395 20.329534 63.347338
7872 1 30.554317 22.471304 61.658359
7873 1 30.533557 22.457225 65.995097
7874 1 30.843308 16.487349 67.609630
7875 1 4.135188 20.259000 65.775191
7876 1 32.731964 24.766217 65.650629
7877 1 28.176540 12.399804 69.859090
7878 1 26.471868 22.488592 65.755974
7879 1 32.631208 14.161368 67.559567
7880 1 29.749108 32.268880 76.738181
7881 1 26.024794 15.913588 72.025456
7882 1 20.390099 22.568032 71.504328
7883 1 19.199326 17.722068 83.218694
7884 1 31.709832 20.455284 73.796431
7885 1 28.558220 18.208680 71.605299
7886 1 26.821447 16.746610 86.672389
7887 1 32.450015 23.244522 78.199798
7888 1 30.657230 26.424972 89.210238
7889 1 6.721196 14.528468 86.371001
7890 1 30.634830 27.630412 103.357195
7891 1 25.619630 14.401959 85.494532
7892 1 20.832755 21.642098 91.668950
7893 1 26.617928 13.663750 99.724241
7894 1 32.352704 19.296780 98.487213
7895 1 24.786876 26.092143 94.674852
7896 1 29.171532 21.648280 91.465025
7897 1 19.239751 21.656090 99.558903
7898 1 28.961929 3.737785 101.126034
7899 1 4.820244 21.435762 96.264835
7900 1 6.262024 23.419117 95.780176
7901 1 30.449424 22.804067 104.372393
7902 1 21.099784 31.188058 104.358422
7903 1 8.237339 16.250352 109.743928
7904 1 5.361981 16.985441 99.134513
7905 1 29.485716 22.021445 101.778855
7906 1 4.201800 5.850755 113.848186
7907 1 2.805860 26.747267 107.874866
7908 1 32.347104 26.019305 105.288020
7909 1 4.530265 13.764907 120.556546
7910 1 32.109452 16.346230 113.938678
7911 1 3.495622 19.877572 116.970538
7912 1 31.785220 29.236283 98.087362
7913 1 24.308487 11.505096 107.909746
7914 1 3.454243 29.377198 116.423621
7915 1 3.138968 20.219372 110.213780
7916 1 25.457635 11.414213 112.911414
7917 1 2.084623 21.977118 124.026149
7918 1 31.480955 30.122701 120.275787
7919 1 1.658385 26.400258 116.597853
7920 1 5.230445 28.693875 118.800517
7921 1 29.562104 17.322236 122.308515
7922 1 32.619058 20.502189 124.549993
7923 1 30.555829 20.768819 130.378644
7924 1 30.688121 22.707927 128.024908
7925 1 28.772952 20.925232 123.793200
7926 1 24.240560 22.298885 130.239086
7927 1 28.725826 18.173782 130.010548
7928 1 24.640900 24.338037 128.055878
7929 1 28.926115 30.435088 130.726370
7930 1 24.492905 22.663993 134.021354
7931 1 28.232399 24.822249 132.090310
7932 1 26.958754 22.578704 128.117047
7933 1 26.768135 16.536932 130.024087
7934 1 26.376001 22.232498 132.243231
7935 1 28.729529 20.214330 132.335654
7936 1 28.706356 22.505896 134.522278
7937 1 28.299097 24.552105 1.727637
7938 1 28.567663 26.842782 3.312693
7939 1 30.305326 24.651399 3.579722
7940 1 30.745131 26.577874 1.721826
7941 1 28.596346 24.371856 5.688119
7942 1 28.643045 26.463040 7.199856
7943 1 30.763193 24.713886 7.257015
7944 1 30.861194 26.506044 5.125951
7945 1 28.487050 24.260944 9.059954
7946 1 28.495359 26.715417 11.333241
7947 1 30.520220 24.703130 11.656424
7948 1 30.426943 26.531040 9.296069
7949 1 28.910699 24.535466 13.649339
7950 1 29.111980 26.557967 15.373034
7951 1 30.540837 24.373641 15.772664
7952 1 30.680481 26.523749 13.443747
7953 1 28.651718 24.462749 17.701267
7954 1 28.852600 26.583748 19.624756
7955 1 30.927139 24.307623 19.398446
7956 1 30.425466 26.384726 17.621049
7957 1 28.580571 24.500495 21.396976
7958 1 28.812188 26.423051 23.464926
7959 1 30.670272 24.407898 23.236282
7960 1 30.958041 26.670614 21.580770
7961 1 29.036319 24.409385 25.269376
7962 1 28.873480 26.016188 27.561853
7963 1 31.000950 24.333304 27.357229
7964 1 31.026830 26.648781 25.444997
7965 1 28.971510 24.548370 29.606903
7966 1 28.826525 26.328234 31.417985
7967 1 30.915060 24.364162 31.384476
7968 1 30.937052 26.469103 29.365986
7969 1 28.982077 24.430684 33.384364
7970 1 29.079548 26.455909 35.750570
7971 1 31.079982 24.363907 35.470873
7972 1 30.840647 26.160561 33.463292
7973 1 29.127858 24.308731 37.536299
7974 1 28.366527 26.727568 39.760106
7975 1 30.779481 24.825543 39.833033
7976 1 30.805112 26.766790 37.678876
7977 1 28.762162 24.496238 41.711563
7978 1 28.659637 26.670008 44.141759
7979 1 30.775952 24.265674 43.949215
7980 1 30.700611 26.409772 41.822922
7981 1 28.441654 24.431899 45.917906
7982 1 28.465846 26.456217 47.818063
7983 1 30.627097 24.629606 47.294094
7984 1 30.748755 26.841584 45.663380
7985 1 29.021475 23.874527 49.714807
7986 1 28.331684 26.380179 51.410393
7987 1 30.838343 24.371750 51.924394
7988 1 30.412035 26.210571 49.910929
7989 1 28.410218 24.458898 53.370205
7990 1 28.490597 26.782795 55.996381
7991 1 30.502537 24.305470 55.516755
7992 1 30.187686 26.296640 53.955236
7993 1 28.830242 24.382741 57.445509
7994 1 28.663895 26.281818 59.397317
7995 1 30.792328 24.274142 59.551197
7996 1 30.723558 26.578665 57.495918
7997 1 28.754421 24.369879 61.395425
7998 1 28.250165 26.770911 63.817396
7999 1 30.309224 24.579770 63.673656
8000 1 30.549521 26.228338 61.579467
8001 1 26.366033 18.593651 65.226105
8002 1 30.932270 32.382288 68.224553
8003 1 28.701903 24.538902 65.905800
8004 1 28.794877 24.301889 69.801488
8005 1 28.725081 26.491397 67.847646
8006 1 27.786231 32.247482 79.137574
8007 1 2.120745 20.305317 71.806894
8008 1 29.585675 19.794400 75.515230
8009 1 24.575630 20.341067 69.730951
8010 1 26.023723 28.356377 81.967070
8011 1 25.266284 27.893782 78.146319
8012 1 26.729899 19.736024 82.158716
8013 1 1.345708 25.555734 78.614874
8014 1 27.938388 22.902155 85.790857
8015 1 28.649255 20.571710 73.355939
8016 1 28.480429 25.358198 81.294522
8017 1 22.182613 23.395344 85.937024
8018 1 29.909964 0.751072 102.650110
8019 1 28.640144 23.072612 95.935101
8020 1 2.363657 25.512903 86.580822
8021 1 31.899877 21.532917 100.549616
8022 1 23.212322 15.526781 96.595717
8023 1 31.213670 20.484712 82.063992
8024 1 31.504039 28.154593 95.700668
8025 1 32.721615 14.057477 98.299021
8026 1 26.262384 27.129967 100.344228
8027 1 31.280638 19.076357 95.421664
8028 1 30.362718 24.653383 86.914258
8029 1 27.542278 27.640133 111.306191
8030 1 0.984183 19.097609 117.479063
8031 1 2.173915 16.305624 103.422834
8032 1 22.696890 28.560220 106.492216
8033 1 26.058272 1.438397 105.459563
8034 1 27.450350 1.793816 102.670264
8035 1 3.254022 4.250573 100.326849
8036 1 30.525478 24.870127 103.166149
8037 1 26.064966 13.204929 116.678331
8038 1 0.728052 14.958186 101.069509
8039 1 2.922444 23.844206 105.143113
8040 1 26.866360 6.128668 100.939632
8041 1 25.180538 22.823737 115.637752
8042 1 20.240834 27.107590 114.129190
8043 1 3.316130 31.742449 113.582614
8044 1 6.448693 25.519778 115.973297
8045 1 3.180755 17.474989 110.254427
8046 1 27.904794 21.758448 107.455431
8047 1 24.251744 28.294863 111.520537
8048 1 8.158132 2.399368 107.151858
8049 1 25.323165 2.824233 117.721615
8050 1 28.681322 25.023391 127.294413
8051 1 6.731114 26.813913 118.251836
8052 1 28.864080 27.942888 122.191521
8053 1 28.741198 22.624831 126.046538
8054 1 28.119235 26.163840 129.687702
8055 1 3.737889 17.318310 126.707863
8056 1 31.178939 28.207717 126.159115
8057 1 0.159240 28.219584 128.138481
8058 1 26.524056 27.439853 123.377859
8059 1 15.018536 15.565251 120.966113
8060 1 3.775637 18.089105 129.978535
8061 1 32.611179 20.928352 128.553060
8062 1 28.825651 26.469231 134.843352
8063 1 30.423427 24.342361 134.347675
8064 1 0.120884 26.665544 130.253608
8065 1 28.792265 28.611212 1.058194
8066 1 28.713438 30.131261 3.022803
8067 1 31.028403 28.809071 3.246611
8068 1 31.058148 30.733589 1.112427
8069 1 29.218934 28.694349 5.113133
8070 1 28.849458 30.541700 7.071025
8071 1 30.800427 28.348917 7.279153
8072 1 31.237845 30.801400 5.630298
8073 1 28.896769 28.503634 9.429965
8074 1 28.737267 30.770893 11.049917
8075 1 30.659599 28.806966 11.349126
8076 1 30.585926 31.062969 9.276021
8077 1 28.584341 28.583681 13.137726
8078 1 28.992089 30.509170 15.574461
8079 1 30.839610 28.611638 15.219722
8080 1 30.504581 30.544709 13.420024
8081 1 29.057727 28.519718 17.314564
8082 1 28.747401 30.573577 19.478446
8083 1 30.759377 28.540976 19.377378
8084 1 30.979631 30.347631 17.343264
8085 1 28.825019 28.561365 21.349127
8086 1 28.570827 30.772804 23.312552
8087 1 31.135760 28.702468 23.526892
8088 1 30.939333 30.534311 21.325575
8089 1 28.633397 28.416253 25.268019
8090 1 28.970639 30.392465 27.261229
8091 1 31.009760 28.331403 27.522567
8092 1 30.674121 30.628684 25.343467
8093 1 28.765867 28.371659 29.879935
8094 1 28.567092 30.454766 31.984309
8095 1 30.759567 28.197214 31.777584
8096 1 30.891313 30.070334 29.670305
8097 1 28.388236 28.426045 33.800079
8098 1 28.658816 30.124695 35.556676
8099 1 30.761991 28.452191 35.385609
8100 1 30.621366 30.757028 33.558873
8101 1 28.913880 28.634276 37.661464
8102 1 28.779310 30.422557 39.657322
8103 1 30.775984 28.426538 39.865631
8104 1 31.022336 30.677092 38.008955
8105 1 28.828697 28.559476 41.743265
8106 1 28.646849 30.736150 43.457532
8107 1 30.933798 28.561979 43.664769
8108 1 30.615977 30.669210 41.627431
8109 1 28.694512 28.946558 45.862520
8110 1 28.700123 30.436675 47.904761
8111 1 30.725326 28.419763 48.183736
8112 1 31.073954 30.001567 45.862730
8113 1 28.672681 28.662472 49.830704
8114 1 28.694773 30.328658 51.838785
8115 1 30.375677 28.063808 51.941592
8116 1 30.896697 30.545128 49.855799
8117 1 28.506937 28.279126 53.792021
8118 1 28.770121 30.515038 55.658063
8119 1 30.820369 28.766486 55.652677
8120 1 30.805029 30.710250 53.690694
8121 1 28.772679 28.668525 58.049813
8122 1 28.556182 30.945513 59.876253
8123 1 30.844714 28.939312 59.776985
8124 1 30.979463 30.775568 57.724864
8125 1 28.614193 28.420846 61.803325
8126 1 28.804725 30.752774 63.977585
8127 1 30.533295 28.681792 63.790633
8128 1 30.611868 30.641830 61.662516
8129 1 26.868678 28.720887 72.060825
8130 1 24.487413 26.602687 72.004391
8131 1 28.827443 24.464815 74.017496
8132 1 28.621568 28.450923 65.944577
8133 1 30.236590 24.197300 76.387231
8134 1 30.640634 26.177576 69.672411
8135 1 4.976077 0.932414 86.876174
8136 1 30.449150 0.068657 72.518260
8137 1 0.033892 29.735961 84.454780
8138 1 24.962442 1.758335 86.261216
8139 1 31.475001 20.972918 79.329941
8140 1 24.930180 4.972792 90.412133
8141 1 1.303223 18.173682 92.982548
8142 1 26.337073 8.422190 85.825282
8143 1 2.295831 28.408244 85.367621
8144 1 30.190677 8.186001 82.940663
8145 1 32.313043 27.848236 79.952925
8146 1 26.972551 27.355396 93.952991
8147 1 30.771207 18.978651 77.690735
8148 1 25.608374 29.273800 92.090894
8149 1 25.792053 25.123681 82.037964
8150 1 22.309138 27.105582 95.427630
8151 1 4.695835 23.290788 98.066708
8152 1 1.616212 5.737400 87.253143
8153 1 30.496762 16.304809 94.451229
8154 1 23.343185 23.152973 95.968331
8155 1 32.090872 17.310222 102.177437
8156 1 30.424999 23.754431 97.406276
8157 1 2.397569 25.034650 97.912192
8158 1 30.953101 23.668610 109.362590
8159 1 27.798742 32.414901 101.196691
8160 1 24.391001 28.383117 95.933211
8161 1 23.670409 23.276516 107.473676
8162 1 20.214010 23.509037 94.636903
8163 1 2.772532 22.197274 103.046581
8164 1 23.312307 25.059630 105.721089
8165 1 29.906063 28.203671 113.431803
8166 1 21.665746 1.041321 115.977525
8167 1 2.133255 30.314138 123.932114
8168 1 27.903905 0.869690 107.599899
8169 1 30.937122 13.922624 112.276283
8170 1 0.240256 22.214224 109.814002
8171 1 26.128782 6.697325 110.468700
8172 1 24.322114 16.402189 112.726158
8173 1 22.300710 3.656659 115.346078
8174 1 25.510883 3.467619 124.272325
8175 1 1.031852 28.992348 121.480664
8176 1 27.690320 2.715931 115.916268
8177 1 1.553288 23.315108 115.203848
8178 1 7.557154 17.762531 115.255774
8179 1 30.698694 28.521380 116.254034
8180 1 5.532748 23.394589 110.854985
8181 1 25.505910 1.665027 121.985999
8182 1 0.318777 22.458627 126.136970
8183 1 30.750690 22.528741 132.402760
8184 1 2.704245 28.480935 125.745215
8185 1 22.314284 21.638027 118.072085
8186 1 30.858081 30.024189 132.411299
8187 1 22.087064 18.403163 128.158891
8188 1 26.113899 26.508970 128.141449
8189 1 30.491406 24.471309 130.462578
8190 1 0.062531 26.254081 134.818577
8191 1 0.148929 30.376006 134.570444
8192 1 28.899148 30.622821 134.295918
