frame 0 of coexist_930/prod.xyz

8192 atoms
1 atom types

0 32.57376910 xlo xhi
0 32.73295370 ylo yhi
0 134.80635400 zlo zhi

Masses

1 26.982

Atoms # atomic

1 1 31.964873 32.155569 1.356592
2 1 31.657497 1.633549 3.031039
3 1 1.330193 32.663303 3.259835
4 1 1.621559 1.569748 1.506136
5 1 31.933353 32.521561 5.402700
6 1 31.807381 1.698291 7.529065
7 1 1.635141 32.527410 7.215411
8 1 1.177268 1.932599 5.574263
9 1 32.270882 32.487113 9.252854
10 1 31.607462 1.804862 11.553331
11 1 1.497087 32.593983 11.455920
12 1 1.614335 1.895248 9.907251
13 1 31.934818 32.101815 13.518227
14 1 31.992408 2.342989 15.393728
15 1 1.534195 32.527973 15.320318
16 1 1.250418 2.139846 13.530145
17 1 32.088509 32.329920 17.380515
18 1 31.892201 1.750898 19.274269
19 1 1.450995 32.708852 19.397808
20 1 1.325792 1.717076 17.288852
21 1 31.700974 32.253201 21.316951
22 1 32.106659 1.821389 23.559414
23 1 1.457520 32.442971 23.427225
24 1 1.414347 1.778550 21.423554
25 1 31.973266 32.505595 25.352474
26 1 31.742173 1.685774 27.450558
27 1 1.383882 32.576181 27.625208
28 1 1.349918 1.675982 25.504450
29 1 31.647458 0.087567 29.664338
30 1 31.926014 1.755076 31.772806
31 1 1.320451 0.170449 31.344863
32 1 1.331505 1.884373 29.539182
33 1 31.870534 32.325350 33.990247
34 1 32.003000 1.854662 35.457749
35 1 1.260606 0.085193 36.051028
36 1 1.479888 1.703723 33.579793
37 1 31.831185 32.582992 37.753482
38 1 31.887426 1.884665 39.590500
39 1 1.259840 32.622284 39.531424
40 1 1.389284 2.187528 37.987167
41 1 32.035289 0.244316 41.446391
42 1 31.567326 2.190516 43.683912
43 1 1.337680 0.062556 43.630741
44 1 1.753478 2.327134 41.320082
45 1 31.951539 0.323511 45.465322
46 1 0.039533 2.021115 48.303824
47 1 1.787644 32.527836 47.540765
48 1 1.892813 1.796613 45.899626
49 1 32.427266 32.523586 49.893174
50 1 32.270860 1.963443 51.810329
51 1 2.140685 32.453860 51.703335
52 1 1.928941 1.995608 50.292776
53 1 31.893668 32.518153 53.625051
54 1 32.000685 1.502961 55.932910
55 1 1.856575 32.479272 55.907476
56 1 1.392443 2.128217 53.980589
57 1 31.944834 32.663900 58.061234
58 1 31.952375 1.823932 60.158675
59 1 1.525004 32.620185 60.214175
60 1 1.631922 1.888961 58.402391
61 1 31.973252 32.728422 62.288573
62 1 32.000988 1.863729 64.270558
63 1 1.094271 0.037088 64.381791
64 1 1.771776 1.881886 62.293091
65 1 31.750059 32.600826 66.416020
66 1 3.622095 3.977443 69.924863
67 1 24.355077 26.836035 72.431759
68 1 1.360889 2.364619 66.194772
69 1 30.030186 26.597518 70.176781
70 1 31.811294 2.072951 68.219862
71 1 29.552621 7.045240 78.622030
72 1 24.401986 29.411187 79.634065
73 1 26.684792 4.037162 76.910629
74 1 21.058815 3.408471 77.975760
75 1 11.209024 30.843337 81.130816
76 1 1.677014 31.025062 73.955847
77 1 2.192346 28.745120 83.537708
78 1 31.527308 8.416224 79.750932
79 1 1.237809 30.591789 88.500103
80 1 26.317213 7.389054 82.709835
81 1 19.967733 0.052912 89.941044
82 1 26.371368 30.092444 90.241711
83 1 22.665725 19.207776 93.910539
84 1 0.515360 0.030040 86.950701
85 1 27.956012 32.540909 90.900387
86 1 23.663245 2.570552 90.164342
87 1 30.800621 7.482632 100.966274
88 1 31.363869 30.593613 87.055711
89 1 26.009256 0.937098 84.780632
90 1 5.400416 1.111960 95.726641
91 1 29.459341 28.731066 93.974522
92 1 1.984099 28.466386 93.318221
93 1 3.730020 28.906047 90.857364
94 1 29.574852 31.075897 104.312780
95 1 29.092380 26.694925 101.588827
96 1 28.600552 3.021560 116.152127
97 1 25.500652 30.940898 107.608130
98 1 3.947831 31.725635 115.336589
99 1 0.029418 32.402050 96.520396
100 1 3.696474 2.831553 99.039097
101 1 28.088166 3.917552 104.684595
102 1 29.362991 3.742922 102.258074
103 1 32.291320 30.613031 98.677600
104 1 1.862450 1.355758 114.710444
105 1 0.520097 23.219396 118.822739
106 1 32.038259 6.547961 108.790164
107 1 19.625802 32.359002 112.156585
108 1 30.642099 23.537837 106.093250
109 1 28.194280 2.176266 118.768777
110 1 24.885034 23.475190 116.765042
111 1 1.678878 27.801326 121.433340
112 1 1.787579 26.229102 119.321688
113 1 30.435057 9.739282 114.375341
114 1 26.405707 2.362272 109.996124
115 1 23.703952 8.588340 117.132832
116 1 23.589629 5.885022 119.278425
117 1 3.077795 0.043269 128.098601
118 1 27.684667 3.972522 132.130293
119 1 0.070801 0.693677 123.837334
120 1 5.763276 1.478892 123.655213
121 1 7.732006 1.488853 126.336760
122 1 3.462008 8.059829 131.936050
123 1 30.439917 2.728286 123.615617
124 1 3.387317 1.987156 126.026232
125 1 2.559534 32.180638 120.548923
126 1 31.798594 1.915282 134.474380
127 1 1.150950 1.716984 132.249968
128 1 0.107190 4.435427 122.904364
129 1 31.860338 4.085085 1.105408
130 1 31.905731 6.013755 3.693029
131 1 1.652435 3.756042 3.639272
132 1 1.694608 6.187688 1.568710
133 1 31.864196 3.726042 5.524847
134 1 31.915063 5.984606 7.439985
135 1 1.610571 3.657520 7.645758
136 1 1.286011 5.712509 5.491723
137 1 32.275332 3.948141 9.587805
138 1 31.956425 5.842909 11.389714
139 1 1.556259 4.167384 11.224704
140 1 1.415435 6.292046 9.613591
141 1 31.682070 4.082335 13.077946
142 1 31.807263 5.771186 15.210166
143 1 1.200306 4.172512 15.457714
144 1 1.585366 5.787043 13.590089
145 1 31.836643 3.780427 17.421184
146 1 32.045002 5.771504 19.298176
147 1 1.525699 3.347856 19.453007
148 1 1.440830 5.925038 17.633499
149 1 32.149033 3.614177 21.252108
150 1 31.692151 5.819285 23.233404
151 1 1.515697 3.463591 23.755125
152 1 1.371599 5.529519 21.491189
153 1 31.873509 4.027188 25.276942
154 1 31.770632 5.985419 27.558123
155 1 1.202741 3.386442 27.510801
156 1 1.451663 5.817381 25.315232
157 1 31.992806 3.914302 29.770633
158 1 31.908635 5.767607 31.669086
159 1 1.268751 3.929821 31.751463
160 1 1.174714 5.729966 29.344805
161 1 31.836920 3.840613 33.744882
162 1 31.791882 6.006311 35.752548
163 1 1.141965 3.950219 35.686576
164 1 1.255513 5.734504 33.711757
165 1 31.740435 3.946913 37.755845
166 1 31.842374 5.970558 39.694988
167 1 1.996685 4.310497 39.405232
168 1 1.104464 6.091082 37.490328
169 1 32.110529 4.091941 41.878432
170 1 32.322337 5.966348 43.716741
171 1 1.709590 3.810141 43.510546
172 1 1.478250 6.093059 41.567348
173 1 32.436009 3.855626 46.111835
174 1 32.140834 5.846429 47.936332
175 1 1.755069 4.245251 47.821357
176 1 1.818571 6.282558 45.668987
177 1 32.313295 3.858214 50.072447
178 1 31.959890 6.073396 51.695297
179 1 1.955637 3.787074 51.921691
180 1 1.822876 6.579836 49.752153
181 1 32.084761 3.905880 54.173573
182 1 32.321360 6.024410 55.725997
183 1 1.525409 4.067162 56.096981
184 1 1.672857 5.483677 53.842247
185 1 32.104102 3.729661 57.829518
186 1 32.066223 5.796150 59.866250
187 1 1.324718 4.091822 60.187411
188 1 1.572508 6.467871 57.864863
189 1 32.030754 4.155357 62.267229
190 1 32.161499 6.086323 64.013907
191 1 1.437628 4.026732 64.159516
192 1 1.569076 5.877838 62.318090
193 1 32.037268 4.196723 66.009775
194 1 32.231552 10.077891 67.993841
195 1 5.383907 32.683652 71.965323
196 1 1.421148 6.288606 66.109019
197 1 30.123453 8.296056 67.906156
198 1 29.506898 2.286017 66.070827
199 1 1.239934 28.847351 80.412942
200 1 32.367074 14.535823 71.714886
201 1 23.922668 6.260536 72.231015
202 1 23.253504 12.455903 74.703373
203 1 27.702330 8.284809 74.362584
204 1 32.031144 2.475206 71.689757
205 1 2.759924 3.227101 81.024886
206 1 1.792882 13.791148 78.575020
207 1 27.480338 10.562489 72.025891
208 1 3.118942 10.241989 80.899731
209 1 0.857929 5.268082 81.120999
210 1 4.830333 7.768844 90.467526
211 1 1.301697 9.956107 79.148721
212 1 3.350015 6.562531 76.466387
213 1 16.923989 4.818540 82.321786
214 1 26.931322 30.215812 99.925618
215 1 1.851913 27.992439 89.400278
216 1 30.438179 1.740789 92.563647
217 1 26.775095 3.399955 84.437796
218 1 29.645452 27.596870 89.880519
219 1 6.248296 31.434784 91.174856
220 1 32.054578 8.898353 98.079411
221 1 26.402751 6.939019 102.969165
222 1 29.576432 8.991162 98.015135
223 1 28.300482 11.449704 114.137491
224 1 25.545215 1.118552 102.955022
225 1 31.098523 8.158881 103.615107
226 1 31.983496 9.068851 108.492625
227 1 0.474815 3.348450 97.956247
228 1 25.747188 6.197140 105.964872
229 1 12.761768 8.390210 104.553020
230 1 25.668143 15.252864 101.427258
231 1 12.018619 5.135301 103.422825
232 1 5.995783 6.728683 110.172479
233 1 23.671885 2.305639 116.243278
234 1 25.307317 11.633325 106.500079
235 1 6.555002 30.313695 111.596208
236 1 30.340449 26.996895 112.971585
237 1 0.526895 2.117729 112.967982
238 1 21.311731 2.985027 115.165771
239 1 4.757022 4.445334 110.550984
240 1 0.546286 5.238604 113.495951
241 1 29.223289 11.523665 119.971295
242 1 28.929999 2.600869 121.170569
243 1 5.430988 30.822154 123.736841
244 1 2.431454 4.798555 117.745200
245 1 29.662768 5.906383 132.081410
246 1 27.545307 3.615163 127.941309
247 1 5.391343 10.157323 132.553361
248 1 1.721679 6.504853 123.695143
249 1 5.248214 4.108664 130.219291
250 1 32.423552 8.140631 125.271232
251 1 7.755321 32.424159 123.930482
252 1 5.714518 8.076453 126.058805
253 1 1.225290 30.492906 127.646819
254 1 31.746427 6.133433 134.004441
255 1 1.368949 3.914432 130.515291
256 1 29.480397 8.037351 134.235110
257 1 31.999777 7.739271 1.332442
258 1 32.005446 9.784953 3.013345
259 1 1.484476 7.921847 3.644336
260 1 1.566292 9.431290 1.520758
261 1 32.195026 8.093208 5.467916
262 1 31.938276 9.879297 7.336661
263 1 1.535544 7.640257 7.409602
264 1 1.663080 9.720938 5.607156
265 1 31.961264 7.900714 9.425681
266 1 32.085288 10.093221 11.451258
267 1 1.335485 8.122636 11.471434
268 1 1.555050 10.051607 9.262763
269 1 32.005022 7.776271 13.377004
270 1 32.273133 10.332726 15.729807
271 1 1.531010 8.227531 15.424892
272 1 1.542720 10.224158 13.484382
273 1 31.890278 7.928886 17.378780
274 1 32.217584 9.917260 19.307469
275 1 1.702710 7.436691 19.690929
276 1 1.925691 9.759492 17.455207
277 1 32.134991 7.867637 21.413054
278 1 32.115077 9.648162 23.310728
279 1 1.411146 7.605360 23.173185
280 1 1.849906 9.775430 21.259017
281 1 31.919702 7.657433 25.622134
282 1 31.584828 9.699751 28.063957
283 1 1.599363 7.883364 27.399611
284 1 1.221727 9.678880 25.563754
285 1 31.614462 7.636201 29.972415
286 1 31.805669 9.850716 31.639837
287 1 1.213118 7.929106 31.741436
288 1 1.182007 10.072265 29.661697
289 1 31.746461 7.991041 33.746645
290 1 31.331371 10.336200 35.371899
291 1 1.138339 8.049979 35.681312
292 1 1.097592 10.026401 33.832081
293 1 31.696423 8.131971 37.467581
294 1 31.899612 10.141731 39.718207
295 1 1.652066 8.090268 39.546407
296 1 1.099984 9.962882 37.599579
297 1 32.064462 8.082763 41.625676
298 1 32.052413 10.408213 43.680073
299 1 1.364749 8.133672 43.570788
300 1 1.453165 10.170511 41.362991
301 1 32.150946 7.987112 45.550765
302 1 32.039864 10.047766 47.893742
303 1 1.579939 8.495568 47.543212
304 1 1.496296 10.085867 45.520325
305 1 32.266155 8.172028 49.845123
306 1 32.083687 10.058333 52.026412
307 1 1.656045 7.707427 52.070494
308 1 1.597282 9.972104 49.843019
309 1 32.281620 7.929801 53.936816
310 1 32.376905 10.554732 55.783118
311 1 1.785224 8.075532 55.699575
312 1 1.506781 10.123331 53.619384
313 1 31.861615 7.855292 58.002723
314 1 32.316362 9.999480 59.875937
315 1 1.472860 7.934345 60.104628
316 1 1.644707 10.110377 57.741635
317 1 32.085771 8.287690 62.168680
318 1 32.473846 10.208950 63.818462
319 1 1.749030 8.162185 63.940315
320 1 1.779629 10.216793 61.739537
321 1 32.214542 8.225017 65.863747
322 1 23.931719 10.583327 72.559268
323 1 2.048719 12.299937 68.289394
324 1 1.684786 10.538590 66.263672
325 1 28.342958 7.998774 66.061779
326 1 30.517099 12.165407 67.805823
327 1 25.534530 29.546539 76.990389
328 1 32.070045 12.560769 74.087678
329 1 0.623535 17.329861 81.081523
330 1 21.493907 9.762277 74.203355
331 1 0.582194 7.444904 77.911029
332 1 32.505742 8.828299 70.392557
333 1 30.134130 11.860758 76.329958
334 1 28.157966 11.683839 88.187904
335 1 32.116044 1.910208 88.239860
336 1 2.691321 1.364865 85.141464
337 1 0.154897 3.513079 92.577867
338 1 0.850059 11.424504 85.091830
339 1 1.609582 7.806994 81.566319
340 1 31.927371 26.666239 90.405888
341 1 28.555192 6.266635 101.435324
342 1 9.824711 9.194673 97.133669
343 1 30.305954 5.287507 96.350905
344 1 1.847968 1.394533 89.214297
345 1 29.523671 2.403545 99.651421
346 1 5.027153 10.994451 108.855590
347 1 7.280709 6.242020 89.802316
348 1 5.328160 7.971892 93.124443
349 1 2.320158 11.770690 105.916219
350 1 2.586501 23.386853 109.347749
351 1 10.348243 3.877060 101.632452
352 1 32.389934 28.055095 97.807899
353 1 25.732698 4.917332 100.718670
354 1 31.371748 4.793490 99.062930
355 1 28.543758 15.162831 105.545703
356 1 8.133522 11.138414 98.955453
357 1 0.644252 10.141891 110.860128
358 1 25.022919 14.888774 95.034022
359 1 1.135728 19.536481 103.480036
360 1 3.466589 9.176667 103.256833
361 1 30.574660 3.139254 112.405386
362 1 8.978399 7.883581 117.805501
363 1 2.675851 9.245393 111.916069
364 1 21.890673 7.724651 110.118996
365 1 0.236543 31.021397 116.872023
366 1 5.267120 14.149781 123.975824
367 1 22.786793 1.873418 106.631792
368 1 31.827104 12.330865 119.536751
369 1 27.350099 13.584764 116.480250
370 1 30.553169 20.462715 122.850590
371 1 0.725342 14.629516 113.906981
372 1 1.563931 7.582242 107.447946
373 1 27.164350 11.817663 123.853576
374 1 31.923967 9.833663 129.898221
375 1 24.794540 7.505651 109.623637
376 1 32.558506 7.770219 127.863067
377 1 2.379570 7.008098 126.304309
378 1 1.608435 5.495053 128.745755
379 1 5.673125 8.215297 130.081218
380 1 21.952342 17.117067 121.744553
381 1 29.894373 14.369052 132.283243
382 1 1.468535 9.775740 127.889661
383 1 31.757671 7.908665 132.150325
384 1 1.337922 9.645591 132.081723
385 1 0.236567 11.714315 1.407121
386 1 32.002358 14.440354 3.260714
387 1 1.590757 11.908900 3.628551
388 1 1.368115 14.323187 1.078186
389 1 31.802063 11.682971 5.387431
390 1 31.518473 14.066717 7.337872
391 1 0.956519 11.888233 7.479026
392 1 1.027578 13.761113 5.475339
393 1 31.661473 11.563110 9.480283
394 1 31.769070 13.730117 11.269100
395 1 1.327492 12.083352 11.237634
396 1 1.106071 13.916705 9.161322
397 1 32.095978 12.301799 13.486650
398 1 31.758179 14.204223 15.569105
399 1 1.813158 11.990358 15.637356
400 1 1.425428 14.271589 13.285428
401 1 0.033837 12.068543 17.482527
402 1 32.440205 14.067067 19.751781
403 1 1.483860 12.005024 19.986171
404 1 1.344046 14.221888 17.540555
405 1 31.876563 12.068252 21.855311
406 1 31.547916 14.186956 24.029539
407 1 1.113684 12.214660 23.951560
408 1 1.825794 14.040985 21.803013
409 1 31.688837 11.910992 25.901538
410 1 31.902603 13.886250 27.595828
411 1 1.122236 11.831230 27.808331
412 1 1.196956 14.000485 25.870643
413 1 31.547082 11.942437 29.750311
414 1 31.716727 14.175567 31.745111
415 1 1.379359 12.061408 31.622328
416 1 1.291758 14.096057 30.108164
417 1 31.568773 12.097144 33.403619
418 1 31.623479 14.212566 35.397627
419 1 1.155540 12.061609 35.581339
420 1 1.134254 13.937755 33.686130
421 1 31.389153 11.933191 37.484204
422 1 31.822906 14.108402 39.679726
423 1 1.156839 12.207401 39.500433
424 1 1.122696 14.054861 37.612846
425 1 32.164823 12.473698 41.769266
426 1 32.105417 14.292973 43.799006
427 1 1.824903 12.048995 43.636267
428 1 1.539634 14.315442 41.514573
429 1 31.701719 12.525129 45.832447
430 1 32.073932 14.349992 47.604243
431 1 1.365666 12.165781 47.924139
432 1 1.365417 14.096486 45.702396
433 1 31.778495 12.071316 49.819612
434 1 31.835826 14.247821 51.788498
435 1 1.050529 12.393332 51.558544
436 1 1.531443 14.586040 49.434050
437 1 31.913428 12.133363 53.613878
438 1 31.803213 14.216296 55.619300
439 1 1.555540 12.447904 55.896548
440 1 1.261177 14.373427 53.562556
441 1 32.061962 12.513823 57.863461
442 1 32.036885 14.605775 59.898903
443 1 1.673278 12.274302 59.585694
444 1 1.205317 14.526298 57.824911
445 1 32.417727 12.270535 61.837311
446 1 32.488355 14.196578 63.975780
447 1 1.852332 12.371746 64.213709
448 1 1.661212 14.313552 61.517698
449 1 32.153442 12.441287 65.790959
450 1 30.193706 14.368282 65.885513
451 1 27.842616 18.198826 67.810092
452 1 2.337048 14.175470 66.333674
453 1 32.283941 16.799980 65.806847
454 1 30.591839 19.065976 74.485130
455 1 29.290862 2.218798 81.464270
456 1 32.278537 16.428868 69.968553
457 1 27.923935 6.170003 72.486061
458 1 4.457985 10.216823 72.442592
459 1 32.166887 9.962738 72.605350
460 1 4.904085 13.758520 77.330930
461 1 1.351280 6.440130 70.184489
462 1 3.965696 8.164023 82.827803
463 1 3.139166 10.139037 84.658903
464 1 28.600075 9.741955 78.895806
465 1 25.206888 5.256939 89.792559
466 1 31.492010 7.936108 95.666447
467 1 3.138699 4.103503 84.867722
468 1 2.761799 11.501808 87.378018
469 1 30.407609 2.383412 90.006392
470 1 22.735631 11.441050 85.300148
471 1 27.360253 15.718616 95.987679
472 1 7.677067 12.833628 85.857583
473 1 23.113822 28.758284 104.188180
474 1 22.858391 21.301027 95.956863
475 1 12.548550 4.105110 95.955793
476 1 27.042162 16.220960 93.146808
477 1 5.687193 10.283953 94.455197
478 1 0.499176 8.550661 102.178449
479 1 1.721003 13.268534 99.448441
480 1 1.547660 11.472716 102.524792
481 1 10.153238 1.320894 106.277335
482 1 29.727755 13.557509 103.563750
483 1 26.270374 7.529348 112.720983
484 1 24.847583 16.560098 106.873023
485 1 31.292423 7.626647 106.320060
486 1 30.913090 12.447104 114.198705
487 1 6.740811 17.746690 118.740320
488 1 29.757426 24.282217 103.823438
489 1 31.534989 8.584682 112.496599
490 1 26.880001 22.080647 108.497301
491 1 3.943057 19.809061 103.088641
492 1 31.826736 18.010228 126.279550
493 1 25.364286 18.642258 112.178732
494 1 26.346225 15.784685 115.456315
495 1 32.067402 9.123724 116.816612
496 1 32.051995 17.732650 117.836966
497 1 0.867616 16.830701 122.556582
498 1 3.662942 18.077620 130.073703
499 1 3.168144 17.844836 125.793183
500 1 31.399641 14.062368 125.762219
501 1 22.450892 13.349016 115.268826
502 1 24.499503 10.125606 121.618909
503 1 23.795164 2.659849 119.094058
504 1 27.551697 16.111518 128.332894
505 1 25.925394 16.836294 123.826295
506 1 3.247799 11.849236 132.214146
507 1 29.756071 14.426846 128.131564
508 1 28.566185 16.566804 122.614328
509 1 24.543974 15.714862 125.647952
510 1 31.963351 14.143387 134.078559
511 1 1.053976 12.003455 133.940917
512 1 31.662610 18.267183 130.137325
513 1 32.052132 16.321933 0.949347
514 1 31.364996 17.961722 3.451641
515 1 1.142100 16.325592 3.574811
516 1 1.270254 18.070350 1.399377
517 1 31.989134 16.065893 5.538382
518 1 31.956697 18.188632 7.412828
519 1 1.141111 16.160564 7.535586
520 1 1.313599 18.433821 5.432681
521 1 31.729193 16.217936 9.403123
522 1 31.817277 17.796486 11.583009
523 1 1.215792 16.141887 11.071558
524 1 1.171275 18.024894 9.377945
525 1 31.603292 15.459636 13.279890
526 1 31.955480 18.135986 15.118931
527 1 1.384283 16.278367 15.404995
528 1 1.385206 18.204467 12.888923
529 1 31.847183 16.181195 17.501438
530 1 31.697252 18.387183 19.532836
531 1 1.175748 16.320701 19.945924
532 1 1.379367 17.993296 17.653737
533 1 32.162547 15.811367 22.145336
534 1 31.817851 18.121290 23.641992
535 1 1.496406 15.676140 23.860134
536 1 1.237058 18.200390 21.565059
537 1 31.934266 15.889801 25.875804
538 1 32.050615 18.161519 27.968623
539 1 1.234589 16.086320 27.674705
540 1 1.116827 18.447244 25.423256
541 1 32.179765 16.157091 29.699878
542 1 32.094165 18.266648 31.709465
543 1 1.243825 16.125791 32.006367
544 1 1.323557 18.254601 29.728865
545 1 31.615119 16.433509 33.566447
546 1 31.592138 18.254239 35.611191
547 1 0.997583 15.938245 35.587648
548 1 1.408233 18.360786 33.773843
549 1 31.662812 16.158268 37.603957
550 1 31.737855 18.281198 39.876255
551 1 1.305711 16.364590 39.534358
552 1 1.060293 18.148905 37.482373
553 1 31.921505 16.144554 41.640583
554 1 31.773862 18.110724 43.588478
555 1 1.495351 16.006326 43.813976
556 1 1.301195 17.879323 41.992390
557 1 32.009279 16.553360 45.675448
558 1 32.286948 18.257774 47.750509
559 1 1.466562 16.204099 47.584344
560 1 1.461246 18.597106 45.631477
561 1 32.115686 16.319768 49.785722
562 1 32.012633 18.192591 51.487454
563 1 1.525382 16.530306 51.721304
564 1 1.788686 18.623108 49.545244
565 1 32.073231 16.270795 53.788794
566 1 31.908830 18.377923 55.718115
567 1 1.460923 16.183980 56.013952
568 1 1.141652 18.315107 53.732760
569 1 31.931812 16.379153 57.669220
570 1 31.719548 18.398881 59.375655
571 1 1.276615 16.622628 59.732430
572 1 1.461431 18.214285 57.880190
573 1 32.119316 16.754089 61.952581
574 1 32.004764 18.421386 63.992330
575 1 1.651117 16.175760 63.936933
576 1 1.567716 18.155961 61.876893
577 1 32.015169 18.350299 68.112034
578 1 28.422293 18.045322 72.968769
579 1 30.184897 16.460753 74.882780
580 1 3.722403 16.530592 70.312106
581 1 0.791162 16.844883 76.135067
582 1 3.748499 18.395477 72.543372
583 1 30.173307 14.393926 70.219282
584 1 30.059830 18.346288 70.102040
585 1 14.736160 12.228302 86.247433
586 1 3.309282 18.623963 85.370054
587 1 31.236272 10.333593 77.962547
588 1 32.378251 20.404917 70.124923
589 1 2.122337 13.805355 81.824883
590 1 29.561304 9.207083 87.324842
591 1 7.107323 15.931692 78.261554
592 1 4.765116 15.471338 79.638595
593 1 0.221072 9.142671 87.176516
594 1 28.385900 20.845750 90.067839
595 1 30.356963 22.531152 83.176911
596 1 28.841015 9.085152 89.788653
597 1 0.365721 9.151602 93.501814
598 1 18.313362 21.508975 90.073347
599 1 8.971735 11.412117 90.413357
600 1 28.105857 17.199802 86.195693
601 1 24.485003 22.021916 99.833369
602 1 29.301956 20.320203 95.774153
603 1 24.375807 12.091959 94.497686
604 1 2.631745 22.363866 90.957487
605 1 29.254743 12.461817 101.170262
606 1 4.809566 17.575870 101.987651
607 1 5.118303 23.963215 99.810775
608 1 28.904869 17.834050 97.652115
609 1 27.917772 13.951139 119.300674
610 1 23.288972 14.644148 99.810639
611 1 28.285595 10.063804 100.496205
612 1 3.224061 15.850254 100.140227
613 1 26.694492 12.438590 101.546896
614 1 0.448457 19.355963 124.109590
615 1 32.195300 25.657256 112.007225
616 1 9.831180 12.892237 107.733614
617 1 1.066639 16.983273 105.065062
618 1 30.741755 16.684445 121.077386
619 1 7.751609 14.898420 109.138328
620 1 24.858877 22.978071 110.080157
621 1 4.101152 16.873468 117.758509
622 1 5.997186 15.484994 121.368668
623 1 3.203029 15.299275 121.520878
624 1 1.502903 15.862738 118.299267
625 1 28.108531 9.744899 125.345963
626 1 23.158213 16.030542 114.853396
627 1 1.770544 22.618419 127.968839
628 1 6.182366 21.146645 118.890261
629 1 31.156466 11.309232 111.959793
630 1 1.365723 24.571502 130.085794
631 1 2.783775 11.582208 110.590702
632 1 5.238769 23.137605 123.421643
633 1 5.604297 18.409689 132.181398
634 1 31.420948 23.515057 127.751722
635 1 29.742494 9.993572 132.087986
636 1 1.149036 10.477930 118.767521
637 1 32.035640 18.502507 134.130193
638 1 3.346141 20.197764 132.376966
639 1 1.538958 16.434413 134.079837
640 1 5.384553 18.031204 127.951503
641 1 32.149560 20.451106 1.324705
642 1 32.267388 22.198895 3.358093
643 1 1.418438 20.095237 3.471998
644 1 1.379519 22.350234 1.060932
645 1 31.798119 20.058987 5.448478
646 1 32.079153 22.102843 7.332904
647 1 1.428562 20.260472 7.451108
648 1 1.537768 21.979412 5.546765
649 1 31.862853 20.316386 9.171560
650 1 31.977522 22.386422 11.142867
651 1 1.360637 20.377144 11.251231
652 1 1.377690 22.748685 9.370447
653 1 31.844371 20.173898 13.463395
654 1 31.977612 22.103145 15.576141
655 1 1.479760 19.906840 15.255944
656 1 1.184865 22.129460 13.520474
657 1 31.798281 19.936533 17.324484
658 1 31.735566 22.000556 19.449341
659 1 1.468540 20.038802 19.266329
660 1 1.540417 22.031726 17.492105
661 1 31.897094 20.315316 21.579989
662 1 31.808830 22.394730 23.640372
663 1 1.425507 20.516192 23.453709
664 1 1.429867 21.832042 21.241833
665 1 32.133986 20.566012 25.413592
666 1 31.749210 22.300503 27.879886
667 1 1.388649 20.087148 27.455734
668 1 1.527474 22.380550 25.686730
669 1 31.822299 20.512203 29.936045
670 1 31.735681 22.401547 31.869122
671 1 1.470002 20.713365 31.694963
672 1 1.322257 22.491542 29.663922
673 1 31.766596 20.060243 33.593586
674 1 31.668260 22.444306 35.667579
675 1 1.382387 20.292267 35.881832
676 1 1.083155 22.292681 33.742205
677 1 31.728715 20.323000 38.157866
678 1 32.271258 22.330378 39.767307
679 1 1.543856 19.938123 39.693495
680 1 1.298626 22.255532 37.560785
681 1 31.706046 20.247571 41.888264
682 1 31.946767 22.525775 43.785618
683 1 1.244321 20.516274 43.668875
684 1 1.529566 22.465936 41.570203
685 1 31.658911 20.672884 45.935532
686 1 32.096755 22.356205 48.009099
687 1 1.374787 20.357779 47.472368
688 1 1.428991 22.345406 45.745976
689 1 32.192869 20.298800 49.659092
690 1 32.176094 22.514286 51.796305
691 1 1.531550 20.199189 51.588540
692 1 1.658541 22.724084 50.024981
693 1 31.868014 20.257500 53.421159
694 1 31.439469 22.164551 55.340434
695 1 1.192259 20.390870 55.950772
696 1 1.242742 22.197514 54.023531
697 1 31.507666 20.577812 57.647826
698 1 31.764885 22.446857 59.931964
699 1 1.427518 20.037978 59.791480
700 1 1.120526 22.164225 58.100704
701 1 31.729543 20.099445 61.890931
702 1 32.082369 22.553276 64.235211
703 1 1.756991 20.576012 63.987779
704 1 1.247142 22.449408 62.048031
705 1 1.616977 16.842727 67.746937
706 1 32.177880 22.732323 71.423435
707 1 1.664031 18.467262 65.602577
708 1 1.546507 22.574624 65.918349
709 1 31.230710 13.277997 78.673874
710 1 32.405890 19.602532 80.116358
711 1 32.300039 20.174715 65.969083
712 1 3.631742 14.402582 71.859453
713 1 3.004649 11.673000 77.386171
714 1 25.797084 18.114659 83.579792
715 1 11.504456 10.090775 71.910302
716 1 3.717170 20.429018 74.474882
717 1 5.881755 20.187724 76.112096
718 1 0.347630 12.386819 76.579930
719 1 5.148205 10.270409 83.268431
720 1 1.355345 20.766392 76.333609
721 1 4.250269 26.212114 80.674230
722 1 28.732978 18.189756 80.990263
723 1 10.406158 17.987849 83.354688
724 1 27.284917 9.538786 84.123697
725 1 29.116457 14.599848 97.755374
726 1 3.417802 31.728008 84.018355
727 1 0.722455 28.751426 86.876311
728 1 12.227058 9.315237 92.813563
729 1 26.363760 22.271696 85.478518
730 1 25.021864 25.601180 91.006396
731 1 0.758628 15.791502 100.179199
732 1 31.795817 26.849498 79.957626
733 1 31.340051 18.598142 97.677882
734 1 1.041781 19.811593 98.241922
735 1 5.318621 20.992920 100.960998
736 1 1.541728 24.028736 100.229066
737 1 30.619418 21.922410 102.286790
738 1 32.137579 20.631757 95.234499
739 1 32.043353 13.332729 109.505224
740 1 4.014545 15.273383 103.863033
741 1 30.291145 18.924455 109.358296
742 1 25.322172 18.806951 105.055765
743 1 31.037529 18.195531 114.070237
744 1 19.776679 17.946974 106.315103
745 1 31.156012 15.294085 118.737279
746 1 4.285968 18.440340 115.059444
747 1 2.950612 21.431544 117.275202
748 1 29.581531 16.948194 107.130196
749 1 2.221591 11.219980 116.241434
750 1 6.195890 29.695667 119.468536
751 1 30.566898 24.158317 120.144337
752 1 1.675647 17.476812 120.211274
753 1 25.193815 19.946789 123.151478
754 1 0.653962 29.656396 109.818997
755 1 1.153427 23.699885 125.748349
756 1 26.036760 20.949173 116.778549
757 1 27.554438 32.020701 127.925407
758 1 29.173546 24.366467 129.904968
759 1 5.288453 28.634752 125.445313
760 1 25.688369 22.271213 124.402594
761 1 31.583878 22.638687 130.364349
762 1 29.264786 25.428369 127.595462
763 1 1.445570 20.292575 130.448218
764 1 28.719999 21.305236 117.863167
765 1 3.285575 22.675879 130.129372
766 1 31.805981 22.235380 134.099262
767 1 1.360257 20.557777 134.225113
768 1 5.321967 22.353757 131.906295
769 1 31.756463 23.907342 1.412535
770 1 31.553355 26.449276 3.308794
771 1 1.413175 24.703741 3.369490
772 1 1.392515 26.843689 1.298687
773 1 31.978797 24.352343 5.115639
774 1 32.160156 26.359924 7.214990
775 1 1.408766 24.387260 7.229758
776 1 1.642701 26.531345 5.486208
777 1 31.790312 24.584742 9.440520
778 1 31.917039 26.424866 11.201423
779 1 1.388267 24.297725 11.610140
780 1 1.470330 26.363640 9.256651
781 1 32.098748 24.332057 13.377860
782 1 31.770612 25.981618 15.530848
783 1 1.424960 24.135798 15.608111
784 1 1.210261 26.257427 13.819808
785 1 31.701077 24.179924 17.533769
786 1 31.888544 26.363976 19.543736
787 1 1.412466 23.923974 19.252633
788 1 1.197093 25.953570 17.474039
789 1 32.160625 24.303029 21.535547
790 1 31.792138 26.291980 23.356326
791 1 1.239335 24.382329 23.778907
792 1 1.224978 26.231076 21.466549
793 1 31.860622 24.352050 25.858125
794 1 31.828785 26.614925 27.541119
795 1 1.489031 24.512555 27.560822
796 1 1.231600 26.663888 25.458170
797 1 31.932566 24.380263 29.447106
798 1 31.491328 26.538546 31.643204
799 1 1.098133 24.307014 31.592222
800 1 1.196520 26.693608 29.288548
801 1 31.850173 24.297909 33.618997
802 1 31.883918 26.262310 35.934179
803 1 1.298587 24.533649 35.633831
804 1 0.922876 26.357470 33.667337
805 1 32.039892 24.264817 37.489772
806 1 32.033301 26.601273 39.684206
807 1 1.758503 24.414983 39.443716
808 1 1.395117 26.793610 37.576990
809 1 31.890760 24.407419 41.755610
810 1 31.861337 26.226600 43.697530
811 1 1.194694 24.535032 43.874889
812 1 1.514048 26.509045 41.460891
813 1 31.950691 24.407463 45.726356
814 1 31.869436 26.327953 47.668261
815 1 1.519428 24.286223 47.819254
816 1 1.479967 26.515061 45.821587
817 1 32.286480 24.355901 49.916363
818 1 32.068228 26.430653 51.551027
819 1 1.702839 24.622726 51.829653
820 1 1.678824 26.378501 49.615220
821 1 32.037179 24.807817 53.572171
822 1 31.811454 26.541788 55.829240
823 1 1.059001 24.239011 55.700714
824 1 1.246109 26.666278 54.030282
825 1 31.897410 23.829626 57.602136
826 1 32.025236 26.478438 59.839751
827 1 1.662059 24.836971 59.904195
828 1 1.064843 26.589245 57.851812
829 1 32.312269 24.339203 61.596825
830 1 32.224542 26.689515 64.329508
831 1 1.547076 24.604637 63.886518
832 1 1.110945 26.626034 61.889893
833 1 32.202509 24.647731 66.162942
834 1 31.860666 24.555754 69.696478
835 1 1.790409 24.086928 67.962147
836 1 1.551685 26.634454 66.393874
837 1 4.052533 18.743238 68.204331
838 1 1.731017 18.466532 70.169339
839 1 3.889486 25.030247 83.460507
840 1 7.864614 19.854722 74.531323
841 1 5.816492 20.161597 72.269425
842 1 28.667077 22.691923 76.480716
843 1 1.871980 26.098021 70.328549
844 1 6.420331 25.866348 82.078817
845 1 30.944358 30.615928 84.503653
846 1 28.974726 24.648246 85.069845
847 1 3.305517 24.513088 74.756108
848 1 1.014925 26.922400 76.298914
849 1 23.736463 24.542296 80.792427
850 1 2.817338 24.745406 77.564803
851 1 25.199189 31.130015 88.144632
852 1 8.225150 25.981106 86.257285
853 1 30.644598 25.039296 88.819963
854 1 1.039213 3.556511 83.158815
855 1 29.204902 17.406165 90.919737
856 1 0.599464 1.193638 94.469286
857 1 8.368556 0.407443 91.834858
858 1 25.033545 27.276606 95.971935
859 1 3.727062 26.068251 100.948407
860 1 32.288436 23.041033 89.973481
861 1 21.286935 16.151894 85.745739
862 1 32.429282 16.487037 86.429067
863 1 1.066211 19.559750 106.417536
864 1 28.234221 24.972827 90.616288
865 1 0.266709 23.941502 95.175611
866 1 24.470451 25.997343 102.139105
867 1 1.982589 0.878615 106.403343
868 1 31.137030 16.457341 92.535304
869 1 0.733815 20.417264 118.837605
870 1 29.893528 28.583191 118.635798
871 1 1.985264 26.237974 94.849741
872 1 1.654227 27.115314 102.201958
873 1 5.707979 26.956739 105.401940
874 1 0.793647 26.423771 104.847221
875 1 4.647699 26.367181 123.183744
876 1 1.753892 3.206127 110.421295
877 1 31.116614 29.700173 114.332334
878 1 29.154467 29.460845 101.831743
879 1 29.240081 29.119419 98.997981
880 1 4.271406 0.307456 113.211044
881 1 30.502463 30.296179 109.564946
882 1 24.360901 24.044165 120.079662
883 1 28.424421 25.292661 122.623586
884 1 30.411470 30.585184 123.990216
885 1 25.658950 13.837041 123.512122
886 1 29.170861 27.920136 123.143269
887 1 1.551280 26.455778 127.662952
888 1 32.090861 2.370265 121.199396
889 1 23.339140 21.845413 129.636398
890 1 32.017796 28.238669 131.610747
891 1 29.937725 24.327302 134.158171
892 1 27.650158 16.567622 119.630207
893 1 27.515569 21.905688 129.994802
894 1 31.932771 26.513243 134.006957
895 1 3.591145 26.419457 134.152355
896 1 30.039231 26.302003 131.809041
897 1 31.746167 28.326161 1.390982
898 1 31.881478 30.478149 3.303652
899 1 1.160957 28.563447 3.257715
900 1 1.417018 30.683031 1.537244
901 1 32.012476 28.581126 5.439199
902 1 32.031397 30.480013 7.433483
903 1 1.431573 28.558794 7.208046
904 1 1.689609 30.392683 5.323115
905 1 31.973120 28.535097 9.133023
906 1 32.084704 30.374323 11.510882
907 1 1.191550 28.340770 11.107883
908 1 1.655090 30.602589 9.418070
909 1 32.128679 28.339237 13.549749
910 1 31.841810 30.182976 15.343695
911 1 1.209206 28.006421 15.639262
912 1 1.585231 30.796852 13.187527
913 1 31.677289 28.252082 17.340874
914 1 31.886505 30.492245 19.494468
915 1 1.174771 28.478421 19.302201
916 1 1.468797 30.235882 17.103871
917 1 31.820354 28.365759 21.243487
918 1 31.922168 30.479958 23.288036
919 1 0.915382 28.306389 23.634904
920 1 1.580490 30.479232 21.504679
921 1 31.711474 28.539411 25.714022
922 1 31.778639 30.782280 27.552399
923 1 1.336326 28.604207 27.441563
924 1 1.403603 30.403311 25.526613
925 1 31.828115 28.781809 29.559706
926 1 31.856169 30.919312 31.481916
927 1 1.229609 28.641898 31.434219
928 1 1.281650 30.770718 29.689400
929 1 32.002156 28.660290 33.392672
930 1 31.845507 30.186165 35.674205
931 1 1.263171 28.763817 35.600342
932 1 1.445513 30.760352 33.416872
933 1 31.648458 28.239402 37.725808
934 1 31.719230 30.376470 39.458011
935 1 1.610350 28.478448 39.551208
936 1 1.361713 30.541258 37.639927
937 1 31.721776 28.502192 41.758934
938 1 31.710654 30.545549 43.524018
939 1 1.235772 28.341569 43.752938
940 1 1.347576 30.793290 41.451698
941 1 31.897287 28.280741 45.644607
942 1 32.156802 30.677378 47.587390
943 1 1.350305 28.445787 47.892057
944 1 1.121890 30.588555 45.402985
945 1 32.249485 28.179655 49.553491
946 1 32.278938 30.301690 51.850266
947 1 1.549017 28.466280 51.465168
948 1 1.441694 30.384534 49.450484
949 1 31.889590 28.416395 53.647771
950 1 32.414727 30.391131 55.574903
951 1 1.584760 28.408815 55.977773
952 1 1.586115 30.674658 53.674052
953 1 31.895684 28.868045 58.051607
954 1 31.774159 30.652868 60.163485
955 1 1.407211 28.643677 59.621473
956 1 1.443856 30.899095 58.007179
957 1 31.939939 28.779842 62.017644
958 1 31.911354 30.628475 64.285696
959 1 1.557882 28.469991 64.212746
960 1 1.133274 30.816190 62.480571
961 1 32.129857 28.502597 66.545384
962 1 28.398311 30.583164 72.367189
963 1 31.941636 28.748679 70.269913
964 1 1.624431 30.550543 66.041355
965 1 30.237859 28.610022 72.271227
966 1 1.678181 30.587806 70.131512
967 1 29.716301 24.352426 71.969612
968 1 5.513504 30.595377 70.136358
969 1 29.966019 20.188485 72.073832
970 1 28.425246 23.638026 93.119704
971 1 31.951322 26.270812 71.811877
972 1 20.919162 23.377680 85.363305
973 1 30.950298 26.254287 77.293474
974 1 29.742951 28.733080 85.991088
975 1 32.119285 23.857422 73.730379
976 1 31.669326 26.916106 95.819424
977 1 27.088314 25.529521 88.376397
978 1 29.185555 4.703988 84.609395
979 1 5.425469 5.381268 86.685463
980 1 12.858685 0.673565 85.763487
981 1 28.445847 3.116795 91.990407
982 1 19.147630 27.932164 87.258492
983 1 22.454638 21.230195 92.269337
984 1 14.610776 29.550945 81.093864
985 1 1.046342 20.621599 89.601798
986 1 28.340675 23.527591 87.362994
987 1 0.621824 25.268771 97.864164
988 1 27.237635 20.962781 93.190408
989 1 25.975867 23.452591 92.387795
990 1 8.996325 2.033884 98.128107
991 1 0.988969 9.579800 104.635232
992 1 30.954308 19.817682 88.460273
993 1 0.556213 0.690629 101.217570
994 1 26.723250 13.448597 93.173289
995 1 2.236217 32.400132 111.888059
996 1 1.476382 0.993323 98.720324
997 1 2.770055 27.451475 97.221230
998 1 22.778121 30.405683 119.579526
999 1 0.408806 27.567200 114.356123
1000 1 24.292819 32.617600 104.594195
1001 1 31.523660 27.871544 110.235025
1002 1 26.507198 23.092157 114.636160
1003 1 29.756503 31.956416 100.354084
1004 1 21.326890 27.447929 117.923924
1005 1 8.192664 4.704702 112.972880
1006 1 4.126569 30.088995 113.266093
1007 1 30.713876 23.736700 117.333892
1008 1 3.369526 23.057308 115.169173
1009 1 3.237832 7.185913 118.970869
1010 1 7.326803 30.565089 125.951309
1011 1 27.948044 29.016534 120.894874
1012 1 1.927287 29.974693 115.386643
1013 1 30.808933 6.502945 123.924403
1014 1 30.657475 3.516420 117.764297
1015 1 3.248372 28.361683 131.931362
1016 1 1.594448 2.591645 128.340121
1017 1 28.277048 30.125902 125.704178
1018 1 3.466220 1.916740 130.343517
1019 1 3.073368 30.908630 130.042082
1020 1 9.654471 30.209591 128.004930
1021 1 0.508615 30.941510 125.026370
1022 1 29.526509 32.656399 133.955935
1023 1 0.460919 32.592081 129.094803
1024 1 31.940836 30.801027 133.917302
1025 1 3.563245 32.536827 1.582122
1026 1 3.476687 1.779632 3.709167
1027 1 5.459472 32.331820 3.523243
1028 1 5.720825 1.491558 1.316951
1029 1 3.511711 32.551403 5.426583
1030 1 3.496267 1.984554 7.733674
1031 1 5.562566 32.149546 7.350031
1032 1 5.545658 1.709871 5.441759
1033 1 3.577276 32.559144 9.841362
1034 1 3.384003 2.258741 11.796574
1035 1 5.465712 32.601633 11.677059
1036 1 5.430579 1.680604 9.504690
1037 1 3.157008 0.246571 13.659048
1038 1 3.610303 1.654199 15.646576
1039 1 5.289828 32.085784 15.376246
1040 1 5.573420 1.883191 13.437665
1041 1 3.173661 32.223715 17.401760
1042 1 3.376106 1.712702 18.916887
1043 1 5.379083 32.169225 19.708654
1044 1 5.484364 1.522246 17.345652
1045 1 3.222649 0.024443 21.177250
1046 1 3.525940 1.592537 23.750345
1047 1 5.467731 32.430747 23.468521
1048 1 5.629116 1.719386 21.560445
1049 1 3.332911 32.291437 25.533210
1050 1 3.570026 1.603149 27.745650
1051 1 5.400773 32.135737 27.450500
1052 1 5.533693 1.738900 25.505407
1053 1 3.395623 32.676380 29.706762
1054 1 3.798784 1.831749 31.661826
1055 1 5.607009 32.581727 31.708848
1056 1 5.689143 1.358256 29.414238
1057 1 3.512697 32.519294 33.279847
1058 1 3.657814 1.875467 35.741520
1059 1 5.431157 32.627593 35.638942
1060 1 5.691862 1.987118 33.723235
1061 1 3.591515 0.472376 38.007880
1062 1 3.923344 2.337111 39.740214
1063 1 5.796284 32.533835 39.765015
1064 1 5.834217 1.991578 37.963035
1065 1 3.342035 0.045381 41.554301
1066 1 3.736540 1.649567 43.760213
1067 1 5.441533 32.376785 43.566285
1068 1 5.589809 1.695829 41.853659
1069 1 3.372850 32.385231 45.550308
1070 1 3.857440 2.173087 47.829132
1071 1 5.596051 32.712484 47.740161
1072 1 6.081016 1.788723 45.809607
1073 1 3.930554 0.111198 49.895201
1074 1 3.646224 1.925878 52.815862
1075 1 5.563040 32.665819 52.043352
1076 1 5.780783 1.946945 49.933573
1077 1 3.633333 32.302990 53.999361
1078 1 3.450852 2.336570 55.862856
1079 1 5.459672 32.424002 55.811597
1080 1 5.777601 2.015815 54.123152
1081 1 3.479857 32.711568 58.054410
1082 1 3.571258 1.898021 60.051355
1083 1 5.480911 0.073141 59.901543
1084 1 5.381167 1.939079 57.709759
1085 1 3.443959 32.516797 62.223993
1086 1 3.545459 1.812769 63.981106
1087 1 5.613380 32.499620 64.258158
1088 1 5.863906 1.934757 62.019426
1089 1 3.280007 0.001630 66.224343
1090 1 3.495447 30.280279 68.138656
1091 1 6.078807 28.846625 68.383516
1092 1 5.653379 2.046161 65.941616
1093 1 5.615777 4.219844 72.123885
1094 1 31.018907 26.672186 74.471077
1095 1 1.323545 2.259167 69.956266
1096 1 7.653836 32.332536 66.276519
1097 1 3.241020 32.558740 69.702019
1098 1 28.675444 25.242002 78.094211
1099 1 30.697638 24.262013 75.737406
1100 1 5.728745 24.797467 72.865041
1101 1 28.844687 28.543354 74.645524
1102 1 1.297891 2.543416 73.551262
1103 1 6.276047 32.314824 79.223518
1104 1 4.457968 28.898765 85.417711
1105 1 32.211929 30.925205 72.170589
1106 1 3.233032 30.331583 81.339205
1107 1 6.766343 24.266896 84.004270
1108 1 7.335005 28.147416 80.733914
1109 1 3.024067 26.597876 91.378834
1110 1 5.941614 19.768487 85.504034
1111 1 9.396268 30.903028 93.484482
1112 1 10.374462 31.954458 88.807640
1113 1 0.573058 10.034593 81.780042
1114 1 28.899507 4.961392 88.676799
1115 1 8.175140 30.803840 96.229782
1116 1 32.084384 3.562556 94.913382
1117 1 20.639771 22.306130 97.249956
1118 1 25.639188 30.467110 104.914044
1119 1 27.804714 0.062545 98.765541
1120 1 2.390244 31.075000 98.926597
1121 1 3.138062 28.737994 110.949240
1122 1 9.021221 2.288886 113.480525
1123 1 32.108822 1.923278 110.492382
1124 1 9.091084 3.170678 93.437718
1125 1 25.960287 9.863532 101.365699
1126 1 7.807041 4.943994 106.634581
1127 1 3.606345 27.211068 103.800637
1128 1 2.585366 7.395190 95.530742
1129 1 1.610953 32.305909 104.090214
1130 1 31.676368 3.446728 108.517143
1131 1 5.721569 24.198323 114.728494
1132 1 7.536039 0.326728 112.192423
1133 1 9.486041 25.480324 121.355322
1134 1 32.229859 28.150187 119.846251
1135 1 31.485451 10.845315 121.698042
1136 1 6.395686 6.272355 123.820792
1137 1 3.267564 30.717902 117.682928
1138 1 1.219011 13.825155 128.416473
1139 1 7.945016 7.406744 108.928416
1140 1 3.606202 10.185748 126.627780
1141 1 1.296723 28.411158 125.792511
1142 1 30.552912 32.282834 126.065879
1143 1 4.370611 9.092988 120.042868
1144 1 3.102161 13.588731 117.182308
1145 1 2.282574 8.726708 121.544077
1146 1 7.524576 9.972683 130.241063
1147 1 5.680084 6.186483 132.295942
1148 1 10.233779 14.496771 116.956797
1149 1 2.994481 32.686503 132.006127
1150 1 5.436660 4.085887 134.329540
1151 1 5.277745 1.784581 128.128142
1152 1 9.910771 11.669707 123.912596
1153 1 3.431759 3.785969 1.304923
1154 1 3.620496 5.907669 3.667084
1155 1 5.401298 3.806392 3.319522
1156 1 5.488493 5.812794 1.320035
1157 1 3.780412 3.739980 5.743055
1158 1 3.691433 5.956926 7.715680
1159 1 5.941392 3.897719 7.943145
1160 1 5.804825 6.033888 5.340615
1161 1 3.575672 3.960362 9.576269
1162 1 3.609909 6.104117 11.718555
1163 1 5.468330 4.079829 11.677043
1164 1 5.540612 6.128125 9.491399
1165 1 3.533696 4.097482 13.822529
1166 1 3.318097 6.083076 15.630082
1167 1 5.666855 3.733386 15.366210
1168 1 5.674423 6.287251 13.472758
1169 1 3.185479 3.754361 16.930022
1170 1 3.406113 5.403425 19.203375
1171 1 5.407655 3.655571 19.087292
1172 1 5.622823 5.664909 17.266740
1173 1 3.428500 3.573637 21.371811
1174 1 3.276655 5.562478 23.212636
1175 1 5.307902 3.921574 23.723103
1176 1 5.173248 5.801834 21.366978
1177 1 3.303016 3.484465 25.648757
1178 1 3.055222 5.591473 27.363201
1179 1 5.294300 3.793258 27.448201
1180 1 4.758284 5.839045 25.450925
1181 1 3.447628 3.701392 29.730475
1182 1 3.194726 5.810970 31.510283
1183 1 5.427503 3.956470 31.405533
1184 1 4.991976 5.792096 29.403175
1185 1 3.480033 3.918156 33.462206
1186 1 3.406106 6.027135 35.564347
1187 1 5.467164 4.056857 35.458911
1188 1 5.376562 5.857270 33.452030
1189 1 3.440718 4.080639 37.316642
1190 1 3.556702 6.250243 39.682870
1191 1 6.275642 3.939485 39.754663
1192 1 5.444982 5.712811 37.868154
1193 1 3.838526 4.305446 41.740093
1194 1 3.822396 6.489511 43.773361
1195 1 5.346192 3.904893 43.864791
1196 1 5.780946 6.116587 41.246636
1197 1 3.493149 4.145222 45.841840
1198 1 3.747009 6.351946 47.810327
1199 1 5.714796 3.988880 47.533180
1200 1 5.398933 6.395470 45.772966
1201 1 3.623031 4.161349 49.957728
1202 1 3.939952 6.033218 51.904673
1203 1 5.910637 4.033254 51.955144
1204 1 5.657493 5.975064 49.948739
1205 1 3.627224 4.216169 53.824301
1206 1 3.525811 6.105456 55.853549
1207 1 5.445051 4.361439 55.871056
1208 1 5.804877 6.363102 53.768685
1209 1 3.348131 4.214493 58.262785
1210 1 3.486188 5.946364 60.002634
1211 1 5.317668 3.980655 60.061898
1212 1 5.335738 6.133604 57.622242
1213 1 3.488440 3.643802 61.895467
1214 1 3.428517 6.273789 64.186654
1215 1 5.133253 4.196275 63.938044
1216 1 5.749220 6.241392 61.834262
1217 1 3.404649 4.123369 65.995941
1218 1 2.044851 10.601872 70.116840
1219 1 5.657457 3.958268 68.061936
1220 1 5.763758 6.028490 70.249179
1221 1 1.331682 4.278469 68.102646
1222 1 29.897005 3.762014 68.153476
1223 1 5.541031 2.051275 70.249430
1224 1 1.110985 0.281212 72.130452
1225 1 3.460608 8.394402 74.518152
1226 1 28.876615 30.082650 76.570095
1227 1 32.568858 0.525292 74.709605
1228 1 13.739048 10.095482 70.261128
1229 1 31.417382 6.300024 76.251060
1230 1 5.051405 8.444786 76.643498
1231 1 24.923450 4.798565 82.903610
1232 1 30.149149 32.691406 72.157761
1233 1 10.574677 29.394252 89.732585
1234 1 29.199714 3.260669 94.983930
1235 1 7.202800 7.067581 76.344187
1236 1 15.555127 4.778453 91.257081
1237 1 27.639387 5.612653 94.757975
1238 1 31.717723 11.307606 91.551752
1239 1 30.764373 2.623058 105.770805
1240 1 2.531707 0.018066 76.211950
1241 1 30.417890 2.816306 97.240793
1242 1 0.113269 5.823061 101.767191
1243 1 6.895033 13.187575 95.006525
1244 1 5.684316 26.650545 90.687482
1245 1 31.416300 5.216060 106.687316
1246 1 5.832265 6.518716 106.226380
1247 1 2.909685 2.316766 104.410769
1248 1 5.209543 5.267491 103.595903
1249 1 31.402891 4.448799 103.957730
1250 1 30.031559 5.353222 109.822040
1251 1 28.826608 5.002022 106.898121
1252 1 3.867345 6.467640 108.119898
1253 1 28.646746 4.651692 114.298768
1254 1 9.414490 15.831975 111.055151
1255 1 26.533969 14.433195 103.929238
1256 1 10.170055 3.982196 105.470691
1257 1 17.758077 2.081969 105.459792
1258 1 5.331043 4.208461 117.265231
1259 1 6.222920 3.103762 115.079695
1260 1 28.403134 4.980827 118.708773
1261 1 3.917281 26.711268 120.679799
1262 1 26.137442 8.125150 125.694660
1263 1 3.407656 9.093695 114.603682
1264 1 4.347024 4.733658 120.045006
1265 1 22.453298 12.086721 104.147833
1266 1 1.606392 13.339175 119.295621
1267 1 23.931384 9.721207 114.510066
1268 1 32.493108 7.646385 122.026452
1269 1 3.241188 8.650833 123.959733
1270 1 7.546570 6.020406 126.316175
1271 1 4.598514 5.607248 126.116515
1272 1 7.299217 10.399683 121.929627
1273 1 3.509572 8.042235 128.427086
1274 1 9.672848 8.038840 133.823986
1275 1 7.726439 31.932557 132.332469
1276 1 1.584054 6.067696 132.280391
1277 1 32.152942 5.616611 126.237598
1278 1 3.200667 4.191907 132.223381
1279 1 5.665386 8.160293 134.283001
1280 1 5.779586 6.100275 128.646752
1281 1 3.641853 7.788822 1.266845
1282 1 3.497871 9.703418 3.390057
1283 1 5.676782 7.940889 3.468594
1284 1 5.492297 9.991670 1.448828
1285 1 3.692617 7.962132 5.534500
1286 1 3.546491 10.206292 7.567367
1287 1 5.467646 7.943032 7.712913
1288 1 5.692718 10.058616 5.038272
1289 1 3.586005 7.799977 9.712164
1290 1 3.249041 9.824635 11.679730
1291 1 5.575295 8.255584 11.625276
1292 1 5.418035 10.041960 9.653586
1293 1 3.600920 8.071768 13.806507
1294 1 3.606245 10.087778 15.535915
1295 1 5.612543 8.193041 15.527242
1296 1 5.306842 10.248797 13.466745
1297 1 3.495558 7.797804 17.827639
1298 1 3.548681 9.830535 19.318554
1299 1 5.556811 7.361446 19.269304
1300 1 5.568420 9.965412 17.568410
1301 1 3.890419 7.989503 21.562891
1302 1 3.039061 9.817997 23.714511
1303 1 5.662068 7.559823 23.398019
1304 1 5.595498 9.887579 21.375616
1305 1 3.243715 7.851708 25.267294
1306 1 3.992631 9.642728 27.141648
1307 1 5.356052 7.404306 27.524922
1308 1 5.670062 9.599831 24.783946
1309 1 3.194653 7.686500 29.799479
1310 1 3.100337 9.785470 31.596428
1311 1 5.196170 7.837057 31.588652
1312 1 5.597037 9.953751 29.513303
1313 1 3.234244 7.980826 33.540549
1314 1 3.393731 9.654975 35.601179
1315 1 5.553940 7.855151 35.653979
1316 1 5.267137 9.601179 33.719439
1317 1 3.626169 7.585369 37.512546
1318 1 3.623536 9.874055 39.353820
1319 1 5.605834 8.018226 39.069796
1320 1 5.421532 9.999682 37.039660
1321 1 3.374455 8.099456 41.754869
1322 1 3.513270 9.760853 43.646308
1323 1 5.635723 8.231697 43.188235
1324 1 5.704683 10.174130 41.345134
1325 1 3.517018 8.248006 46.078181
1326 1 3.624888 10.263199 48.055179
1327 1 5.617095 8.377770 47.639348
1328 1 5.657591 10.425264 45.584744
1329 1 3.840019 8.006586 49.753355
1330 1 3.539965 10.018098 51.803989
1331 1 5.719136 8.299634 51.928941
1332 1 5.557519 10.419917 49.690187
1333 1 3.776888 8.403499 53.971577
1334 1 3.417808 10.302643 55.882709
1335 1 5.549176 8.164500 55.701146
1336 1 5.472828 10.382839 53.950907
1337 1 3.415806 8.337165 58.254640
1338 1 3.678175 10.621532 60.075928
1339 1 5.645207 8.247399 59.559680
1340 1 5.740868 10.325568 57.906037
1341 1 3.913041 8.062809 61.869752
1342 1 3.914864 10.538483 64.106736
1343 1 5.451834 8.143524 64.256581
1344 1 5.657926 10.423050 61.967316
1345 1 3.615819 8.039499 66.436308
1346 1 9.734559 7.150289 77.037954
1347 1 5.651987 7.983983 68.355659
1348 1 3.766398 10.071072 68.056306
1349 1 2.066627 5.304286 78.673665
1350 1 29.526978 8.622603 71.918230
1351 1 3.085844 7.930971 78.968677
1352 1 11.266717 16.301436 74.540270
1353 1 11.193051 8.459385 79.064100
1354 1 7.768988 10.069772 72.162697
1355 1 6.143723 9.802327 74.581713
1356 1 29.672770 6.416904 70.155597
1357 1 5.595007 5.887302 84.001147
1358 1 0.217005 7.086068 89.055553
1359 1 3.330561 0.310470 73.923680
1360 1 32.080439 6.820896 72.420974
1361 1 10.004713 32.091236 75.942485
1362 1 5.411732 0.088801 93.275122
1363 1 3.802762 4.403745 73.909233
1364 1 12.037313 8.796568 85.647224
1365 1 3.536894 11.020527 90.204797
1366 1 6.583774 11.326311 96.743363
1367 1 10.788379 5.994748 95.584087
1368 1 8.178942 0.822292 89.242892
1369 1 14.057294 7.009135 93.001053
1370 1 2.101899 17.111677 92.132447
1371 1 15.402680 8.884368 90.895150
1372 1 0.512315 6.916175 99.609950
1373 1 9.557886 6.603250 93.281597
1374 1 25.850934 8.862104 104.414044
1375 1 12.537417 1.797906 106.543188
1376 1 11.944715 32.427185 101.530341
1377 1 2.551105 18.567920 94.449047
1378 1 30.877248 7.020082 117.973634
1379 1 6.330054 9.344034 110.802767
1380 1 7.367853 18.730896 101.536208
1381 1 32.060246 20.870203 104.966297
1382 1 14.451563 9.465266 106.804197
1383 1 10.595259 0.258423 112.068150
1384 1 13.588321 10.591570 111.082327
1385 1 1.721797 10.348984 108.226562
1386 1 32.354956 32.305049 114.086742
1387 1 6.455066 7.736995 103.908220
1388 1 29.263837 15.091258 114.381965
1389 1 25.457248 11.513447 115.816482
1390 1 4.323682 10.806139 122.346543
1391 1 11.000277 3.549546 114.681476
1392 1 4.285726 14.365855 119.344630
1393 1 25.567448 6.423901 117.780012
1394 1 29.724635 11.999147 125.314701
1395 1 0.180001 10.899576 124.130721
1396 1 30.298099 11.322680 116.440291
1397 1 3.645941 11.656936 119.673065
1398 1 3.294155 10.114919 134.400059
1399 1 3.370381 16.165643 127.951495
1400 1 31.467284 12.530452 128.208862
1401 1 5.062774 32.091916 119.183007
1402 1 5.966583 3.921812 122.342932
1403 1 1.358642 7.996002 134.403106
1404 1 7.628964 8.134606 128.194570
1405 1 3.233107 14.156562 130.114742
1406 1 29.238027 10.448392 128.011070
1407 1 3.423127 5.994945 133.955978
1408 1 7.576895 10.436816 134.287172
1409 1 2.902993 12.342349 1.438097
1410 1 3.362682 14.407994 3.489739
1411 1 5.202752 12.112452 3.263957
1412 1 5.229790 13.822413 1.268879
1413 1 3.451463 11.658427 5.344354
1414 1 2.937051 14.120466 7.066976
1415 1 5.307446 12.193429 7.283133
1416 1 4.987507 13.913573 5.551714
1417 1 3.313526 11.992844 9.374558
1418 1 3.169829 14.346768 11.218504
1419 1 5.283850 12.203912 11.145056
1420 1 5.200028 14.235117 9.561985
1421 1 3.332706 12.104827 13.498225
1422 1 3.283666 14.201609 15.448796
1423 1 5.477064 12.119597 15.660579
1424 1 5.384996 13.940596 13.457418
1425 1 3.371543 12.095674 17.733929
1426 1 3.462126 14.100364 19.695314
1427 1 5.715717 12.117121 19.464886
1428 1 5.534454 14.271572 17.472655
1429 1 3.365215 11.931153 21.866638
1430 1 3.216923 13.772558 24.141589
1431 1 5.253149 11.943881 23.696473
1432 1 5.138092 14.055369 21.720855
1433 1 3.283634 12.005368 26.266510
1434 1 3.139423 14.137885 27.939602
1435 1 5.383378 12.328411 28.029034
1436 1 5.457812 13.796366 25.880359
1437 1 3.361550 12.054968 29.707732
1438 1 3.437309 14.356084 31.931964
1439 1 5.390957 12.042371 31.798347
1440 1 5.594255 14.543482 30.019510
1441 1 3.177385 11.829622 33.543941
1442 1 3.510857 13.754416 35.622805
1443 1 5.552853 12.176298 35.516704
1444 1 5.496211 14.281852 33.592948
1445 1 2.985897 12.013550 37.659800
1446 1 3.302697 14.154976 39.404761
1447 1 5.376888 11.962952 39.679702
1448 1 5.270111 13.669791 37.494481
1449 1 3.569078 11.651366 41.792440
1450 1 3.464936 13.891734 43.261958
1451 1 5.284578 12.112033 43.766947
1452 1 5.446150 14.224569 41.351427
1453 1 3.360848 12.105852 45.764145
1454 1 3.531128 14.452444 47.539684
1455 1 5.494187 12.423532 47.349695
1456 1 5.144976 14.358231 45.649389
1457 1 3.364981 12.380045 49.685700
1458 1 3.348151 14.227045 51.764683
1459 1 5.635062 12.460311 51.878148
1460 1 5.573995 14.087401 49.792195
1461 1 3.530954 12.516707 53.854421
1462 1 3.584369 14.624149 55.616243
1463 1 5.758855 12.479169 55.838912
1464 1 5.635113 14.349090 53.885089
1465 1 3.641903 12.399534 57.718746
1466 1 3.234013 14.403033 59.595978
1467 1 5.586643 12.608007 59.748079
1468 1 5.345106 14.687617 57.780895
1469 1 3.456505 12.414535 61.978284
1470 1 3.706920 14.196761 63.860023
1471 1 5.819338 12.135105 64.068363
1472 1 5.770255 14.402692 62.196375
1473 1 4.041711 12.397618 66.310332
1474 1 1.807405 10.947168 74.336499
1475 1 1.223113 8.011786 68.316864
1476 1 5.903323 14.583071 65.612909
1477 1 7.768360 11.897331 69.805267
1478 1 3.880440 13.981963 68.557154
1479 1 3.983220 12.041440 70.158044
1480 1 5.778841 12.280552 68.215534
1481 1 15.675815 6.899268 72.292778
1482 1 2.434829 12.077131 72.142224
1483 1 3.904037 6.429540 72.210032
1484 1 5.819373 16.071229 72.393529
1485 1 11.262985 8.163634 74.202909
1486 1 8.347785 32.666538 77.819235
1487 1 8.217469 7.064092 79.739667
1488 1 5.889645 11.748491 76.311079
1489 1 11.518391 11.860200 91.934767
1490 1 28.682091 8.054397 95.237572
1491 1 6.413171 14.534829 83.977472
1492 1 2.090270 9.357057 76.591801
1493 1 32.501955 14.476632 88.299319
1494 1 0.863816 31.089089 91.193418
1495 1 6.445719 11.928052 90.015564
1496 1 8.289275 2.959834 81.734938
1497 1 7.645482 8.091584 94.961606
1498 1 30.814221 22.260702 93.641835
1499 1 14.218011 12.742187 91.779858
1500 1 2.427663 17.008523 87.170303
1501 1 10.413458 8.714011 94.804177
1502 1 5.460299 13.643640 92.918372
1503 1 5.220286 12.433091 84.817987
1504 1 11.416238 13.637916 111.707373
1505 1 8.732958 13.528917 102.050966
1506 1 7.930092 26.541493 95.121481
1507 1 32.487279 18.611595 94.052674
1508 1 2.567036 5.592617 105.503479
1509 1 9.387733 6.698770 102.004170
1510 1 31.314922 15.905344 105.428239
1511 1 32.146124 11.879986 107.201763
1512 1 5.974797 16.005499 100.389658
1513 1 29.116877 8.882409 107.614790
1514 1 3.041704 6.164350 111.741896
1515 1 1.527885 17.617216 114.174307
1516 1 8.971136 2.404499 110.986074
1517 1 0.469866 10.611197 114.425360
1518 1 10.028883 9.654435 122.371885
1519 1 17.197716 18.536154 121.087488
1520 1 4.493079 13.992673 111.948600
1521 1 13.748269 17.956549 113.038598
1522 1 5.286223 18.167187 123.762162
1523 1 3.482580 3.148635 112.629116
1524 1 15.195189 10.058235 121.179501
1525 1 3.052954 11.825568 124.654548
1526 1 3.431546 10.094746 130.199742
1527 1 13.850302 10.317587 128.039528
1528 1 1.153991 13.508772 123.954460
1529 1 31.972472 16.253347 128.214341
1530 1 7.476000 16.357252 131.919582
1531 1 5.012209 13.616901 128.531839
1532 1 29.507556 18.534854 118.334244
1533 1 29.768899 18.216840 127.950215
1534 1 26.863433 14.736887 126.059377
1535 1 5.479753 12.136391 134.277803
1536 1 1.304639 16.054910 130.025456
1537 1 3.405629 16.138189 1.335234
1538 1 3.426290 18.120574 3.351853
1539 1 5.561841 16.365744 3.361589
1540 1 5.221436 18.563436 1.194092
1541 1 3.211019 16.210780 5.371934
1542 1 3.232569 18.171107 7.567184
1543 1 5.322505 15.719363 7.616290
1544 1 5.630649 18.128107 5.416036
1545 1 3.159662 15.978799 9.239490
1546 1 3.585872 18.042917 11.184533
1547 1 5.531033 16.382192 11.347284
1548 1 5.549823 17.716242 9.132192
1549 1 3.110291 15.998051 13.326568
1550 1 3.285951 17.841507 15.412249
1551 1 5.490030 15.780894 15.401140
1552 1 5.215626 17.771155 13.459891
1553 1 3.220602 16.038487 17.770862
1554 1 3.423740 18.155298 19.355268
1555 1 5.568862 16.175255 19.383866
1556 1 5.516926 17.910590 17.314874
1557 1 3.518920 16.129520 21.551038
1558 1 3.234889 17.916655 23.715302
1559 1 5.487717 16.104021 23.656882
1560 1 5.652780 17.995943 21.559192
1561 1 3.374788 16.081805 25.497153
1562 1 3.253981 18.240772 27.674603
1563 1 4.927905 16.323390 27.709667
1564 1 5.287939 18.031681 25.325462
1565 1 3.325075 15.810120 29.855732
1566 1 3.236624 18.489107 31.943649
1567 1 5.051568 16.533595 32.110220
1568 1 5.292322 18.421559 29.676171
1569 1 3.155757 16.072960 34.052422
1570 1 3.255716 18.485056 35.473306
1571 1 5.246298 15.982330 35.809292
1572 1 5.457875 18.419580 33.917999
1573 1 3.002165 16.391910 37.208611
1574 1 3.486582 18.237955 39.774500
1575 1 5.034986 16.022251 39.045315
1576 1 5.761516 18.560582 37.854931
1577 1 3.412029 16.102315 41.479842
1578 1 3.403066 18.307283 43.541550
1579 1 5.257049 15.795166 43.679384
1580 1 5.550795 18.515501 41.788173
1581 1 3.334634 16.558421 45.645369
1582 1 3.721711 18.050888 47.633189
1583 1 5.619746 16.405646 47.856528
1584 1 5.329617 18.099140 45.320295
1585 1 3.579585 16.294641 49.704073
1586 1 3.676038 18.354112 51.831584
1587 1 5.620923 16.359936 51.921621
1588 1 5.514286 18.543957 49.883902
1589 1 3.390529 16.695185 53.742862
1590 1 3.142813 18.296089 55.824778
1591 1 5.688474 16.490919 55.732039
1592 1 5.368119 18.393802 54.132770
1593 1 3.634443 16.529845 57.841933
1594 1 3.753608 18.385118 60.245041
1595 1 5.518453 16.371262 59.662622
1596 1 5.749574 18.512985 57.962055
1597 1 3.482641 16.111864 61.824591
1598 1 3.425484 18.266808 63.659588
1599 1 5.598350 16.560018 63.802059
1600 1 5.625908 18.483895 61.716388
1601 1 3.814788 16.693497 66.007761
1602 1 7.749635 16.174340 70.010266
1603 1 1.873459 14.758483 69.843339
1604 1 7.763661 18.404283 67.908406
1605 1 28.242148 16.245265 70.027259
1606 1 3.913687 22.344715 72.025283
1607 1 8.874603 11.963551 76.280563
1608 1 5.059547 16.523145 76.490528
1609 1 8.921712 21.296808 80.849198
1610 1 4.968384 23.633931 79.304029
1611 1 5.422762 12.632420 72.914363
1612 1 5.631083 8.247929 80.738273
1613 1 3.623653 12.568578 74.663973
1614 1 8.914401 14.694360 82.544098
1615 1 7.514646 12.320422 74.027686
1616 1 1.680857 18.718923 74.118436
1617 1 4.771735 9.692579 88.003793
1618 1 18.128248 22.649549 78.116752
1619 1 7.856599 7.331837 85.218032
1620 1 9.290993 25.386637 82.400636
1621 1 29.205013 14.860894 94.127810
1622 1 26.263501 27.196148 100.083428
1623 1 10.788944 12.946378 104.053054
1624 1 12.119378 18.133720 92.800817
1625 1 30.737677 17.256637 88.002436
1626 1 3.955982 14.029185 98.149451
1627 1 4.533797 16.074137 88.638109
1628 1 27.193602 18.906708 91.639239
1629 1 5.122085 25.935320 95.837195
1630 1 27.778760 27.038563 109.555962
1631 1 6.208613 15.529080 97.061836
1632 1 4.586182 18.922773 87.798029
1633 1 31.507411 23.515047 99.216257
1634 1 28.771519 16.482960 109.423665
1635 1 3.163705 24.719003 97.702146
1636 1 9.347100 13.630883 98.961276
1637 1 0.915652 15.211097 107.590351
1638 1 1.666437 14.180929 105.297936
1639 1 7.775881 16.054537 102.651736
1640 1 10.015732 12.313694 115.004073
1641 1 22.196852 7.560213 121.207520
1642 1 8.289149 21.776551 115.584007
1643 1 10.139575 14.814152 114.041783
1644 1 0.613213 24.280292 106.450051
1645 1 3.916584 17.713376 105.147207
1646 1 29.911618 17.433207 111.897838
1647 1 5.681955 14.692346 116.397676
1648 1 10.240126 20.740564 112.177644
1649 1 9.570511 12.558437 127.003463
1650 1 9.531334 15.702048 119.078110
1651 1 4.444068 20.922986 121.652433
1652 1 4.379085 17.806300 121.057991
1653 1 0.523538 6.325385 116.973414
1654 1 1.535746 11.275592 121.808182
1655 1 7.273363 18.344289 125.485861
1656 1 5.444401 24.335298 133.997338
1657 1 31.249932 15.390210 123.574324
1658 1 5.454370 16.035910 129.871210
1659 1 3.788291 14.007491 133.846752
1660 1 9.609499 14.071590 132.217420
1661 1 1.606548 18.146046 131.921418
1662 1 3.411362 18.134896 134.113501
1663 1 1.358753 14.239374 132.447721
1664 1 29.617144 16.207736 130.199042
1665 1 3.228751 20.341262 1.478503
1666 1 3.292155 22.311829 3.447779
1667 1 5.380605 20.110033 3.561809
1668 1 5.232064 22.297651 1.342067
1669 1 3.538846 19.995264 5.444953
1670 1 3.294225 22.432776 7.471808
1671 1 5.318904 20.161738 7.400183
1672 1 5.287266 22.293833 5.169362
1673 1 3.280844 20.258828 9.336101
1674 1 3.317606 22.335760 11.047653
1675 1 5.312329 19.924561 11.127643
1676 1 5.479619 22.153298 9.531710
1677 1 3.317108 19.767184 13.287824
1678 1 3.196725 22.056437 15.398623
1679 1 5.367174 20.123101 15.297361
1680 1 5.364339 22.044633 12.889751
1681 1 3.453528 20.061681 17.134548
1682 1 3.488470 22.138995 19.466148
1683 1 5.179834 19.847319 19.758844
1684 1 5.374836 22.200454 17.253898
1685 1 3.342779 20.039116 21.553738
1686 1 3.417504 22.375843 23.539495
1687 1 5.395816 20.309625 23.750693
1688 1 5.406802 22.061418 21.614181
1689 1 3.387637 20.117719 25.495651
1690 1 3.368932 22.380696 27.419259
1691 1 5.163256 20.500648 27.380795
1692 1 5.182019 22.371356 25.690353
1693 1 3.223639 20.149541 29.535006
1694 1 3.479011 22.264400 31.326408
1695 1 5.646097 20.690400 32.109646
1696 1 5.261035 22.040181 29.504738
1697 1 3.111722 20.596167 34.115224
1698 1 3.290520 22.665815 35.695216
1699 1 5.390937 20.360877 36.024169
1700 1 5.292045 22.286977 34.120823
1701 1 3.314954 20.353379 37.686524
1702 1 3.546007 22.462197 39.546023
1703 1 5.629071 20.573569 39.766601
1704 1 5.082471 22.718694 37.491572
1705 1 3.622449 20.387058 41.804348
1706 1 3.263557 22.559050 43.481577
1707 1 5.328280 20.466742 43.708145
1708 1 5.498084 22.596165 41.828914
1709 1 3.740814 20.264415 45.829586
1710 1 3.548486 22.465359 47.682181
1711 1 5.794195 20.749943 47.686113
1712 1 5.382585 22.405569 45.583299
1713 1 3.770704 20.486317 49.702301
1714 1 3.553926 22.175447 52.012370
1715 1 5.605250 20.351274 52.209825
1716 1 5.699793 22.437704 49.894945
1717 1 3.043363 20.135959 54.039682
1718 1 3.278888 22.429213 56.332599
1719 1 5.346505 20.274924 55.977954
1720 1 5.242717 22.322735 54.267778
1721 1 3.130932 20.151393 57.938274
1722 1 3.305232 22.667364 59.892100
1723 1 5.306732 20.464900 60.010562
1724 1 5.536804 22.310738 57.611114
1725 1 3.072983 20.526748 61.803729
1726 1 3.598481 22.432261 64.194969
1727 1 5.640397 20.258108 63.884996
1728 1 5.483461 22.237678 62.043925
1729 1 3.758042 20.140322 65.779037
1730 1 9.403883 26.693331 66.261544
1731 1 6.008111 20.707433 68.305575
1732 1 5.997384 22.547489 70.255073
1733 1 1.679821 20.395966 67.833026
1734 1 1.388888 20.854020 72.415763
1735 1 3.751843 27.076544 76.207283
1736 1 4.222136 26.356888 67.822991
1737 1 9.913914 16.237092 68.116363
1738 1 30.224166 22.159638 74.198932
1739 1 29.710399 23.087604 78.727727
1740 1 0.502661 23.897215 76.548571
1741 1 0.696571 25.505282 87.503667
1742 1 4.094889 31.107225 78.176307
1743 1 30.696586 19.586008 82.555809
1744 1 28.335313 25.161538 75.086314
1745 1 2.684590 15.805834 84.705517
1746 1 4.557287 15.794201 82.314673
1747 1 0.316070 15.066821 74.069975
1748 1 12.673916 8.261717 76.580735
1749 1 6.992597 14.821283 90.765271
1750 1 3.658792 6.412141 80.846704
1751 1 9.151942 16.340525 89.114328
1752 1 5.544173 19.260168 82.926244
1753 1 5.726834 29.046925 92.605060
1754 1 32.451241 14.674598 84.750423
1755 1 29.826892 20.061201 92.585846
1756 1 8.411096 6.411529 82.460413
1757 1 4.727644 1.231023 107.215895
1758 1 8.144746 24.344176 98.988981
1759 1 30.940410 10.134732 100.084704
1760 1 11.911411 16.230982 88.689451
1761 1 31.058266 22.351222 96.841884
1762 1 31.983167 1.296809 107.247743
1763 1 27.841815 22.385129 95.200188
1764 1 0.249710 21.156608 91.801631
1765 1 31.403949 24.570719 101.466156
1766 1 27.634062 18.475584 111.132629
1767 1 30.877594 20.618543 111.021037
1768 1 11.613373 19.828480 104.934419
1769 1 2.625289 16.092946 112.118122
1770 1 7.727432 19.296815 116.804301
1771 1 0.873579 2.661396 118.792173
1772 1 0.458144 25.033998 109.159327
1773 1 9.625373 19.630544 106.892112
1774 1 31.865103 27.959150 122.688967
1775 1 2.551477 21.995624 119.869292
1776 1 10.376772 18.209548 111.537635
1777 1 3.433972 19.702478 119.353476
1778 1 5.336920 28.367748 130.000044
1779 1 7.335965 24.904644 123.856700
1780 1 10.578095 22.462852 121.514320
1781 1 5.232190 24.348560 129.985856
1782 1 9.009929 24.131659 125.877492
1783 1 5.669775 24.899598 125.883592
1784 1 8.311082 25.920114 117.836759
1785 1 5.163072 19.971276 125.878689
1786 1 5.348654 26.418410 128.061643
1787 1 3.249585 21.847586 125.684709
1788 1 7.378839 22.438481 133.921842
1789 1 31.490691 14.307070 130.155594
1790 1 1.425431 24.368253 134.196824
1791 1 5.422980 20.501732 129.977446
1792 1 1.556982 26.637258 132.372976
1793 1 3.382092 24.459288 1.306146
1794 1 3.219189 26.605383 3.171378
1795 1 5.269358 24.012269 3.209722
1796 1 5.477322 26.476268 1.445039
1797 1 3.402943 24.474142 5.634493
1798 1 3.340100 26.554954 7.488586
1799 1 5.379589 24.482911 7.484217
1800 1 5.243672 26.203007 5.229707
1801 1 3.483235 24.660295 9.409813
1802 1 3.404115 26.500345 11.393937
1803 1 5.407322 24.461435 11.439508
1804 1 5.694331 26.361088 9.371260
1805 1 3.469813 24.135108 13.283442
1806 1 3.507525 26.235395 15.075453
1807 1 5.264956 24.116947 15.288906
1808 1 5.319339 26.285953 13.418083
1809 1 3.346451 23.956935 17.661811
1810 1 3.193292 26.140643 19.343451
1811 1 5.352346 23.930976 19.532963
1812 1 5.026734 26.006874 17.290092
1813 1 3.087546 23.999026 21.402463
1814 1 3.378181 26.299768 23.688438
1815 1 5.523848 24.277926 23.792567
1816 1 4.919214 26.059902 21.603623
1817 1 3.149427 24.410044 25.630491
1818 1 3.316719 26.504178 27.667525
1819 1 5.205557 24.393014 27.439484
1820 1 5.513680 26.577767 25.574262
1821 1 3.412241 24.352878 29.614311
1822 1 2.847710 26.285581 31.536756
1823 1 5.360620 23.991441 31.528518
1824 1 5.253057 26.356201 29.452763
1825 1 3.128379 24.242780 33.333645
1826 1 3.174518 26.812040 35.321363
1827 1 4.957595 24.620156 35.416429
1828 1 5.107602 26.506851 33.406153
1829 1 3.396594 24.874290 37.454061
1830 1 3.614276 26.687245 39.770602
1831 1 5.261458 24.627389 39.771248
1832 1 5.539511 26.700185 37.725792
1833 1 3.363133 24.614780 41.641022
1834 1 3.196512 26.343622 43.719005
1835 1 5.244637 24.556874 43.879860
1836 1 5.197628 26.746285 41.908233
1837 1 3.381588 24.246762 45.709055
1838 1 3.387918 26.526396 47.615847
1839 1 5.434950 24.627698 47.551118
1840 1 5.152202 26.840003 45.632908
1841 1 3.447703 24.436009 49.478375
1842 1 3.657888 26.699700 51.804724
1843 1 5.047426 24.413935 51.890454
1844 1 5.291109 26.362984 49.645085
1845 1 3.228489 24.282642 54.106165
1846 1 3.359754 26.515546 55.858685
1847 1 5.489015 24.373445 55.907408
1848 1 5.408636 26.487894 54.036957
1849 1 3.250691 24.583302 57.954990
1850 1 3.591796 26.597340 60.154393
1851 1 5.180820 24.447434 59.900892
1852 1 5.639100 26.582044 58.320877
1853 1 3.838104 24.182389 62.246775
1854 1 3.455204 26.620518 64.002136
1855 1 5.976640 23.919966 64.139467
1856 1 5.478340 26.536966 62.382918
1857 1 4.008529 22.033753 68.194902
1858 1 32.492380 26.616311 68.270162
1859 1 1.802804 22.208605 70.117870
1860 1 3.539192 24.353707 66.212710
1861 1 5.894130 24.166807 67.846107
1862 1 1.956575 23.821822 72.588352
1863 1 5.808567 26.260581 65.642819
1864 1 1.741088 28.207053 68.458337
1865 1 3.840995 20.255059 70.196133
1866 1 31.185174 25.667246 85.914658
1867 1 8.268297 19.392970 82.498252
1868 1 10.115497 20.204144 76.822070
1869 1 3.392399 17.085656 78.200737
1870 1 0.036701 24.276578 81.564510
1871 1 5.518863 22.436265 81.948459
1872 1 10.137133 28.493461 80.027031
1873 1 29.173601 28.464845 83.048848
1874 1 8.124950 21.718621 85.980698
1875 1 12.663394 29.619857 85.521433
1876 1 6.945445 28.901378 86.480761
1877 1 28.823087 27.029636 80.474022
1878 1 32.510864 23.901004 84.088804
1879 1 3.218002 18.752757 76.245214
1880 1 5.621607 26.941928 87.522771
1881 1 6.304331 29.018742 89.621772
1882 1 4.190057 32.684811 97.992923
1883 1 5.427102 21.461652 93.719536
1884 1 1.644270 4.291134 103.228621
1885 1 7.597197 0.274211 94.216325
1886 1 26.360127 21.794084 101.425607
1887 1 3.698834 23.684639 94.999155
1888 1 31.211711 27.352291 87.654390
1889 1 27.029549 30.062956 92.816376
1890 1 3.015299 2.138397 101.707958
1891 1 11.597696 1.681489 92.854286
1892 1 2.293604 21.953315 93.667040
1893 1 31.101995 26.629674 103.355307
1894 1 9.571410 30.119245 112.134840
1895 1 3.334759 24.112198 118.920433
1896 1 0.918484 23.036461 113.079879
1897 1 25.741732 24.296041 100.486552
1898 1 6.578110 3.582148 119.651389
1899 1 7.452776 26.150551 111.004273
1900 1 32.391647 23.620813 103.939852
1901 1 28.593219 30.073222 114.445166
1902 1 27.767260 30.266682 118.509448
1903 1 0.807050 27.713682 107.901439
1904 1 7.806449 27.901954 119.986986
1905 1 8.426220 12.229329 119.198574
1906 1 5.462689 23.454243 120.229589
1907 1 3.535590 20.126453 123.967200
1908 1 27.828930 26.629528 112.268809
1909 1 7.490252 24.670685 127.901898
1910 1 32.150674 20.834121 128.235606
1911 1 3.130295 19.974657 128.446641
1912 1 8.402824 23.774940 119.581273
1913 1 1.394273 26.392498 123.887735
1914 1 3.678570 24.317098 127.573780
1915 1 7.060692 16.253108 124.011222
1916 1 1.275334 28.356737 129.931383
1917 1 7.404787 20.329587 132.094266
1918 1 1.035982 28.983926 134.112474
1919 1 7.210827 26.595028 134.131243
1920 1 5.242822 30.632563 127.870850
1921 1 3.427560 28.674759 1.100895
1922 1 3.280622 30.282925 3.275341
1923 1 5.497984 28.151378 3.502048
1924 1 5.577897 30.284475 1.666334
1925 1 3.755423 28.434768 5.395692
1926 1 3.311033 30.389921 7.625560
1927 1 5.324886 28.336268 7.588868
1928 1 6.048734 30.058321 5.613522
1929 1 3.466824 28.364429 9.736802
1930 1 3.700430 30.491210 11.322954
1931 1 5.469342 28.339704 11.410919
1932 1 5.709321 30.387214 9.762560
1933 1 2.970288 28.399409 13.271765
1934 1 3.449988 29.770185 15.571395
1935 1 5.328216 27.918880 15.306277
1936 1 5.301705 30.642916 13.367931
1937 1 3.470569 28.076443 17.403910
1938 1 3.416803 30.174818 19.646366
1939 1 5.226022 28.416139 19.447849
1940 1 5.461723 30.055005 17.470961
1941 1 3.257381 28.239336 21.570959
1942 1 3.223320 30.326476 23.494964
1943 1 5.200144 28.108382 23.654024
1944 1 5.165769 30.451581 21.850259
1945 1 3.567559 28.387011 25.582234
1946 1 3.525087 30.221672 27.728282
1947 1 5.723288 28.275552 27.697470
1948 1 5.515923 30.318971 25.658663
1949 1 3.366463 28.406048 29.865391
1950 1 3.649713 30.745634 31.367141
1951 1 5.546833 28.549487 31.561705
1952 1 5.298658 30.128242 29.434566
1953 1 3.331389 28.469208 33.094342
1954 1 3.366191 30.979076 35.581077
1955 1 5.383796 28.508395 35.790550
1956 1 5.179405 30.450209 33.636624
1957 1 3.410993 28.654673 37.397778
1958 1 3.510683 30.839097 39.646041
1959 1 5.355038 28.871644 39.305403
1960 1 5.256435 30.829219 37.371711
1961 1 3.326222 28.745312 41.861593
1962 1 3.236795 30.594942 43.766735
1963 1 5.235974 28.720567 43.886750
1964 1 5.118864 30.591277 41.585508
1965 1 3.173892 28.839879 45.803737
1966 1 3.978022 30.774269 47.924622
1967 1 5.318671 28.600341 47.762596
1968 1 5.536470 30.580699 45.699550
1969 1 3.504472 28.511862 49.778594
1970 1 3.874921 30.607170 51.709720
1971 1 5.736022 28.488316 51.710160
1972 1 5.634608 30.483049 49.619145
1973 1 3.472941 28.480034 53.892712
1974 1 3.471832 30.347309 55.930443
1975 1 5.159271 28.212744 56.319692
1976 1 5.657639 30.517738 53.737009
1977 1 3.362526 28.347649 58.148194
1978 1 3.178648 30.655522 60.050033
1979 1 5.148802 28.988620 59.924410
1980 1 5.318193 30.828566 57.952694
1981 1 3.457689 28.410933 62.086253
1982 1 3.351084 30.496489 64.038834
1983 1 5.924852 28.694525 64.110492
1984 1 5.493600 30.324993 62.114203
1985 1 3.983532 28.435331 66.025029
1986 1 28.331101 26.274743 72.674197
1987 1 5.814135 26.268605 70.411459
1988 1 5.570356 30.587290 66.274789
1989 1 32.237241 20.886282 74.457012
1990 1 29.574676 22.704668 91.193170
1991 1 5.871763 18.383314 70.149081
1992 1 26.315323 1.821243 75.162129
1993 1 2.450646 22.979351 82.744313
1994 1 1.592699 28.329121 71.884225
1995 1 12.064738 30.470607 92.547131
1996 1 12.724521 30.285818 74.169626
1997 1 1.722849 31.534172 79.446679
1998 1 3.508095 30.349078 72.021513
1999 1 9.586510 32.676714 67.886959
2000 1 2.164982 23.905194 80.302160
2001 1 8.269004 27.797118 88.493727
2002 1 0.071391 6.324238 93.517293
2003 1 2.824069 1.203039 78.866058
2004 1 2.115609 7.778608 93.021980
2005 1 31.573425 28.705834 76.391452
2006 1 31.854816 2.102293 81.159974
2007 1 8.636386 28.250951 91.248546
2008 1 30.577884 30.628793 74.176580
2009 1 6.405955 13.177662 98.829673
2010 1 2.361170 2.117380 96.494406
2011 1 2.801542 27.921756 106.354745
2012 1 3.944789 28.932899 87.973353
2013 1 0.569622 19.091948 86.973333
2014 1 31.834412 29.057032 92.544293
2015 1 2.968493 32.620001 108.808688
2016 1 31.317368 26.177044 107.070094
2017 1 16.134348 28.940363 100.971099
2018 1 6.951256 27.592824 103.544664
2019 1 7.409023 26.248822 92.869786
2020 1 29.079602 2.711328 109.076961
2021 1 28.397979 3.943642 111.372516
2022 1 7.073356 2.721506 105.458629
2023 1 7.944760 24.927304 89.022532
2024 1 7.627670 10.782300 106.355531
2025 1 31.790863 20.558335 114.069323
2026 1 27.058253 20.244654 114.303287
2027 1 9.161470 19.302320 114.507635
2028 1 9.284282 29.258212 114.857510
2029 1 17.170153 17.383135 117.191506
2030 1 9.597568 30.576806 123.571433
2031 1 1.714676 21.662756 123.691510
2032 1 5.449888 26.543313 98.424235
2033 1 31.453647 32.435819 121.623582
2034 1 3.897848 2.453268 118.776683
2035 1 7.221990 22.432179 125.026037
2036 1 2.870624 24.027914 121.940798
2037 1 2.521678 32.513579 123.237560
2038 1 5.331469 0.002672 125.923204
2039 1 31.955111 24.263685 132.280065
2040 1 30.435635 28.116707 125.625671
2041 1 7.709232 3.201415 124.188630
2042 1 2.970145 24.548394 132.096940
2043 1 30.397800 29.598574 121.401779
2044 1 3.497376 6.130281 130.049736
2045 1 3.214758 26.267671 129.916992
2046 1 1.349846 0.131110 134.447612
2047 1 5.392513 28.383861 134.078311
2048 1 32.108235 30.238021 129.910425
2049 1 7.689213 32.370994 1.402456
2050 1 7.570838 1.984214 3.531383
2051 1 9.684515 32.330092 3.481705
2052 1 9.495402 1.608572 1.324771
2053 1 7.800011 32.555047 5.733702
2054 1 7.442395 1.714537 7.653052
2055 1 10.033859 32.216941 7.803688
2056 1 9.787806 1.583787 5.601621
2057 1 7.605779 32.550016 9.276399
2058 1 7.528991 1.757339 11.366493
2059 1 9.667699 32.387970 11.624405
2060 1 9.941899 1.697428 9.541869
2061 1 7.423045 32.731363 13.519059
2062 1 7.593483 1.833989 15.328898
2063 1 9.678423 32.309515 15.499416
2064 1 9.623178 1.743987 13.650381
2065 1 7.217575 32.270929 17.351013
2066 1 7.306074 1.364772 19.594802
2067 1 9.480862 32.606194 19.447558
2068 1 9.377747 1.579695 17.397517
2069 1 7.380611 32.205015 21.644494
2070 1 7.469522 1.835410 23.377796
2071 1 9.348155 32.556288 23.603648
2072 1 9.351135 1.324918 21.892214
2073 1 7.581883 32.521848 25.404809
2074 1 7.916905 1.921142 27.407709
2075 1 9.625894 32.495484 27.322390
2076 1 9.713712 1.907669 25.605452
2077 1 7.501368 32.143786 29.453922
2078 1 7.615993 1.706126 31.597756
2079 1 9.647632 32.478054 31.400894
2080 1 9.415287 1.697169 29.677179
2081 1 7.557735 32.574895 33.729368
2082 1 7.292174 2.090138 35.752348
2083 1 9.425600 32.486886 35.453134
2084 1 9.617957 1.530813 33.628912
2085 1 7.549916 32.688866 37.463788
2086 1 7.904993 1.814506 39.586312
2087 1 9.650474 32.717388 39.573351
2088 1 9.604088 1.914712 37.393321
2089 1 7.763220 32.600176 41.516959
2090 1 7.916549 1.932950 43.492788
2091 1 9.862274 32.611702 43.460921
2092 1 9.666978 2.107729 41.572929
2093 1 7.655800 32.312559 45.659132
2094 1 7.479103 2.149753 47.967880
2095 1 9.595292 32.648998 47.892769
2096 1 9.454940 1.680385 45.685796
2097 1 7.613475 32.667063 49.977340
2098 1 7.702434 1.960929 51.783590
2099 1 9.527812 32.708352 51.792694
2100 1 9.592225 2.135413 49.860851
2101 1 7.674581 0.043874 53.900008
2102 1 7.589312 2.355198 56.366472
2103 1 9.447916 32.722444 55.879135
2104 1 9.592863 2.324864 53.920128
2105 1 7.437779 32.604894 57.782313
2106 1 7.651141 2.337608 59.872070
2107 1 9.748459 32.435170 59.788519
2108 1 10.047902 2.171893 58.072017
2109 1 7.526104 32.295959 61.838434
2110 1 7.618685 1.990572 63.828024
2111 1 9.553022 32.134851 63.984711
2112 1 9.810480 2.144073 61.908491
2113 1 9.350381 0.319949 72.213213
2114 1 7.179329 1.732820 72.136745
2115 1 9.283060 4.192943 72.216457
2116 1 11.718687 0.334605 65.807130
2117 1 4.819858 2.833464 86.029025
2118 1 5.759770 30.276562 73.664966
2119 1 5.347457 29.025806 76.021690
2120 1 13.569173 26.852406 74.039341
2121 1 27.198907 24.656402 80.346420
2122 1 3.449336 1.932431 71.757132
2123 1 5.832114 28.358279 72.225449
2124 1 10.282941 9.708420 76.346352
2125 1 0.169193 28.846719 73.740928
2126 1 12.946727 3.043832 87.302707
2127 1 3.481979 8.300338 70.301603
2128 1 9.628714 4.435974 77.156438
2129 1 9.459927 0.526932 80.967064
2130 1 3.584222 11.681606 98.011335
2131 1 5.661403 31.129503 87.193424
2132 1 7.562628 28.914876 94.001733
2133 1 2.835490 32.251057 95.630371
2134 1 29.243948 0.579562 88.595280
2135 1 9.177114 8.045654 90.508713
2136 1 7.344098 10.948525 87.837285
2137 1 7.008793 5.743835 92.519910
2138 1 31.803906 31.031765 101.427107
2139 1 7.990244 30.834090 88.211259
2140 1 13.611635 4.306192 85.039625
2141 1 7.025939 11.517316 101.373462
2142 1 10.121196 5.897429 107.463823
2143 1 5.102923 28.561240 101.969107
2144 1 3.071080 7.864908 101.086221
2145 1 9.395729 32.597305 102.985633
2146 1 28.047499 30.441443 106.474237
2147 1 12.602000 29.384875 115.424261
2148 1 6.022566 4.337106 108.373700
2149 1 29.825745 27.840100 115.634490
2150 1 4.827386 25.196916 110.232085
2151 1 8.643175 30.320625 107.792074
2152 1 11.213056 20.727471 99.206405
2153 1 2.738589 21.166039 110.730221
2154 1 9.544853 32.135628 114.460735
2155 1 6.730428 26.889865 116.076208
2156 1 4.504158 26.422571 108.037577
2157 1 12.909931 4.644411 106.329887
2158 1 0.094831 5.415572 110.944359
2159 1 5.402601 28.201187 122.167623
2160 1 8.808668 9.492591 113.187594
2161 1 7.742273 1.760509 121.480837
2162 1 26.399994 3.233090 122.327422
2163 1 5.452352 1.852977 132.116416
2164 1 1.650950 5.814045 120.986406
2165 1 11.527745 5.808852 125.796442
2166 1 3.612208 13.831657 126.593803
2167 1 9.354316 32.731077 134.222559
2168 1 11.239039 11.387515 120.730856
2169 1 7.410498 3.997413 128.140030
2170 1 7.286532 28.836297 132.014932
2171 1 5.079610 32.555602 129.946577
2172 1 11.814329 3.797333 127.823244
2173 1 13.719528 32.654787 133.808923
2174 1 9.583902 28.244877 121.842484
2175 1 7.268930 1.884583 133.999832
2176 1 9.215574 26.638705 132.155999
2177 1 7.580764 3.911912 1.481872
2178 1 7.828592 5.606974 3.780748
2179 1 9.740493 3.422865 3.299132
2180 1 9.315355 6.110755 1.353113
2181 1 7.037171 3.684869 5.930135
2182 1 7.565647 6.063998 7.378534
2183 1 9.591593 3.729498 7.229559
2184 1 9.881826 5.940358 5.496184
2185 1 7.558578 3.833481 9.649541
2186 1 7.425848 6.200913 11.374669
2187 1 9.739900 3.876974 11.313836
2188 1 9.811770 5.541311 9.210045
2189 1 7.707416 3.875859 13.297590
2190 1 7.499170 5.892765 15.311548
2191 1 9.557139 3.678781 15.460968
2192 1 9.569373 6.119891 13.235302
2193 1 7.791442 3.528061 17.506945
2194 1 7.610070 5.602170 19.621859
2195 1 9.606113 3.288486 19.448248
2196 1 9.421861 5.674793 17.255941
2197 1 7.489919 3.680284 21.282342
2198 1 7.624839 5.535818 23.533170
2199 1 9.663017 3.528240 23.371772
2200 1 9.467290 5.735224 21.445159
2201 1 7.400297 3.664962 25.451860
2202 1 7.343048 5.503494 27.470839
2203 1 9.553224 3.962504 27.464213
2204 1 9.326293 5.596208 25.596024
2205 1 7.376982 3.688470 29.563235
2206 1 7.447751 5.822172 31.265404
2207 1 9.694842 3.854303 31.809052
2208 1 9.477507 5.820438 29.455342
2209 1 7.666406 3.924173 33.391775
2210 1 7.358136 5.845923 35.443005
2211 1 9.607471 3.531842 35.505481
2212 1 9.143249 6.075039 33.585316
2213 1 7.457547 4.004279 37.293580
2214 1 7.752105 5.891938 39.169339
2215 1 9.628852 3.878437 39.683641
2216 1 9.393592 5.568163 37.117161
2217 1 7.714299 4.110929 41.876554
2218 1 7.479834 6.106163 43.477259
2219 1 9.787626 4.253712 43.689409
2220 1 9.848199 5.976945 41.622879
2221 1 7.672789 4.386200 45.224113
2222 1 7.785584 5.935884 48.036198
2223 1 9.668777 3.896368 47.371543
2224 1 9.495382 6.152436 45.604969
2225 1 7.842370 3.975190 49.939668
2226 1 7.553467 6.310132 51.871051
2227 1 9.564306 4.086004 51.906188
2228 1 9.735119 6.044091 49.943411
2229 1 7.503834 3.968542 54.161645
2230 1 7.655544 6.294341 55.796219
2231 1 9.692500 4.195699 56.096390
2232 1 9.627022 5.876912 53.948836
2233 1 7.534690 4.480771 57.614979
2234 1 7.400533 5.840687 59.878524
2235 1 9.566906 4.162065 59.946513
2236 1 9.481793 6.328156 58.006301
2237 1 7.362182 4.014256 61.822509
2238 1 7.380545 5.999102 64.281335
2239 1 9.423577 3.888330 63.807534
2240 1 9.366832 6.137215 61.667768
2241 1 7.503354 3.790343 65.879234
2242 1 6.030517 8.052219 72.045770
2243 1 7.538730 4.051185 70.086271
2244 1 5.481227 6.882539 74.412731
2245 1 1.198419 0.305111 67.723439
2246 1 13.196201 8.106851 72.361881
2247 1 5.985662 31.937975 76.390679
2248 1 9.716549 5.632391 74.565946
2249 1 7.809335 31.971884 74.281690
2250 1 1.098955 4.563116 71.922356
2251 1 4.897108 8.041115 85.256234
2252 1 11.466190 5.837412 71.839195
2253 1 28.527064 1.978126 76.973918
2254 1 32.162135 4.213375 74.224147
2255 1 8.743284 10.011058 79.330074
2256 1 8.832732 2.362252 78.977974
2257 1 3.976660 1.530032 82.627127
2258 1 5.120187 2.105319 77.606985
2259 1 15.664103 12.046694 74.337975
2260 1 21.118565 3.484872 91.847198
2261 1 19.730362 6.549106 82.058558
2262 1 6.491210 2.481646 92.459335
2263 1 0.412004 1.134248 91.519284
2264 1 5.265667 2.173844 80.008369
2265 1 10.864516 5.760674 89.599018
2266 1 2.023940 4.457153 94.332175
2267 1 10.332356 12.509834 94.180336
2268 1 6.555832 2.486246 83.986954
2269 1 28.301314 1.018593 96.361701
2270 1 7.950738 2.658131 100.952246
2271 1 13.849641 6.918045 90.552612
2272 1 8.715160 11.491179 103.704853
2273 1 9.584689 6.610666 110.747749
2274 1 30.907931 10.045843 105.748987
2275 1 11.837913 7.589076 109.657714
2276 1 10.531755 5.096226 97.871721
2277 1 4.681411 3.696313 106.231081
2278 1 1.058439 8.224883 114.067749
2279 1 6.766135 1.735965 117.714568
2280 1 7.102605 7.621518 115.521878
2281 1 7.656877 4.706533 110.628580
2282 1 10.363169 11.565901 117.706795
2283 1 5.057809 7.706321 112.750528
2284 1 4.392935 31.454608 110.662133
2285 1 0.621656 7.720130 119.242760
2286 1 3.485366 3.674876 115.051111
2287 1 12.315088 29.976458 112.523636
2288 1 12.687822 13.221815 117.151385
2289 1 6.306919 2.616845 112.368578
2290 1 8.925184 9.781147 115.711863
2291 1 7.087004 31.893404 117.402852
2292 1 2.499331 20.589499 114.547101
2293 1 5.490034 12.046421 125.824814
2294 1 2.990554 11.850618 128.429704
2295 1 4.284738 6.714703 122.057678
2296 1 7.820212 8.573359 123.848481
2297 1 9.437038 1.678411 132.043975
2298 1 14.064955 7.729482 129.942897
2299 1 9.525256 3.610956 130.000933
2300 1 10.997155 7.511405 120.956180
2301 1 11.508386 3.644579 132.150233
2302 1 9.905327 6.150684 127.992561
2303 1 3.505068 1.824573 134.049029
2304 1 15.568644 1.512911 129.656368
2305 1 7.692727 8.080190 1.531395
2306 1 7.637324 10.280934 3.216403
2307 1 9.585883 7.981629 3.448636
2308 1 9.625104 9.997462 1.078780
2309 1 7.836004 8.120242 5.591896
2310 1 7.500787 10.260128 7.273997
2311 1 9.699233 8.106187 7.505855
2312 1 9.665291 10.080818 5.314885
2313 1 7.683257 8.093532 9.131463
2314 1 7.184330 10.243000 11.486138
2315 1 9.877244 7.928540 11.166667
2316 1 9.492926 10.103114 9.219591
2317 1 7.577397 8.121261 13.304379
2318 1 7.516713 10.070754 15.354938
2319 1 9.395848 7.747351 15.353130
2320 1 9.660292 9.910579 13.225586
2321 1 7.628198 7.672457 17.205104
2322 1 7.498292 9.557551 19.397657
2323 1 9.541936 8.067316 19.443575
2324 1 9.297094 9.970335 17.368316
2325 1 7.300303 7.759556 21.416300
2326 1 8.045353 10.085030 23.348225
2327 1 9.186288 7.569254 23.245646
2328 1 9.858266 10.143584 21.332789
2329 1 7.450241 7.590797 25.552460
2330 1 7.309174 9.923630 27.486294
2331 1 9.398852 8.000575 27.402623
2332 1 9.496198 9.917740 25.495589
2333 1 7.355505 7.545834 29.370427
2334 1 7.460520 10.186048 31.406149
2335 1 9.249039 8.029881 31.481633
2336 1 9.720027 10.209144 29.511979
2337 1 7.478251 8.021600 33.380026
2338 1 7.447320 9.997968 35.381180
2339 1 9.733701 8.174787 35.559693
2340 1 9.665465 9.801876 33.633547
2341 1 7.842523 8.057021 37.512027
2342 1 7.722008 9.712771 39.484403
2343 1 9.698109 7.821235 39.534494
2344 1 9.962463 9.788513 37.844215
2345 1 7.674334 7.986389 41.306757
2346 1 7.335924 10.201880 43.678653
2347 1 9.295854 8.313719 43.331662
2348 1 9.621706 10.009607 41.651411
2349 1 7.425426 8.184683 45.632549
2350 1 7.444163 10.490765 47.871941
2351 1 9.463037 7.985339 47.792368
2352 1 9.043911 10.132281 46.036751
2353 1 7.680303 8.225326 49.777530
2354 1 7.782971 10.345550 51.832504
2355 1 9.518486 7.897681 51.964375
2356 1 9.729122 10.231468 49.502874
2357 1 7.679252 8.430167 54.123278
2358 1 8.046325 10.803354 55.807068
2359 1 10.029953 8.502440 55.907059
2360 1 9.721788 10.293411 53.742222
2361 1 7.702549 8.542379 57.473963
2362 1 7.935419 10.187912 59.845054
2363 1 9.643787 8.192461 59.911156
2364 1 9.753583 10.483910 57.887409
2365 1 7.545096 8.298342 61.679659
2366 1 7.631423 10.034392 63.859271
2367 1 9.560608 7.885141 64.442188
2368 1 9.910742 9.890881 62.463629
2369 1 7.358902 8.089412 66.061972
2370 1 31.613730 6.202629 68.163278
2371 1 9.817980 7.979970 71.952435
2372 1 9.771277 10.437772 65.798119
2373 1 7.812883 14.233730 68.149445
2374 1 5.359829 2.077252 73.988266
2375 1 15.963157 10.312519 68.133028
2376 1 7.403145 6.144274 67.726662
2377 1 13.091449 6.355258 83.398517
2378 1 19.390305 7.612153 79.649437
2379 1 0.806549 7.993706 74.808066
2380 1 21.701371 7.681391 76.138823
2381 1 4.322175 1.106766 91.133159
2382 1 14.407535 11.789505 80.405359
2383 1 9.257325 15.328313 79.761480
2384 1 15.558796 31.585019 83.191287
2385 1 9.726129 22.869304 91.481827
2386 1 5.915859 10.069339 91.930622
2387 1 7.023751 4.243071 78.437360
2388 1 2.448375 14.177983 86.846169
2389 1 2.231212 6.144865 83.436130
2390 1 29.274515 25.916283 94.729354
2391 1 31.285586 29.770900 95.697664
2392 1 2.439345 3.394380 91.690607
2393 1 5.406387 6.866874 95.568861
2394 1 32.489686 22.588585 110.401935
2395 1 16.010139 4.892803 105.942980
2396 1 7.977805 21.556785 93.376767
2397 1 1.546362 10.152460 99.886039
2398 1 13.458463 3.735087 98.741888
2399 1 14.084394 4.857282 111.167095
2400 1 6.089113 10.299173 103.740442
2401 1 30.383378 5.959823 112.552355
2402 1 13.891421 13.379873 111.879971
2403 1 29.132415 9.766924 112.109527
2404 1 8.880332 13.003637 110.346879
2405 1 9.591928 6.825191 114.824960
2406 1 2.944733 6.447703 114.528261
2407 1 11.423257 11.866659 109.642017
2408 1 9.888409 26.353691 100.240705
2409 1 9.892514 29.510978 119.159809
2410 1 27.379049 7.633577 119.126270
2411 1 9.927270 5.209590 117.199341
2412 1 13.704063 3.765363 113.495953
2413 1 15.982165 8.159589 113.242236
2414 1 12.518309 9.625329 119.371525
2415 1 13.711146 7.345220 119.914164
2416 1 5.242632 21.357266 114.183684
2417 1 14.713363 12.585919 119.221018
2418 1 1.000954 18.629613 128.542843
2419 1 3.373672 13.921908 114.516490
2420 1 4.853016 15.972277 113.910932
2421 1 8.090678 10.209410 126.178569
2422 1 31.043279 9.468539 119.228142
2423 1 7.287122 13.959760 126.468285
2424 1 3.354053 13.010850 122.001234
2425 1 9.732333 7.997859 130.070588
2426 1 7.653560 14.246123 130.111427
2427 1 11.085245 3.845502 124.098849
2428 1 5.800701 12.319064 118.333838
2429 1 11.796311 6.081943 129.992668
2430 1 3.588762 4.011896 127.995958
2431 1 14.468875 5.371940 132.330551
2432 1 11.622258 13.995304 129.889715
2433 1 7.379013 12.293361 1.699562
2434 1 7.893154 14.210608 3.476863
2435 1 9.997950 11.815579 2.921154
2436 1 9.084117 14.094800 1.221555
2437 1 7.343974 12.197872 5.042291
2438 1 7.546996 13.937613 7.103699
2439 1 9.548428 12.303405 7.062953
2440 1 9.788730 14.526968 5.188642
2441 1 7.598154 12.194717 9.451452
2442 1 7.303336 13.985988 11.442219
2443 1 9.321451 11.916308 11.602213
2444 1 9.570769 13.908487 9.124837
2445 1 7.232856 11.990594 13.412568
2446 1 7.257771 14.043227 15.338423
2447 1 9.291656 12.107241 15.275242
2448 1 9.255134 14.097824 13.687529
2449 1 7.468113 12.173145 17.413334
2450 1 7.717736 14.136477 19.586659
2451 1 9.569810 12.018831 19.468634
2452 1 9.484342 14.220593 17.482995
2453 1 7.447849 12.108054 21.488590
2454 1 7.269314 13.800504 23.506425
2455 1 9.350097 12.213122 23.561347
2456 1 9.657633 13.959876 21.395911
2457 1 7.307800 11.891342 25.409011
2458 1 7.419449 14.159450 27.782852
2459 1 9.488590 11.867795 27.288893
2460 1 9.207936 14.031333 25.730505
2461 1 7.813598 12.199732 29.404341
2462 1 7.587050 13.886980 31.672373
2463 1 9.546009 11.640040 31.652278
2464 1 9.447006 14.232548 29.478423
2465 1 7.530778 11.795942 33.366109
2466 1 7.404032 13.981564 35.839398
2467 1 9.078039 12.258282 35.354860
2468 1 9.539953 14.251141 33.751762
2469 1 7.747291 11.409304 37.488350
2470 1 7.316128 14.377941 39.531582
2471 1 9.414183 12.010401 39.695872
2472 1 9.626438 14.283460 37.719448
2473 1 7.291552 12.271691 41.610412
2474 1 7.518748 14.280584 43.734944
2475 1 9.501105 12.187951 43.727981
2476 1 9.306724 14.404810 41.608221
2477 1 7.538707 12.460969 45.441617
2478 1 7.364049 14.282625 47.420372
2479 1 9.465481 12.308375 47.253437
2480 1 9.429317 14.523940 45.840865
2481 1 7.715461 12.543827 49.583531
2482 1 7.614233 14.249074 51.962364
2483 1 9.696980 12.327866 51.638287
2484 1 9.642295 14.155812 49.773021
2485 1 7.625696 12.770647 53.896715
2486 1 7.703380 14.749653 55.758257
2487 1 9.838843 12.667117 56.043549
2488 1 9.540315 14.628848 53.846149
2489 1 7.579133 12.868751 58.000564
2490 1 7.688124 14.552758 60.108347
2491 1 9.736921 12.454468 60.131507
2492 1 9.949386 14.465049 57.897773
2493 1 7.695014 12.105304 61.803878
2494 1 7.796760 14.402850 64.018289
2495 1 9.656276 12.268276 63.889700
2496 1 9.852908 14.790302 62.184969
2497 1 7.552695 12.477983 66.175128
2498 1 9.794304 10.270931 69.576110
2499 1 5.715076 10.403469 66.169792
2500 1 9.724961 14.009479 65.748428
2501 1 7.788339 10.247668 67.822740
2502 1 5.846129 10.075209 70.021599
2503 1 7.824053 8.103353 69.991203
2504 1 13.723598 17.915465 70.157671
2505 1 9.311803 3.948555 68.028768
2506 1 13.950411 12.382769 71.839496
2507 1 11.991948 16.088575 70.300258
2508 1 13.400175 6.357336 70.295686
2509 1 7.266571 9.800222 77.229991
2510 1 1.914658 8.394187 72.546441
2511 1 17.005047 5.062693 85.311459
2512 1 12.624696 22.189464 76.405050
2513 1 19.646173 10.635417 76.593320
2514 1 27.511760 13.163755 107.070454
2515 1 8.299420 10.559909 94.798718
2516 1 4.679620 10.211963 78.708643
2517 1 6.780881 9.287436 89.822229
2518 1 30.115836 7.038440 88.565269
2519 1 21.175515 8.997941 92.797614
2520 1 10.991719 6.425180 85.641045
2521 1 11.489143 14.677894 98.093738
2522 1 10.177755 11.820686 97.276060
2523 1 4.661849 9.233166 96.838362
2524 1 9.949785 12.069337 88.255581
2525 1 0.713166 19.330441 112.237668
2526 1 3.458584 12.823388 108.424358
2527 1 11.234007 8.554988 102.097453
2528 1 7.086148 18.702627 108.424139
2529 1 16.092134 4.348827 98.467394
2530 1 4.025430 18.419038 99.417035
2531 1 12.826949 10.622868 102.941295
2532 1 32.153719 14.333595 103.247993
2533 1 23.580467 6.416269 111.856193
2534 1 6.395222 15.836944 104.848144
2535 1 17.697091 9.727133 106.908606
2536 1 8.367601 16.961018 113.404207
2537 1 3.833993 18.175230 109.932395
2538 1 2.379378 18.804324 116.758266
2539 1 20.651839 10.197651 117.787373
2540 1 12.008888 5.882117 116.013161
2541 1 3.314145 18.882360 112.501863
2542 1 13.564773 21.150324 117.338636
2543 1 14.584945 24.966200 113.661549
2544 1 17.928530 3.768540 129.749862
2545 1 9.097102 13.714694 121.474274
2546 1 17.466069 26.164840 116.730400
2547 1 17.779133 10.590755 116.929145
2548 1 11.642570 18.243088 125.723748
2549 1 14.530113 17.771405 118.116280
2550 1 7.297909 12.487193 123.749072
2551 1 9.543805 12.178764 130.001241
2552 1 15.614537 5.536871 125.739434
2553 1 5.712872 10.228726 128.263803
2554 1 9.657472 10.027933 132.004951
2555 1 12.430731 6.827198 132.455392
2556 1 12.167067 10.653425 123.695821
2557 1 5.645671 14.302940 132.034412
2558 1 9.635108 16.298750 134.065648
2559 1 7.699393 16.066614 128.152242
2560 1 7.344301 14.151753 134.033756
2561 1 7.112268 15.666246 1.377210
2562 1 7.452544 18.097666 2.867246
2563 1 9.507348 16.231661 3.287827
2564 1 9.600993 17.947766 1.101213
2565 1 7.508145 16.072472 5.154822
2566 1 7.643488 18.113341 7.310439
2567 1 9.405275 16.010616 7.194814
2568 1 9.245005 18.261323 5.086920
2569 1 7.533859 15.766201 9.276926
2570 1 7.526784 17.857355 11.236093
2571 1 9.219639 15.933810 11.307265
2572 1 9.644363 18.229109 9.395907
2573 1 7.276959 16.014744 13.300575
2574 1 7.418157 18.080718 15.478904
2575 1 9.565640 16.359322 15.634740
2576 1 9.547520 18.346827 13.602763
2577 1 7.477025 16.188689 17.625521
2578 1 7.352740 17.953544 19.553040
2579 1 9.386076 15.836564 19.688718
2580 1 9.372351 18.209674 17.434431
2581 1 7.608040 16.008789 21.636482
2582 1 7.598418 17.891803 23.796574
2583 1 9.719247 15.863550 23.702629
2584 1 9.732099 17.892108 21.545943
2585 1 7.505259 16.134530 25.935655
2586 1 7.054136 17.999951 27.746981
2587 1 9.599351 16.178601 27.443065
2588 1 9.931604 18.115411 25.770970
2589 1 7.864543 16.236642 29.677155
2590 1 7.164238 18.297313 31.623671
2591 1 9.273822 16.473772 31.912713
2592 1 9.483894 18.401814 29.545191
2593 1 7.162397 16.004601 33.750688
2594 1 7.515019 18.191541 35.675205
2595 1 9.322851 16.091070 35.778754
2596 1 9.481176 18.471311 33.609034
2597 1 7.191266 16.390651 37.567495
2598 1 7.556624 18.584466 40.176917
2599 1 9.399576 16.451462 39.378812
2600 1 9.495555 18.436748 37.814312
2601 1 7.371619 16.278361 41.414236
2602 1 7.587440 18.394821 43.623697
2603 1 9.368784 16.564146 43.353637
2604 1 9.762446 18.575147 41.680051
2605 1 7.369693 16.398334 45.884960
2606 1 7.363292 18.402233 47.721586
2607 1 9.619436 16.197186 47.632482
2608 1 9.339361 18.365972 45.499440
2609 1 7.395424 16.329305 50.022817
2610 1 7.634989 18.692933 52.084772
2611 1 9.382956 16.427394 51.743670
2612 1 9.367400 18.021745 49.471306
2613 1 7.634200 16.574124 53.797596
2614 1 7.678180 18.618444 55.648576
2615 1 9.639450 16.728602 55.802858
2616 1 9.760141 18.579816 53.734849
2617 1 8.009510 16.285400 57.968954
2618 1 7.757136 18.556269 60.146413
2619 1 9.978662 16.103577 59.794355
2620 1 9.563549 18.454922 57.835267
2621 1 7.506376 16.609597 61.893351
2622 1 8.063330 18.394786 64.134095
2623 1 9.828539 16.303735 64.376602
2624 1 9.847219 17.984338 61.890721
2625 1 9.999595 14.388641 69.950188
2626 1 11.342734 14.318141 72.123708
2627 1 6.044153 14.093031 70.337903
2628 1 9.815047 18.217409 66.043149
2629 1 7.772392 13.982689 72.180177
2630 1 5.195354 14.694003 74.450174
2631 1 10.032251 13.588117 74.360802
2632 1 15.789764 16.475808 65.894729
2633 1 15.112344 17.050458 76.464255
2634 1 5.224909 4.659073 76.296506
2635 1 11.764833 12.369606 76.185766
2636 1 15.710621 20.313460 69.968564
2637 1 7.574722 17.928282 72.227547
2638 1 1.585876 20.412377 81.906957
2639 1 9.892435 12.882875 78.562669
2640 1 10.076700 14.816281 76.962889
2641 1 12.174506 10.952284 79.117997
2642 1 3.943936 12.674095 79.766455
2643 1 8.843916 19.470258 88.005408
2644 1 14.953947 28.623026 86.448002
2645 1 8.044024 5.142934 86.671180
2646 1 30.787481 9.623634 84.417392
2647 1 10.417684 23.532334 101.070862
2648 1 5.509859 16.866974 84.409487
2649 1 5.361181 21.319483 90.353246
2650 1 8.756259 9.028270 81.629085
2651 1 5.106509 9.685860 99.183515
2652 1 9.368122 9.839945 92.645118
2653 1 31.830138 14.128664 98.340920
2654 1 8.172503 9.028293 101.382734
2655 1 5.904289 25.158980 103.247711
2656 1 4.940574 18.921626 94.955239
2657 1 2.126150 17.421514 102.480846
2658 1 0.082933 12.084591 104.610584
2659 1 12.801781 9.968800 100.556768
2660 1 13.062701 13.824502 103.573506
2661 1 8.407013 12.401727 112.905182
2662 1 10.401286 15.783445 103.826747
2663 1 8.392393 21.895179 108.385205
2664 1 5.756187 16.353989 107.808353
2665 1 8.669107 16.497328 99.066781
2666 1 8.663552 14.983930 106.007673
2667 1 20.832811 27.331260 111.185332
2668 1 10.785566 22.526284 107.101202
2669 1 11.473432 24.584743 119.509415
2670 1 6.266956 19.476474 120.700911
2671 1 3.332105 15.343277 109.164478
2672 1 16.815822 19.860676 118.902800
2673 1 11.854057 24.926310 113.879941
2674 1 31.924433 26.052116 126.335494
2675 1 3.292816 15.802203 123.968933
2676 1 13.157932 26.222132 123.753315
2677 1 1.193642 13.937856 111.353598
2678 1 9.352454 16.260462 125.945300
2679 1 1.094719 15.475027 126.365495
2680 1 7.508373 13.721802 114.862486
2681 1 11.719363 18.099559 130.357963
2682 1 9.710383 17.947985 123.582333
2683 1 5.251589 20.494896 134.213542
2684 1 9.572346 20.499294 126.073089
2685 1 7.562049 12.269059 132.214363
2686 1 5.724465 16.401012 134.022513
2687 1 7.675877 18.374053 134.314147
2688 1 5.506569 22.655528 127.439884
2689 1 7.409107 20.419189 1.613837
2690 1 7.790115 22.876849 3.247926
2691 1 9.707839 20.375004 3.405329
2692 1 9.301130 22.108010 0.950158
2693 1 7.299122 20.330890 5.043785
2694 1 7.066468 22.307895 7.535346
2695 1 9.243640 20.429017 6.850240
2696 1 9.780128 22.307659 5.092739
2697 1 7.572494 20.033463 9.148517
2698 1 7.729634 22.023903 11.357510
2699 1 9.669758 20.105226 11.324153
2700 1 9.344444 22.105889 9.159171
2701 1 7.492629 20.211240 13.299688
2702 1 7.390638 22.308777 15.352961
2703 1 9.566410 20.240633 15.872285
2704 1 9.315126 22.446456 13.434535
2705 1 7.440309 20.170542 17.545321
2706 1 7.403968 22.091974 19.267102
2707 1 9.226037 20.040626 19.498865
2708 1 9.618174 22.178698 17.547961
2709 1 7.596956 20.214740 21.799949
2710 1 7.454932 22.179364 23.874818
2711 1 9.406638 19.933435 23.951765
2712 1 9.229189 22.555965 21.839765
2713 1 7.301057 19.863659 25.701185
2714 1 7.374952 22.177619 27.413625
2715 1 9.258445 20.610080 27.681226
2716 1 9.507902 22.204397 25.626579
2717 1 7.469692 20.246174 29.764193
2718 1 7.832829 21.995701 31.728956
2719 1 9.427143 19.931680 31.565260
2720 1 9.689500 22.675883 29.586231
2721 1 7.389369 20.423564 34.214141
2722 1 7.244614 22.897105 35.946602
2723 1 9.890424 20.357370 35.625948
2724 1 9.385396 21.997053 33.804010
2725 1 7.359741 20.461243 37.264806
2726 1 7.329731 22.629584 39.842383
2727 1 9.424090 20.400011 39.446627
2728 1 9.336724 22.575903 37.837173
2729 1 7.767392 20.640423 41.804810
2730 1 7.602770 22.385568 43.713995
2731 1 9.908867 20.355419 43.664198
2732 1 9.508418 22.901424 41.747918
2733 1 7.338526 20.443346 45.380631
2734 1 7.612160 22.630107 47.589076
2735 1 9.333938 20.528820 47.516906
2736 1 9.405731 22.690935 45.665793
2737 1 7.670684 20.549196 50.040319
2738 1 7.172005 22.672060 51.860918
2739 1 9.912849 20.330201 51.820632
2740 1 9.456888 22.452731 49.487919
2741 1 7.629231 20.622867 53.922252
2742 1 7.678690 22.751516 55.576395
2743 1 9.726535 20.748567 55.614597
2744 1 9.625181 22.733983 53.559601
2745 1 7.509639 20.551748 57.747082
2746 1 7.281309 22.493829 59.785145
2747 1 9.723117 20.663904 59.896379
2748 1 9.991139 22.060889 57.591048
2749 1 7.456847 20.487502 61.581790
2750 1 7.876075 22.042594 63.884452
2751 1 9.916998 20.104498 63.728865
2752 1 9.702899 22.474417 61.894237
2753 1 5.893441 21.891142 66.187079
2754 1 10.073825 31.000066 73.610608
2755 1 12.329695 22.284823 68.452116
2756 1 8.091194 20.344392 66.034935
2757 1 7.881120 16.187949 66.148867
2758 1 3.121973 16.348996 74.375854
2759 1 7.993470 22.265394 68.214430
2760 1 3.776482 24.363670 69.812908
2761 1 5.954803 18.447829 66.081886
2762 1 9.808776 12.342410 71.608882
2763 1 2.028149 26.919483 78.647571
2764 1 9.530259 16.292840 72.328386
2765 1 5.532847 16.078793 67.784906
2766 1 9.893461 18.075978 80.774642
2767 1 31.672156 22.319834 80.586185
2768 1 1.686510 16.498701 72.072891
2769 1 3.884984 21.048622 79.392293
2770 1 3.577709 20.933359 83.856267
2771 1 6.393578 17.425562 80.559919
2772 1 11.223966 26.783103 83.900778
2773 1 31.974811 4.560701 87.285318
2774 1 10.065155 17.331374 86.951816
2775 1 1.986999 22.460027 74.715924
2776 1 12.705772 11.155414 74.151455
2777 1 9.964490 28.195098 96.176962
2778 1 12.553564 26.442214 88.126748
2779 1 9.897171 21.175750 84.066261
2780 1 8.276848 20.684054 90.713086
2781 1 32.368483 14.605831 94.569795
2782 1 3.557087 21.760837 99.141583
2783 1 6.271958 12.666009 104.668748
2784 1 2.268969 24.090071 85.743947
2785 1 13.714935 12.582734 108.020777
2786 1 7.519005 0.166037 106.741400
2787 1 8.435009 25.977339 104.982001
2788 1 17.192997 22.356553 94.719470
2789 1 12.225722 16.058760 111.691870
2790 1 2.352616 24.497632 102.814103
2791 1 6.575314 18.365002 103.981746
2792 1 4.443007 28.272500 94.708309
2793 1 6.252387 12.150643 110.877602
2794 1 18.014493 23.770563 109.358854
2795 1 17.565378 25.445847 114.240726
2796 1 9.155784 25.534405 109.339267
2797 1 10.956110 21.222048 102.049510
2798 1 12.607149 19.310955 118.815398
2799 1 17.626814 28.893586 117.112680
2800 1 9.874231 23.217077 117.576424
2801 1 10.979460 17.378775 117.748521
2802 1 11.446668 13.816052 125.583483
2803 1 11.190331 13.663756 119.709325
2804 1 5.242073 29.716455 116.032943
2805 1 5.768625 16.109506 126.375597
2806 1 31.838732 22.171387 124.862322
2807 1 9.338613 9.505039 119.767999
2808 1 9.879874 20.513294 117.975242
2809 1 11.305895 13.584183 122.831995
2810 1 3.476310 22.601589 133.966315
2811 1 9.553427 20.300305 133.971564
2812 1 11.448289 26.102462 126.087972
2813 1 5.046751 26.223611 131.807181
2814 1 1.425051 22.219220 132.038523
2815 1 3.213380 16.151847 132.350358
2816 1 9.412321 22.617156 128.169200
2817 1 7.292276 24.469811 1.185399
2818 1 7.486951 26.031747 3.637903
2819 1 10.077096 23.994430 3.239369
2820 1 9.532365 26.320182 1.660449
2821 1 7.629364 24.171069 5.679999
2822 1 7.790738 26.726281 7.678947
2823 1 9.479001 24.436892 7.621652
2824 1 9.675792 26.200847 5.643370
2825 1 7.542796 24.165317 9.615125
2826 1 7.749862 26.297913 11.602164
2827 1 9.739293 24.307810 11.559593
2828 1 9.505387 26.698237 9.751114
2829 1 7.473643 24.414738 13.338419
2830 1 7.437285 26.236914 15.530148
2831 1 9.232794 24.182412 15.633968
2832 1 9.757852 26.368823 13.770207
2833 1 7.373469 24.193165 17.472943
2834 1 7.290372 26.273952 19.616605
2835 1 9.289873 24.229984 19.526455
2836 1 9.117764 26.378946 17.961234
2837 1 7.091070 24.219399 21.570423
2838 1 7.513439 26.809944 23.741962
2839 1 9.458474 24.371832 23.963899
2840 1 9.198437 26.285955 21.500907
2841 1 7.186836 24.558163 25.714326
2842 1 7.480822 26.339426 27.429213
2843 1 9.209300 24.199992 27.609235
2844 1 9.549114 26.430889 25.631070
2845 1 7.206120 23.994778 29.536551
2846 1 7.237641 26.109998 31.674313
2847 1 9.363553 24.277405 31.775278
2848 1 9.297066 26.538341 29.512326
2849 1 7.247597 24.206755 33.672294
2850 1 7.225955 26.486268 35.298515
2851 1 9.538540 24.402698 35.676193
2852 1 9.406499 26.272193 33.671906
2853 1 7.486293 24.750631 37.764380
2854 1 7.288135 26.771693 39.617232
2855 1 9.484322 24.578408 39.625902
2856 1 9.407915 26.457047 37.450981
2857 1 7.116585 24.850220 41.943562
2858 1 7.205878 26.999419 43.713414
2859 1 9.365399 24.857034 43.732189
2860 1 9.358658 26.876384 41.744057
2861 1 7.444914 24.723287 45.553216
2862 1 7.266793 26.954157 47.456365
2863 1 9.464766 24.971124 47.446783
2864 1 9.356294 27.030272 45.557600
2865 1 7.476307 24.784141 49.457795
2866 1 7.322123 26.534606 51.635965
2867 1 9.492188 24.469869 51.518502
2868 1 9.518086 26.644427 49.324756
2869 1 7.493187 24.610590 53.724574
2870 1 7.380251 26.685389 55.803939
2871 1 9.502779 24.578847 55.715676
2872 1 9.582632 26.552633 53.511574
2873 1 7.505010 24.614084 58.193374
2874 1 7.716863 26.335282 60.041965
2875 1 9.589872 24.041534 59.675946
2876 1 9.516285 26.483370 57.668097
2877 1 7.502725 24.065754 61.587104
2878 1 7.711435 26.564302 63.919922
2879 1 10.050528 24.232284 63.807775
2880 1 9.418615 26.257745 61.888765
2881 1 8.054278 24.504606 65.707126
2882 1 7.805966 28.309066 70.406434
2883 1 7.402441 26.234567 68.040660
2884 1 9.676579 26.479932 70.341665
2885 1 12.171380 20.206614 70.301245
2886 1 3.264709 28.415680 73.740436
2887 1 7.948238 30.371269 68.478401
2888 1 7.887221 30.725817 72.046416
2889 1 9.137391 26.298943 79.601616
2890 1 1.832722 26.440576 81.394531
2891 1 3.681876 25.959150 72.339504
2892 1 9.108929 26.507915 75.169067
2893 1 4.835706 28.254222 82.667538
2894 1 17.383772 29.185403 79.723842
2895 1 5.780866 20.037445 80.544305
2896 1 8.480936 28.935793 73.807282
2897 1 30.970289 22.746993 86.076763
2898 1 4.042170 31.366589 89.502729
2899 1 6.533993 23.896346 86.686002
2900 1 6.275087 21.120693 87.925304
2901 1 7.462856 23.816337 80.200454
2902 1 4.771657 5.166439 89.864774
2903 1 12.285009 32.029558 90.503198
2904 1 3.354515 26.685084 86.332029
2905 1 4.087022 22.525977 87.516259
2906 1 5.870028 1.173472 99.640979
2907 1 4.835343 31.119000 103.062931
2908 1 8.448435 3.872650 91.051904
2909 1 3.989972 4.618912 101.434418
2910 1 14.999166 22.154230 100.212396
2911 1 8.140613 17.516973 106.317061
2912 1 4.647587 20.347429 97.387766
2913 1 27.382849 20.687000 106.242251
2914 1 30.762463 22.853346 114.457375
2915 1 6.596376 20.172279 106.115674
2916 1 16.616605 20.711798 101.954539
2917 1 1.808833 21.934141 105.265496
2918 1 12.540547 20.110881 110.885632
2919 1 10.223036 16.584554 101.449091
2920 1 3.659193 22.794903 101.561189
2921 1 8.530085 22.674229 110.990888
2922 1 3.967825 22.944726 106.961503
2923 1 17.839512 24.184963 106.918041
2924 1 8.208489 10.802078 109.000016
2925 1 11.802555 21.860651 119.133368
2926 1 4.062596 23.179869 104.211424
2927 1 6.307032 18.417272 112.958932
2928 1 13.064906 25.304144 104.129132
2929 1 26.822015 17.754152 117.388506
2930 1 7.357087 32.429871 128.085783
2931 1 4.110833 1.702192 121.389682
2932 1 3.009469 28.419213 123.543544
2933 1 31.101208 25.718968 123.810457
2934 1 9.665878 24.379557 130.342458
2935 1 12.776295 15.570277 119.111158
2936 1 28.232134 21.869460 123.600077
2937 1 13.407549 22.251016 128.024328
2938 1 3.661520 26.723264 125.882796
2939 1 11.371337 22.092723 129.977675
2940 1 7.743443 22.136003 130.141663
2941 1 9.599804 22.129023 132.086900
2942 1 9.406133 24.264910 133.955617
2943 1 11.580427 22.215698 134.154219
2944 1 11.620620 24.246114 132.135494
2945 1 7.919760 28.613364 2.105067
2946 1 7.791094 30.678283 3.581248
2947 1 9.983264 28.065737 3.683349
2948 1 9.629039 30.569435 1.195694
2949 1 7.639505 28.149767 5.132497
2950 1 7.806905 30.271703 7.535663
2951 1 9.747308 28.415547 7.685661
2952 1 9.739421 30.251515 5.453798
2953 1 7.414432 28.493919 9.656707
2954 1 7.441878 30.676640 11.707480
2955 1 9.153857 28.557224 11.943933
2956 1 9.643775 30.271648 9.860005
2957 1 7.204837 28.451274 13.502586
2958 1 7.575008 30.260899 15.516073
2959 1 9.593927 28.409565 15.273860
2960 1 9.276951 30.595978 13.772887
2961 1 7.530335 28.346020 17.368548
2962 1 7.196103 30.217770 19.694794
2963 1 8.843762 28.614071 19.635307
2964 1 9.204428 30.243044 17.678149
2965 1 6.911728 28.162211 21.437019
2966 1 7.293541 30.056329 23.474095
2967 1 9.654401 28.267258 23.416078
2968 1 9.345429 30.493773 21.490573
2969 1 7.717506 28.535862 25.756214
2970 1 7.758171 30.508859 27.340853
2971 1 9.727506 28.410179 27.738038
2972 1 9.526625 30.440400 25.466021
2973 1 7.464438 28.363656 29.511352
2974 1 7.333669 30.371530 31.435899
2975 1 9.671341 28.415602 31.797491
2976 1 9.478263 30.449900 29.629983
2977 1 7.104492 28.540676 33.592289
2978 1 7.104584 30.636039 35.680411
2979 1 9.207536 28.478374 35.394464
2980 1 9.416735 30.566095 33.452253
2981 1 7.548961 28.808135 37.624517
2982 1 7.958046 30.625824 39.396561
2983 1 9.686453 28.281553 39.617190
2984 1 9.613566 30.922725 37.454313
2985 1 7.196701 28.761250 41.308956
2986 1 7.351717 30.580916 43.483471
2987 1 9.583589 28.800149 43.785731
2988 1 9.528113 30.481245 41.533842
2989 1 7.571885 28.863578 45.700563
2990 1 7.743469 30.526384 48.035539
2991 1 9.886801 28.957316 47.850903
2992 1 9.960345 30.597459 45.616813
2993 1 7.657108 28.409326 49.601582
2994 1 7.441507 30.664831 51.983750
2995 1 9.622396 28.529539 51.709681
2996 1 9.277391 30.549981 50.175754
2997 1 7.610037 28.393084 53.767846
2998 1 7.627327 30.646411 55.898827
2999 1 9.671681 28.554416 55.968890
3000 1 9.442379 30.476077 53.825456
3001 1 7.499853 28.378885 58.147937
3002 1 7.346905 30.411427 59.625166
3003 1 9.607074 28.359497 59.777352
3004 1 9.835223 30.611188 57.849234
3005 1 7.854247 28.365683 61.900176
3006 1 7.696687 30.602905 64.114517
3007 1 9.702089 28.548971 64.154688
3008 1 9.762226 30.636411 61.795449
3009 1 7.568411 28.486484 66.290523
3010 1 5.566726 0.190999 68.080421
3011 1 11.832981 2.204279 71.964925
3012 1 10.780411 30.486036 66.185084
3013 1 5.983769 30.887449 81.512509
3014 1 3.242240 2.168731 68.167018
3015 1 5.768826 22.367265 74.319625
3016 1 9.386689 2.032216 70.239271
3017 1 7.636137 27.609165 77.528185
3018 1 3.657942 28.036791 69.990970
3019 1 11.092299 31.866949 78.726046
3020 1 11.210359 2.296042 81.226103
3021 1 11.967099 4.160028 78.397622
3022 1 0.188707 31.065996 76.171160
3023 1 8.844788 22.379826 88.741927
3024 1 13.029237 6.754386 78.602842
3025 1 5.261009 22.401739 85.147402
3026 1 8.596744 4.307542 83.910500
3027 1 3.993562 30.693249 92.667084
3028 1 12.673382 31.421266 87.415819
3029 1 2.531865 4.507922 87.714642
3030 1 3.602110 2.091412 93.682457
3031 1 30.747479 0.892581 95.228002
3032 1 11.051507 30.615683 96.427522
3033 1 18.204958 27.864469 90.224719
3034 1 1.433597 25.064838 90.310002
3035 1 15.152732 8.564167 98.201853
3036 1 15.064904 31.243176 101.120093
3037 1 6.058389 3.898064 99.780481
3038 1 5.591159 0.782148 104.505190
3039 1 11.161143 29.054588 100.815793
3040 1 1.099377 3.513645 105.880745
3041 1 28.819462 1.341195 103.998842
3042 1 6.829726 32.641827 101.967533
3043 1 2.230982 25.789881 114.023447
3044 1 6.818131 31.544254 109.228860
3045 1 22.518767 6.370303 99.320340
3046 1 0.106744 1.845242 104.114144
3047 1 8.142215 30.906040 99.062367
3048 1 3.523069 32.215985 105.481264
3049 1 12.416827 22.581913 104.621317
3050 1 13.067445 25.697043 111.412889
3051 1 13.895783 17.441119 106.888599
3052 1 11.795737 0.896800 115.972168
3053 1 2.477425 26.233617 111.045444
3054 1 8.043174 17.356232 121.655028
3055 1 8.791621 2.919940 119.260273
3056 1 6.510101 31.227315 114.223108
3057 1 1.363437 30.261904 119.785531
3058 1 11.642154 32.359357 124.112256
3059 1 29.006502 0.490939 122.547430
3060 1 5.716680 32.291414 121.737495
3061 1 0.991342 0.439188 126.233286
3062 1 6.628694 25.899961 121.312156
3063 1 30.056030 30.273190 116.776817
3064 1 7.562299 30.264925 121.782058
3065 1 7.279821 30.107850 134.452526
3066 1 3.452844 30.497377 133.961216
3067 1 9.516221 32.273536 130.155825
3068 1 5.789040 3.467785 125.885489
3069 1 3.053540 28.623252 128.314115
3070 1 5.205716 30.470292 131.824811
3071 1 9.394749 28.418115 134.478005
3072 1 7.539863 24.464978 131.911927
3073 1 11.807896 32.403981 1.305961
3074 1 11.704536 1.503347 3.539795
3075 1 14.162544 32.614826 3.167842
3076 1 13.540433 1.928530 1.470316
3077 1 11.748653 32.017128 5.497635
3078 1 11.794472 1.615870 7.351435
3079 1 13.901238 32.340142 7.268475
3080 1 13.752643 1.489615 5.301003
3081 1 11.872815 32.240662 9.416374
3082 1 12.060474 1.544461 11.242497
3083 1 13.678784 31.977825 11.568604
3084 1 14.018882 1.397764 9.556795
3085 1 11.742468 32.274004 13.269002
3086 1 11.566882 1.692885 15.563298
3087 1 13.674189 32.544143 15.712322
3088 1 13.487503 1.741994 13.908549
3089 1 11.390769 32.460336 17.542759
3090 1 12.004672 1.632661 19.633176
3091 1 13.477360 32.303663 19.657772
3092 1 13.790812 1.643992 17.731289
3093 1 11.497554 32.529661 21.487662
3094 1 11.742176 1.809851 23.369536
3095 1 13.774099 32.174441 23.538149
3096 1 13.732908 2.112531 21.507829
3097 1 11.435976 32.445865 25.401550
3098 1 11.419101 1.645662 27.834663
3099 1 13.431960 32.496842 27.240170
3100 1 13.646574 1.568694 25.480666
3101 1 11.809551 32.667405 29.749505
3102 1 11.749205 1.640016 31.693932
3103 1 13.809921 32.453435 31.903108
3104 1 13.872049 2.066055 29.232593
3105 1 11.582791 32.341288 33.828304
3106 1 11.806547 2.187070 34.925391
3107 1 13.497161 32.615106 35.460395
3108 1 14.043342 2.193151 33.654337
3109 1 11.740742 32.600843 37.725279
3110 1 11.617896 1.909283 39.539241
3111 1 13.637822 0.026573 39.650393
3112 1 13.853627 1.908621 37.477371
3113 1 11.524439 32.583367 41.420252
3114 1 11.353639 1.796522 43.446965
3115 1 13.554930 32.718418 43.340600
3116 1 13.314103 2.174478 41.387406
3117 1 11.930049 0.093459 45.581737
3118 1 11.615375 2.120483 47.470957
3119 1 13.854181 0.012315 47.528943
3120 1 13.961373 1.831465 45.466669
3121 1 11.630155 0.045325 50.017143
3122 1 11.471314 1.985626 51.934735
3123 1 13.664303 0.148022 51.879265
3124 1 13.860453 2.142022 49.683114
3125 1 11.389734 0.009345 53.859448
3126 1 11.623350 2.117086 55.887954
3127 1 13.657262 0.019239 56.102473
3128 1 13.518649 1.755681 53.918566
3129 1 11.605147 0.025083 57.798718
3130 1 11.670841 1.796346 60.011880
3131 1 13.579606 32.449173 59.772387
3132 1 13.672357 1.882928 57.985579
3133 1 11.540561 32.617557 61.990974
3134 1 11.784760 1.959476 63.625613
3135 1 13.641187 32.668301 63.967823
3136 1 13.611511 2.455949 61.812525
3137 1 18.089531 0.178101 67.943984
3138 1 13.963972 4.545629 72.612094
3139 1 15.647364 2.346710 68.473034
3140 1 11.613444 4.152909 66.036329
3141 1 9.400739 1.626685 65.628892
3142 1 7.766840 6.214605 72.421513
3143 1 8.908855 2.575795 74.084459
3144 1 15.430176 8.369426 69.638582
3145 1 14.788921 2.072278 74.534953
3146 1 10.578839 6.853120 80.976484
3147 1 15.119968 31.670509 74.452896
3148 1 13.646909 2.459991 70.118921
3149 1 3.189258 31.348450 86.648176
3150 1 14.707781 2.290522 79.144378
3151 1 12.926870 31.135688 83.107997
3152 1 10.443767 31.859228 85.290588
3153 1 10.244841 2.016421 76.630790
3154 1 12.446592 11.077982 95.605270
3155 1 5.065811 0.145274 85.387018
3156 1 18.021724 10.517450 87.238528
3157 1 9.255286 7.285018 87.493735
3158 1 3.385480 4.809615 96.724597
3159 1 15.403905 0.907447 86.616923
3160 1 8.833705 14.289518 93.123035
3161 1 12.128774 31.951445 94.566282
3162 1 19.132311 30.576433 97.463255
3163 1 13.223952 8.339159 96.117546
3164 1 6.051976 6.398610 98.781840
3165 1 15.402416 26.051950 105.468449
3166 1 6.727252 6.598118 101.365012
3167 1 19.656300 1.135710 107.227665
3168 1 21.296792 2.762500 87.204972
3169 1 16.475763 19.205284 97.406867
3170 1 15.132464 1.209344 113.549376
3171 1 14.752121 26.967211 101.723366
3172 1 10.931510 23.642979 98.394278
3173 1 31.229519 30.737105 119.165253
3174 1 11.870427 32.311591 105.022983
3175 1 4.800300 29.530021 105.167688
3176 1 13.539627 30.678989 103.480001
3177 1 9.659804 27.795849 107.586825
3178 1 6.798272 28.691343 113.900445
3179 1 10.068249 29.408455 98.486240
3180 1 11.942811 29.560839 106.915890
3181 1 4.158493 20.391484 105.637416
3182 1 15.909223 14.074487 121.283728
3183 1 13.433992 31.901528 114.219302
3184 1 5.770720 27.798760 110.222810
3185 1 7.861173 5.925699 130.033179
3186 1 11.396946 9.123819 114.880588
3187 1 2.156904 8.420831 116.752388
3188 1 11.077611 27.268667 115.398423
3189 1 18.755152 7.954469 118.327850
3190 1 11.256253 10.143478 126.151715
3191 1 5.179010 20.073029 110.933152
3192 1 12.758749 10.518770 116.695681
3193 1 9.404739 1.238595 128.369442
3194 1 11.605071 32.380208 128.129962
3195 1 21.541280 30.555005 132.126408
3196 1 19.126681 32.540890 123.427752
3197 1 11.937452 30.522776 134.111546
3198 1 7.260027 4.222958 132.188684
3199 1 11.678500 1.560575 134.161927
3200 1 17.727126 32.236660 134.116014
3201 1 11.475206 3.724359 1.676151
3202 1 11.416202 5.881965 3.319888
3203 1 13.583591 3.659447 3.675951
3204 1 13.675953 5.899137 1.314731
3205 1 11.543475 3.798150 5.102283
3206 1 11.828840 5.436360 7.220232
3207 1 13.682348 3.515318 7.518786
3208 1 13.572258 5.955942 5.288959
3209 1 12.084866 3.952866 9.479209
3210 1 11.713305 5.779828 11.335258
3211 1 13.905838 3.853748 11.703858
3212 1 13.609554 6.048026 9.615725
3213 1 11.435812 4.022731 13.736842
3214 1 11.597065 5.952885 15.668190
3215 1 13.476173 3.709291 15.797286
3216 1 13.543920 5.818932 13.804800
3217 1 11.624134 3.499171 17.716407
3218 1 11.445622 5.712178 19.212071
3219 1 13.691296 3.788162 19.395871
3220 1 13.563280 6.263777 17.462336
3221 1 11.554830 3.667359 21.412811
3222 1 11.459538 5.738204 23.665282
3223 1 13.758480 3.820167 23.554853
3224 1 13.334995 5.711249 21.798912
3225 1 11.380245 3.903488 25.581429
3226 1 11.491091 5.791972 27.760985
3227 1 13.389546 4.069499 27.645405
3228 1 13.663812 5.990170 25.383527
3229 1 11.468613 3.849068 29.752999
3230 1 11.507085 6.371802 31.284793
3231 1 13.599864 4.283475 31.287874
3232 1 13.719641 6.142995 29.469858
3233 1 11.946965 4.227108 33.520444
3234 1 11.314103 5.878402 35.507613
3235 1 13.843934 4.064616 35.752173
3236 1 13.630580 6.458302 33.437220
3237 1 11.781448 3.494326 37.265827
3238 1 11.628173 5.626048 39.261063
3239 1 13.661814 3.973070 39.447785
3240 1 13.815540 6.102063 37.601646
3241 1 11.555117 3.993938 41.522611
3242 1 11.606676 6.440096 43.777978
3243 1 13.143113 4.006870 43.564254
3244 1 13.251228 6.075810 41.584141
3245 1 11.472735 4.401963 45.666775
3246 1 11.704423 6.363367 47.870934
3247 1 13.891037 4.427483 47.556170
3248 1 13.383382 6.061927 45.523937
3249 1 11.479801 4.253995 49.741239
3250 1 11.601669 6.081390 51.929308
3251 1 13.589068 3.917763 51.588490
3252 1 13.989396 6.133020 49.667958
3253 1 11.809131 4.051768 53.748772
3254 1 11.684481 6.094679 55.884266
3255 1 13.706125 4.184246 55.847995
3256 1 13.615556 6.383704 53.895106
3257 1 11.559446 4.297091 58.289251
3258 1 11.437238 6.436049 60.060361
3259 1 13.712981 3.865623 59.838628
3260 1 13.597380 6.276707 58.177232
3261 1 11.902448 4.414373 61.785052
3262 1 11.409289 5.887166 64.048347
3263 1 13.755231 4.547280 63.976713
3264 1 13.733932 6.247012 62.091204
3265 1 11.190081 6.146058 68.026943
3266 1 9.335601 5.664500 66.079772
3267 1 13.633777 14.116393 69.660727
3268 1 13.997384 6.095755 66.112741
3269 1 5.341764 6.118929 66.064842
3270 1 7.557662 1.944886 67.924412
3271 1 15.788336 6.107006 68.234105
3272 1 25.831218 4.427382 72.134007
3273 1 16.681608 29.613760 84.778483
3274 1 9.683201 10.939525 73.855209
3275 1 17.353208 4.327911 72.093161
3276 1 8.477513 8.076906 74.412486
3277 1 4.754848 4.167632 82.502443
3278 1 11.503187 2.420432 83.872328
3279 1 14.398726 31.719889 92.114201
3280 1 13.692916 6.418062 74.501936
3281 1 3.922983 6.896812 87.893130
3282 1 9.586692 10.390289 83.976418
3283 1 13.062015 4.874622 93.463589
3284 1 1.362341 6.680848 86.276616
3285 1 4.613467 13.824714 90.349569
3286 1 9.236277 3.890784 88.639125
3287 1 19.744453 4.986643 87.088937
3288 1 2.607363 8.687900 86.748811
3289 1 6.035578 2.765645 102.605852
3290 1 13.293707 3.439784 101.621274
3291 1 19.602951 0.112243 102.342771
3292 1 19.727641 10.181289 102.772686
3293 1 0.422689 6.343020 104.558599
3294 1 5.963967 8.748946 107.652304
3295 1 10.002852 6.551184 104.363217
3296 1 11.044925 4.394162 92.073673
3297 1 11.525571 1.195406 109.505323
3298 1 20.796267 10.362541 105.745092
3299 1 11.584623 26.077239 109.325843
3300 1 8.530782 4.669675 99.304526
3301 1 14.519109 6.137817 104.037980
3302 1 8.072102 12.288687 116.811873
3303 1 9.567969 0.339877 100.610564
3304 1 14.965326 3.761639 108.171918
3305 1 12.433240 28.650380 117.998406
3306 1 17.503647 30.402908 112.766837
3307 1 12.072579 30.006733 121.975998
3308 1 16.501398 31.594981 117.271272
3309 1 22.023000 3.939460 112.080605
3310 1 23.225154 12.558023 110.024772
3311 1 8.692094 7.007434 122.075884
3312 1 11.088173 2.738913 118.089421
3313 1 20.848119 6.000195 107.624458
3314 1 5.694835 10.050623 124.372503
3315 1 12.094272 19.627132 123.206339
3316 1 22.043441 1.736804 122.955845
3317 1 15.282645 6.557048 123.422165
3318 1 15.856109 9.955231 129.799192
3319 1 15.738176 2.146068 134.286225
3320 1 13.016420 15.528820 121.718764
3321 1 13.786072 1.763592 127.972072
3322 1 19.513632 32.253041 132.029281
3323 1 5.438770 32.511435 134.168290
3324 1 15.554201 32.364345 132.042655
3325 1 9.083946 4.209277 122.196538
3326 1 7.758947 6.022523 134.231595
3327 1 9.417225 3.836582 134.157523
3328 1 13.096736 3.813223 134.242877
3329 1 11.503236 8.072902 1.280587
3330 1 11.644948 9.831374 3.379019
3331 1 13.649879 8.216004 3.463138
3332 1 13.947381 10.064083 1.170635
3333 1 11.766529 8.262352 5.644959
3334 1 11.431757 10.151034 7.296624
3335 1 13.520356 7.897977 7.635268
3336 1 13.734115 10.336615 5.553402
3337 1 11.581872 8.243329 9.437535
3338 1 11.863416 9.933098 11.633130
3339 1 13.538017 8.094362 11.419205
3340 1 13.645151 10.435427 9.309326
3341 1 11.382249 7.977258 13.512401
3342 1 11.036981 10.065797 15.346123
3343 1 13.511795 7.945860 15.437247
3344 1 13.525092 9.987635 13.578851
3345 1 11.531762 8.148812 17.185226
3346 1 11.521156 9.964378 19.193175
3347 1 13.869238 7.578297 19.882771
3348 1 13.387408 10.446620 17.475218
3349 1 11.219119 7.750694 21.505133
3350 1 11.301663 10.126078 23.553302
3351 1 13.306621 7.842566 23.476890
3352 1 13.171647 9.818617 21.433018
3353 1 11.433477 7.971824 25.566894
3354 1 11.793078 10.079312 27.589504
3355 1 13.627753 7.813583 27.536325
3356 1 13.717716 9.734387 25.157571
3357 1 11.665247 8.200109 29.493119
3358 1 11.910344 10.099450 31.600510
3359 1 13.758425 8.279880 31.311919
3360 1 13.751262 10.128440 29.387960
3361 1 11.670306 7.975753 33.731976
3362 1 11.726004 10.407433 35.892644
3363 1 13.662313 7.993534 35.677676
3364 1 13.617383 10.137179 33.806930
3365 1 11.691565 8.073731 37.699836
3366 1 11.722840 10.081863 39.699924
3367 1 13.821816 8.067758 39.571526
3368 1 13.763203 10.250700 37.483585
3369 1 11.748167 8.227645 41.556065
3370 1 11.262415 10.372697 43.907352
3371 1 13.485198 8.650220 43.523774
3372 1 13.763122 10.200947 41.564152
3373 1 11.323695 8.342590 45.611877
3374 1 11.621794 9.798832 47.711882
3375 1 13.680687 8.307300 47.662546
3376 1 13.455070 10.152488 45.803288
3377 1 11.671694 7.997479 50.058573
3378 1 11.300918 10.148207 51.762715
3379 1 13.903071 8.217923 51.496442
3380 1 13.481127 9.992972 49.623604
3381 1 11.632223 8.036519 54.045038
3382 1 11.583354 10.403541 56.013505
3383 1 13.547846 8.400977 56.039575
3384 1 13.350525 10.159349 53.629898
3385 1 11.605260 8.086384 57.800853
3386 1 11.806420 10.374151 60.298022
3387 1 13.787112 8.430005 60.061869
3388 1 13.506480 10.028277 57.981452
3389 1 12.065161 8.283140 62.371308
3390 1 12.161793 10.452707 63.909823
3391 1 14.346835 8.446685 63.969498
3392 1 14.187629 10.287759 61.986168
3393 1 12.049882 8.115996 65.576837
3394 1 9.814061 8.257685 67.650208
3395 1 19.846435 8.395020 70.245808
3396 1 13.980178 10.386975 66.179596
3397 1 9.419716 6.055904 69.963952
3398 1 13.967691 16.203460 72.382940
3399 1 13.689292 4.292291 68.171595
3400 1 11.825438 10.225205 67.858187
3401 1 15.815636 2.301892 71.896891
3402 1 10.071102 4.712779 80.128388
3403 1 19.304082 12.719804 85.584468
3404 1 11.841853 5.810712 76.358737
3405 1 12.940082 5.158149 81.003213
3406 1 13.987695 9.182774 79.198942
3407 1 16.368796 14.758485 78.276421
3408 1 12.880420 15.194174 76.554897
3409 1 6.644823 5.015043 80.772649
3410 1 4.624502 14.894820 86.088675
3411 1 25.242291 4.805567 97.802556
3412 1 12.260775 17.108300 84.808442
3413 1 17.605949 6.592509 90.363926
3414 1 7.932630 5.400427 94.858137
3415 1 24.117802 6.935290 101.198575
3416 1 19.782463 5.586691 95.681199
3417 1 23.059101 1.826024 97.245658
3418 1 10.874713 10.008960 89.727443
3419 1 11.594562 6.833219 91.931882
3420 1 24.311599 14.937281 89.653303
3421 1 17.510106 6.890795 98.846441
3422 1 12.804853 9.759124 108.543277
3423 1 19.185016 28.318322 102.235755
3424 1 19.781923 9.951952 98.773518
3425 1 20.785773 6.208986 111.577331
3426 1 3.904328 8.710034 109.575433
3427 1 10.303148 32.329439 98.291606
3428 1 18.036625 2.930143 99.668529
3429 1 11.446636 5.867344 112.912696
3430 1 3.330964 8.363145 105.576096
3431 1 18.633789 4.417824 111.527305
3432 1 18.512903 6.440897 103.467468
3433 1 7.828030 4.802422 115.716404
3434 1 14.241267 7.869695 111.337268
3435 1 11.557381 3.383580 111.612480
3436 1 15.899310 5.488846 113.183452
3437 1 31.488032 32.169189 111.549854
3438 1 13.670095 14.041862 127.832621
3439 1 7.131502 9.790293 117.718038
3440 1 3.783021 11.973460 103.651946
3441 1 9.676973 3.581275 108.781125
3442 1 12.990472 19.136198 115.735853
3443 1 16.024988 2.999927 114.983367
3444 1 18.712787 12.997197 114.382530
3445 1 6.750502 6.498094 118.261307
3446 1 9.372874 5.715413 124.376625
3447 1 15.609088 9.658111 125.764218
3448 1 17.959622 5.866711 128.033797
3449 1 13.612746 8.336188 122.501053
3450 1 12.137874 9.693796 130.089785
3451 1 13.546922 5.981705 127.837961
3452 1 17.780060 7.770581 130.015658
3453 1 9.954345 5.846813 132.115442
3454 1 11.720105 9.843122 133.575973
3455 1 11.423419 5.485104 134.678104
3456 1 11.490372 12.004457 131.607016
3457 1 11.906732 11.761357 1.024372
3458 1 11.620967 14.106369 3.351323
3459 1 13.673263 12.013015 3.192504
3460 1 13.559589 14.024204 1.079492
3461 1 11.683726 11.973554 5.195550
3462 1 11.674363 14.068448 7.396849
3463 1 13.699849 12.250250 7.308081
3464 1 13.720542 14.133849 5.260695
3465 1 11.488762 12.079487 9.224124
3466 1 11.407811 13.871365 11.182751
3467 1 13.542875 12.353361 11.461956
3468 1 13.177380 14.119377 9.245000
3469 1 11.365839 11.990107 13.594745
3470 1 11.069904 14.228937 15.498675
3471 1 13.763627 11.862654 15.591071
3472 1 13.366673 14.156054 13.589378
3473 1 11.014126 12.238162 17.355945
3474 1 11.560268 14.040070 19.669060
3475 1 13.518862 12.039235 19.577254
3476 1 13.373721 13.982262 17.623991
3477 1 11.481160 11.892870 21.526444
3478 1 11.550890 13.806202 23.473438
3479 1 13.457901 12.057390 23.443840
3480 1 13.511550 14.291821 21.368748
3481 1 11.405665 12.345146 25.619099
3482 1 11.372056 14.141976 27.293075
3483 1 13.308428 12.082797 27.621408
3484 1 13.548401 14.443200 25.216201
3485 1 11.367941 12.150837 29.695219
3486 1 11.275654 14.093390 31.656040
3487 1 13.339119 12.257075 31.815977
3488 1 13.331238 13.748772 29.512530
3489 1 11.202396 11.986333 33.857988
3490 1 11.750756 14.088598 35.646245
3491 1 13.808785 12.248539 35.370385
3492 1 13.709677 14.396977 33.359756
3493 1 11.426117 12.186768 37.713738
3494 1 11.726553 14.338551 39.978553
3495 1 13.701768 11.998731 39.586436
3496 1 13.597099 14.121477 37.598146
3497 1 11.404636 12.022199 41.600623
3498 1 11.424659 14.431191 43.808200
3499 1 13.477363 12.115543 43.727563
3500 1 13.682458 14.260388 41.827305
3501 1 11.322536 11.961947 45.652529
3502 1 11.265902 14.096058 47.738147
3503 1 13.373510 11.963491 47.792577
3504 1 13.211765 13.861004 45.806562
3505 1 11.608343 12.100516 49.737551
3506 1 11.423672 14.255523 51.485481
3507 1 13.512463 12.234460 51.575855
3508 1 13.600454 14.262845 49.646985
3509 1 11.438594 12.401246 53.607648
3510 1 11.549798 14.611500 55.691186
3511 1 13.642259 12.142840 55.806463
3512 1 13.576049 14.194418 53.420418
3513 1 11.611793 12.187307 58.288184
3514 1 11.971561 14.093946 60.167140
3515 1 13.957348 12.066794 59.844040
3516 1 13.774816 14.153129 57.686170
3517 1 11.956093 12.273262 62.129576
3518 1 11.822933 14.237213 64.014407
3519 1 14.570270 11.854539 63.909604
3520 1 13.867708 14.282869 62.232689
3521 1 11.982982 12.357686 65.863458
3522 1 11.653775 8.221921 69.640709
3523 1 9.663598 12.365837 67.841201
3524 1 14.216816 14.477147 65.698489
3525 1 15.819460 14.136939 68.046024
3526 1 5.817885 24.633368 75.827637
3527 1 11.948653 18.066084 72.320836
3528 1 11.891687 14.223076 67.890933
3529 1 9.638286 18.354699 74.871315
3530 1 12.144599 19.999739 74.164236
3531 1 18.628328 14.766558 79.853554
3532 1 16.054973 13.984239 72.135803
3533 1 15.495917 9.636539 81.367304
3534 1 11.663766 8.149323 88.132133
3535 1 13.669439 10.653413 76.639624
3536 1 13.056757 19.402528 83.574191
3537 1 18.020840 13.888381 74.365820
3538 1 18.594229 13.460716 98.130142
3539 1 14.423567 8.379106 88.364706
3540 1 18.572165 7.772158 94.930492
3541 1 19.543641 8.675532 87.312899
3542 1 15.751935 15.297626 91.555259
3543 1 5.828331 13.885119 102.454589
3544 1 12.854584 10.762100 87.617660
3545 1 7.062415 8.828877 97.556839
3546 1 6.163265 19.520992 92.019948
3547 1 6.599196 17.581226 87.421655
3548 1 21.090926 2.055635 94.804178
3549 1 8.323349 7.599374 106.068147
3550 1 14.912563 13.497787 105.561893
3551 1 18.672586 11.682591 100.352122
3552 1 10.382998 16.582367 94.714249
3553 1 20.343942 11.265832 88.899921
3554 1 6.064486 17.947948 97.834392
3555 1 9.268256 9.166490 104.300696
3556 1 8.109557 28.867307 109.771878
3557 1 3.053029 3.172925 108.290425
3558 1 13.744627 7.744030 101.791509
3559 1 12.236097 4.962100 109.131580
3560 1 8.490971 21.787723 105.260471
3561 1 2.750608 11.699384 113.440211
3562 1 6.468785 13.172241 107.255977
3563 1 17.896226 15.537544 106.513064
3564 1 13.431328 12.430073 121.383236
3565 1 1.448263 17.076894 110.108853
3566 1 20.037964 12.342104 119.380724
3567 1 23.409374 23.471263 112.428566
3568 1 17.659416 14.264455 127.910075
3569 1 9.234814 14.124875 124.300629
3570 1 9.045222 20.372673 123.007966
3571 1 2.534529 16.097044 115.781467
3572 1 10.790859 14.966494 127.637782
3573 1 17.943880 7.737918 125.872696
3574 1 13.841283 11.977650 125.788123
3575 1 19.867295 22.443064 125.337103
3576 1 8.409242 21.115817 120.075506
3577 1 7.165842 14.752939 112.288739
3578 1 15.914283 5.655112 129.650890
3579 1 5.627407 12.080599 130.336049
3580 1 12.942518 17.972046 120.974680
3581 1 7.581137 18.048006 129.623596
3582 1 9.854254 12.138589 134.308226
3583 1 13.435281 12.033161 133.454175
3584 1 9.638689 10.069696 128.199868
3585 1 11.509747 16.148106 1.517427
3586 1 11.503722 18.188673 3.066521
3587 1 13.550447 15.824381 3.278555
3588 1 13.555718 18.124261 1.516990
3589 1 11.669257 16.461069 5.516309
3590 1 10.889640 18.287512 7.268926
3591 1 13.458160 16.241756 7.560381
3592 1 13.386362 18.018614 4.896137
3593 1 11.369076 16.068477 9.556163
3594 1 11.197704 17.924437 11.690685
3595 1 13.616884 15.930740 11.539541
3596 1 13.518753 18.285453 9.539941
3597 1 11.170015 15.858700 13.351295
3598 1 11.684965 18.014333 15.517502
3599 1 13.437611 16.053033 15.417348
3600 1 13.379076 18.096578 13.471488
3601 1 11.478260 16.157436 17.393672
3602 1 11.344755 18.335483 19.410463
3603 1 13.410795 16.183253 19.391113
3604 1 13.636692 17.874994 17.453469
3605 1 11.758939 16.220059 21.299676
3606 1 11.475350 18.125824 23.611848
3607 1 13.555706 16.504060 23.515452
3608 1 13.650122 18.217604 21.342118
3609 1 11.850251 16.242317 25.443718
3610 1 11.884451 18.395669 27.643987
3611 1 13.742204 15.670382 27.778968
3612 1 13.627249 18.212119 25.641655
3613 1 11.475582 16.116389 29.509810
3614 1 11.406616 18.526848 31.613108
3615 1 13.651694 16.216062 31.458078
3616 1 13.760112 17.680379 29.281685
3617 1 11.315823 16.371203 33.547907
3618 1 11.423377 18.363120 35.633757
3619 1 13.830522 16.324593 35.406967
3620 1 13.526940 18.262616 33.360161
3621 1 11.639160 15.983939 37.764490
3622 1 11.429401 18.527426 39.901054
3623 1 13.233515 16.593488 39.842066
3624 1 13.653485 18.229198 37.566024
3625 1 11.649133 16.428508 42.086458
3626 1 11.654529 18.381752 43.749959
3627 1 13.571395 16.286545 44.226710
3628 1 13.597252 18.520975 41.860768
3629 1 11.617805 16.454115 45.756790
3630 1 11.240611 18.597850 47.754535
3631 1 13.229504 16.338290 47.847745
3632 1 13.673480 18.338150 45.867169
3633 1 11.398621 16.544660 49.907289
3634 1 11.662993 18.318343 51.738545
3635 1 13.909787 16.419518 51.515465
3636 1 13.550906 18.472220 49.490367
3637 1 11.710814 16.313001 53.847536
3638 1 11.801072 18.499404 55.591997
3639 1 13.609763 16.533917 55.605076
3640 1 13.694769 18.403371 53.376813
3641 1 11.817084 16.518484 57.645855
3642 1 11.805514 18.152271 59.614958
3643 1 14.060207 16.004253 60.399918
3644 1 13.789938 18.806132 57.766702
3645 1 11.908918 16.301821 62.092291
3646 1 11.761444 18.321737 63.841215
3647 1 13.905062 16.458326 63.860803
3648 1 13.357983 18.435515 61.547915
3649 1 11.770184 16.498665 65.969267
3650 1 13.769011 16.201300 68.008660
3651 1 19.960267 14.136603 67.732371
3652 1 13.902839 18.372117 66.038171
3653 1 16.203329 17.895228 68.044172
3654 1 11.959072 18.055140 76.326373
3655 1 21.384331 14.616699 74.339923
3656 1 13.924232 19.978740 68.175338
3657 1 15.165212 15.296876 74.595188
3658 1 8.307635 19.975648 70.756001
3659 1 16.490315 19.870179 73.444974
3660 1 7.983164 26.483261 72.368619
3661 1 10.883038 12.329699 83.389057
3662 1 6.818892 14.712280 80.832316
3663 1 9.843274 17.985470 78.017267
3664 1 7.843006 24.275527 70.404604
3665 1 14.604696 12.753269 94.806964
3666 1 8.307182 18.310823 85.209533
3667 1 12.832653 13.114792 81.687343
3668 1 16.202667 23.308192 75.836716
3669 1 2.315410 6.030458 90.643311
3670 1 3.772141 11.885179 92.961252
3671 1 8.963548 14.531959 96.074647
3672 1 9.691018 19.004852 92.770129
3673 1 6.534246 17.496138 90.125024
3674 1 0.753684 21.949317 86.960134
3675 1 4.995063 23.557701 92.127103
3676 1 4.524586 13.195830 82.375816
3677 1 5.123220 23.774397 89.664625
3678 1 13.399349 15.102686 113.818369
3679 1 7.197718 20.278008 96.941877
3680 1 17.156746 24.305432 83.057169
3681 1 4.783001 10.439289 106.007308
3682 1 14.550239 6.326858 108.269943
3683 1 10.236115 16.064377 91.614948
3684 1 8.418393 17.579812 96.379149
3685 1 10.696526 17.124319 106.413215
3686 1 15.149363 19.496736 108.662957
3687 1 6.224220 17.022515 110.634586
3688 1 12.294685 19.861430 107.790296
3689 1 10.136086 9.599452 107.904954
3690 1 17.647162 16.055886 119.290424
3691 1 6.546849 23.818890 108.549217
3692 1 15.521131 10.427873 118.317027
3693 1 10.563922 11.228429 112.362655
3694 1 7.724082 22.697053 122.037330
3695 1 17.551470 16.342220 126.059659
3696 1 7.094378 14.980412 118.700740
3697 1 10.103005 22.779519 113.799847
3698 1 9.940446 18.072025 127.839021
3699 1 17.312323 11.482515 125.134291
3700 1 9.852342 22.805160 124.132113
3701 1 7.401494 12.209080 128.219609
3702 1 27.466956 20.929207 126.120718
3703 1 25.274245 19.254559 125.577941
3704 1 9.565226 16.013562 130.044398
3705 1 18.654004 21.133125 110.994784
3706 1 9.633655 18.137231 131.894799
3707 1 11.610321 15.877149 131.955081
3708 1 15.508758 24.486782 132.185519
3709 1 13.433624 18.468936 132.211741
3710 1 11.561147 18.033655 134.291810
3711 1 11.525424 14.159450 134.214138
3712 1 17.275614 20.208754 125.927741
3713 1 11.344617 20.369587 1.270320
3714 1 11.945291 22.128989 3.425132
3715 1 13.622136 20.061421 3.140477
3716 1 13.775607 22.302277 1.398288
3717 1 11.509896 19.918215 5.162749
3718 1 11.387827 22.251796 7.405417
3719 1 13.204807 19.965617 7.205254
3720 1 13.573523 22.099716 5.356958
3721 1 11.657286 20.525488 9.364240
3722 1 11.631775 22.377582 11.408529
3723 1 13.377989 19.947530 11.596733
3724 1 13.760725 22.075996 9.308896
3725 1 11.509874 20.313491 13.678204
3726 1 11.149603 22.217681 15.616700
3727 1 13.337517 20.161597 15.568383
3728 1 12.990213 22.315907 13.754329
3729 1 11.465674 20.179781 17.495294
3730 1 11.355633 22.148663 19.680096
3731 1 13.307569 19.968922 19.506431
3732 1 13.176692 22.171920 17.605425
3733 1 11.331598 20.204960 21.729472
3734 1 11.401020 22.469157 23.514892
3735 1 13.618840 20.328659 23.668903
3736 1 13.435081 22.017350 21.452985
3737 1 11.745375 20.544219 25.433704
3738 1 11.655221 22.293354 27.597047
3739 1 13.594247 20.407786 27.761394
3740 1 13.614130 22.529574 25.783145
3741 1 11.442825 20.443995 29.527260
3742 1 11.229795 22.250977 31.578945
3743 1 13.714756 20.049292 31.254353
3744 1 13.201727 22.647588 29.786961
3745 1 11.672970 20.336182 33.252143
3746 1 11.670345 22.273423 35.945552
3747 1 13.600884 20.200916 35.442921
3748 1 13.354394 22.275028 33.525718
3749 1 11.375813 20.521444 37.858101
3750 1 11.518545 22.797719 39.750653
3751 1 13.871769 20.443148 39.947009
3752 1 13.536948 22.128380 38.027892
3753 1 11.437249 20.597838 41.375585
3754 1 11.777876 22.441292 44.000596
3755 1 13.510251 20.615056 43.603032
3756 1 13.421560 22.631680 41.636356
3757 1 11.722381 20.452940 45.644851
3758 1 11.475657 22.492178 47.592506
3759 1 14.015661 20.486211 47.808061
3760 1 13.680802 22.347129 45.651729
3761 1 11.689717 20.524706 49.390935
3762 1 11.569530 22.489824 51.352566
3763 1 13.735691 20.469962 51.432789
3764 1 13.756931 22.491988 49.490657
3765 1 11.698033 20.578105 53.500427
3766 1 11.732572 22.331409 55.552750
3767 1 13.708975 20.656306 55.866090
3768 1 13.519613 22.432486 53.670834
3769 1 11.636936 20.106039 57.917225
3770 1 11.621114 22.380353 59.687547
3771 1 13.940244 20.566410 59.741081
3772 1 13.801558 22.734223 58.079494
3773 1 11.753515 20.494767 61.654290
3774 1 11.903296 22.243229 63.942205
3775 1 13.721840 20.639464 63.559234
3776 1 13.878095 22.643208 61.957816
3777 1 11.776210 20.408810 66.114625
3778 1 11.853943 26.866107 71.921459
3779 1 17.577980 20.518716 67.788261
3780 1 13.445141 22.546036 66.314734
3781 1 11.955287 18.147982 67.927214
3782 1 32.106891 0.204329 70.114534
3783 1 14.229857 18.496783 74.384512
3784 1 10.225777 31.015443 69.947886
3785 1 11.656666 25.076274 73.900562
3786 1 7.591451 18.197850 76.796621
3787 1 11.683521 24.323451 70.073658
3788 1 14.107177 21.481296 80.504231
3789 1 7.728404 21.939894 72.306718
3790 1 2.245344 23.348960 88.588121
3791 1 15.253102 19.588909 82.061972
3792 1 7.129584 12.421890 78.597138
3793 1 11.607194 16.603765 79.233343
3794 1 0.854001 17.607993 89.261063
3795 1 6.882937 8.221229 83.195248
3796 1 20.154373 22.645166 71.808740
3797 1 6.507887 7.972576 87.539147
3798 1 8.375336 15.630135 85.282555
3799 1 12.579088 19.176606 78.955514
3800 1 11.402355 20.328404 81.226388
3801 1 10.858140 22.098228 86.996931
3802 1 7.396615 0.222532 97.142618
3803 1 9.806911 27.476097 93.515032
3804 1 3.566627 19.715405 92.255316
3805 1 9.221246 19.543244 103.823197
3806 1 11.073248 23.951049 95.474007
3807 1 9.834356 25.398485 96.964459
3808 1 30.097372 22.353038 88.526758
3809 1 18.546804 25.715602 92.034293
3810 1 6.932775 31.314158 104.489524
3811 1 12.446963 14.703126 91.923261
3812 1 2.486911 24.698148 92.993622
3813 1 9.514803 16.848544 115.892372
3814 1 7.051466 0.844879 114.996538
3815 1 22.167794 15.951945 105.089658
3816 1 4.429231 14.205538 106.489037
3817 1 8.573658 21.002123 101.268809
3818 1 9.042004 18.334429 119.348389
3819 1 9.472891 17.459098 109.024370
3820 1 18.687582 20.122677 105.531660
3821 1 1.061307 25.097337 117.004652
3822 1 9.022972 24.628818 115.682445
3823 1 6.185970 20.398898 123.424949
3824 1 0.839353 22.753644 115.792984
3825 1 4.697436 10.019122 116.652784
3826 1 12.226949 27.225197 121.301548
3827 1 11.287839 15.884883 124.034809
3828 1 19.648767 20.454179 127.246149
3829 1 11.619580 22.228205 126.053092
3830 1 7.647658 20.061162 127.769516
3831 1 13.496645 8.172380 125.721282
3832 1 11.749054 30.361309 125.787159
3833 1 13.180032 22.061254 123.807273
3834 1 11.791641 20.393336 132.062727
3835 1 15.613008 20.252074 132.204957
3836 1 14.238928 0.252861 119.581547
3837 1 15.612958 21.938883 129.639966
3838 1 9.658949 20.132168 130.159529
3839 1 13.947930 20.473978 134.527351
3840 1 17.498302 24.451479 125.378704
3841 1 11.667516 23.974733 1.158695
3842 1 11.831355 25.879501 3.106014
3843 1 14.071551 24.196059 3.551505
3844 1 13.764517 26.536304 1.305227
3845 1 11.779599 24.635607 5.563519
3846 1 12.048257 26.450218 7.486407
3847 1 13.729100 23.948819 7.263937
3848 1 13.665160 26.298477 5.158699
3849 1 11.612954 24.223026 9.299569
3850 1 11.851446 25.946022 11.550066
3851 1 13.830031 23.986756 11.532136
3852 1 13.700594 26.166211 9.453966
3853 1 11.406986 24.250778 14.029423
3854 1 11.625355 26.327312 15.610931
3855 1 13.451683 24.218581 15.970847
3856 1 13.675763 26.336197 13.824912
3857 1 11.194477 24.372209 17.669544
3858 1 11.546446 26.038332 19.496747
3859 1 13.421884 24.234207 19.732640
3860 1 13.453523 26.211895 17.471910
3861 1 11.496630 24.105984 21.460239
3862 1 11.589581 26.069090 23.722535
3863 1 13.563027 24.112502 23.480857
3864 1 13.536742 26.300753 21.414147
3865 1 11.563683 24.217809 25.634713
3866 1 11.458098 26.239397 27.800511
3867 1 13.465754 24.354526 27.686409
3868 1 13.747594 26.279591 25.728383
3869 1 11.277565 24.963170 30.049967
3870 1 11.795698 26.410412 32.055478
3871 1 13.381012 24.129530 31.758139
3872 1 13.632229 26.674040 29.763619
3873 1 11.482785 24.060887 33.748834
3874 1 11.739926 26.437111 35.490602
3875 1 13.441363 24.371428 35.439996
3876 1 13.732060 26.426730 34.007252
3877 1 11.483129 24.585921 37.695737
3878 1 11.623134 26.374168 40.016959
3879 1 13.462015 24.560797 39.322268
3880 1 13.808195 26.549567 37.543633
3881 1 11.375920 24.792122 42.164503
3882 1 11.883852 26.896308 43.741617
3883 1 13.552470 24.671029 43.542799
3884 1 13.508585 26.477518 41.677043
3885 1 11.498471 24.514895 45.626075
3886 1 11.534059 26.778239 47.402710
3887 1 13.690817 24.585497 47.484326
3888 1 13.645715 26.496958 45.638190
3889 1 11.493857 24.559407 49.412719
3890 1 11.501388 26.589088 51.514420
3891 1 13.461146 24.670227 51.833296
3892 1 13.192084 26.538028 49.638849
3893 1 11.613660 24.791856 53.699341
3894 1 11.782984 26.579674 55.617287
3895 1 13.755160 24.424461 55.299726
3896 1 13.431803 26.950155 53.525817
3897 1 11.821447 24.375567 57.223200
3898 1 11.700477 26.585552 59.817487
3899 1 13.743906 24.548193 59.889163
3900 1 13.704518 26.623891 57.930430
3901 1 11.809946 24.652293 61.520987
3902 1 11.770798 26.529382 63.773566
3903 1 13.364176 24.517246 64.101070
3904 1 13.670234 26.568414 61.938719
3905 1 11.619716 24.833471 66.135087
3906 1 12.159981 28.746681 69.890837
3907 1 3.344277 30.488440 75.692771
3908 1 13.877618 24.860676 68.055287
3909 1 12.245487 30.797530 68.334418
3910 1 10.006647 24.369684 72.080483
3911 1 8.480070 31.283575 82.920096
3912 1 8.071559 22.134759 75.965655
3913 1 1.118188 4.478408 76.371960
3914 1 11.013295 28.359760 75.050816
3915 1 7.844271 24.304433 74.247173
3916 1 14.069707 22.649055 73.695176
3917 1 9.248153 12.651575 81.005679
3918 1 7.606880 16.998989 82.912710
3919 1 7.700030 16.455548 74.661916
3920 1 18.647097 25.205037 75.352294
3921 1 31.499465 21.472244 77.538289
3922 1 7.037096 12.216560 82.776506
3923 1 10.628134 14.834592 84.765755
3924 1 7.543896 21.782946 83.491644
3925 1 5.605471 26.708963 84.917363
3926 1 10.492445 12.113462 85.883393
3927 1 10.400188 26.446917 89.348389
3928 1 15.731754 21.310167 90.806043
3929 1 14.804045 24.876550 87.279506
3930 1 2.391003 29.586943 103.893363
3931 1 17.713892 29.960120 95.290154
3932 1 6.303474 29.027736 97.748061
3933 1 7.427046 23.806542 91.388164
3934 1 9.236687 0.394656 109.042577
3935 1 13.354469 22.218104 87.328945
3936 1 0.621848 30.841839 94.204133
3937 1 12.936253 20.328585 93.843199
3938 1 8.165781 22.943406 96.827415
3939 1 16.463703 24.210067 99.324198
3940 1 12.305895 26.685907 99.050860
3941 1 13.077101 27.570534 94.325707
3942 1 1.049589 22.138349 102.432069
3943 1 13.930369 15.707230 97.771280
3944 1 5.468481 21.140167 108.476678
3945 1 20.086925 30.810479 106.534501
3946 1 8.677341 24.130126 106.825525
3947 1 14.965280 20.822373 114.273783
3948 1 12.402854 20.642087 113.532519
3949 1 7.703991 28.230019 123.536457
3950 1 9.342561 1.519203 116.032911
3951 1 21.659840 24.106446 120.848694
3952 1 19.299398 26.615976 104.269762
3953 1 5.855638 25.774094 118.551061
3954 1 10.786968 23.432837 109.573281
3955 1 7.418570 26.602725 126.062088
3956 1 19.122508 21.977953 113.455052
3957 1 13.353808 24.232718 125.671196
3958 1 9.321111 28.686504 130.138989
3959 1 11.578002 28.278148 123.967033
3960 1 10.716604 26.825621 117.852077
3961 1 3.366864 24.363853 124.864612
3962 1 7.379291 26.627435 130.078265
3963 1 9.514104 26.411746 127.934128
3964 1 12.019101 24.158751 122.660633
3965 1 13.522802 24.220233 130.245638
3966 1 11.323446 26.547878 134.570836
3967 1 13.356901 24.533495 134.037494
3968 1 15.410094 26.215603 134.188954
3969 1 11.878889 28.249162 1.410115
3970 1 11.951231 30.369957 3.441789
3971 1 13.943506 28.322043 3.413922
3972 1 13.775180 30.333792 1.522151
3973 1 11.951937 28.098369 5.335962
3974 1 11.501750 30.001756 7.656654
3975 1 13.793341 28.531422 7.474512
3976 1 13.994531 30.085152 5.428029
3977 1 11.609254 28.347598 9.725856
3978 1 11.598648 29.968148 11.810991
3979 1 13.679864 27.977228 11.639893
3980 1 13.474102 30.168754 9.698906
3981 1 11.929421 28.160550 13.827734
3982 1 11.555629 30.148602 15.839250
3983 1 13.719675 28.378925 15.632290
3984 1 13.601054 30.393037 13.841092
3985 1 11.609999 28.420522 17.929272
3986 1 11.225261 30.434731 19.675895
3987 1 13.732786 28.237357 19.732867
3988 1 13.460600 30.253133 17.811266
3989 1 11.366711 28.083214 21.040667
3990 1 11.857681 30.370203 23.381532
3991 1 13.613950 28.257887 23.809259
3992 1 13.711348 30.176937 21.540787
3993 1 11.716437 28.445370 25.569045
3994 1 11.489304 30.415806 27.797917
3995 1 13.523839 28.339060 27.541915
3996 1 13.603911 30.309133 25.569030
3997 1 11.574835 28.354352 29.728323
3998 1 11.669887 30.526953 31.868104
3999 1 13.569152 28.474060 31.893779
4000 1 13.490167 30.479572 29.759128
4001 1 11.326782 28.346483 33.858157
4002 1 11.475290 30.211041 35.685305
4003 1 13.832285 28.468387 35.594988
4004 1 13.574979 30.470216 33.866974
4005 1 11.476503 28.174915 37.448253
4006 1 11.596498 30.619975 39.652782
4007 1 13.292417 28.581447 39.656019
4008 1 13.759301 30.560040 37.483913
4009 1 11.535374 28.609347 41.586566
4010 1 11.734793 30.621095 43.638393
4011 1 14.165359 28.739794 43.954909
4012 1 13.507823 30.575199 41.809038
4013 1 12.245823 28.808622 45.771136
4014 1 11.886249 31.098642 47.816316
4015 1 13.420740 29.169065 48.053698
4016 1 14.043387 30.797802 45.339625
4017 1 11.415901 28.925804 49.929145
4018 1 11.225919 30.912713 51.808755
4019 1 13.253036 29.258056 51.870424
4020 1 13.679771 31.063317 49.750229
4021 1 11.662326 28.784766 53.835137
4022 1 11.760782 30.553210 55.851614
4023 1 13.842619 28.541069 56.019945
4024 1 13.462848 30.861693 53.998301
4025 1 11.746667 28.720576 57.824359
4026 1 11.700388 30.456819 59.928666
4027 1 13.524525 28.866315 60.079277
4028 1 13.720671 30.463964 57.931523
4029 1 11.717872 28.600077 61.995407
4030 1 11.804880 30.607425 63.863299
4031 1 13.923202 28.742928 64.038771
4032 1 13.890839 30.701664 61.963907
4033 1 11.837355 28.014801 66.099553
4034 1 7.588838 32.588987 70.048168
4035 1 13.659937 2.626453 66.270140
4036 1 13.657250 30.767257 66.211158
4037 1 10.070120 28.618318 68.287031
4038 1 5.941574 30.578117 83.956516
4039 1 9.705303 24.205476 68.116028
4040 1 11.111301 2.137702 67.897419
4041 1 1.390643 26.511596 73.760128
4042 1 22.124434 30.988006 79.289365
4043 1 7.193130 1.695730 75.985782
4044 1 15.520819 26.731471 76.299116
4045 1 11.579505 24.659221 78.087374
4046 1 7.853670 24.957728 77.729314
4047 1 16.011462 29.130217 89.198947
4048 1 6.865969 3.405493 88.464323
4049 1 15.211602 31.725492 89.346378
4050 1 13.037601 23.526020 80.777732
4051 1 13.127915 29.178800 88.795806
4052 1 5.203497 1.056643 88.469155
4053 1 5.558048 30.707119 99.564216
4054 1 15.758373 29.580686 93.338586
4055 1 13.014088 3.981604 90.402076
4056 1 9.611785 29.403145 84.893617
4057 1 8.100693 2.363858 95.693301
4058 1 2.281078 8.526951 98.177513
4059 1 10.629894 1.317668 87.305814
4060 1 22.833622 30.261741 93.254535
4061 1 7.321440 23.511524 101.317936
4062 1 8.341412 6.569856 97.133537
4063 1 17.945444 3.223834 95.660838
4064 1 9.363062 31.132611 105.561554
4065 1 15.417122 19.546399 94.961729
4066 1 2.178959 20.747296 95.934604
4067 1 16.442846 19.852302 104.378818
4068 1 29.974833 31.807330 97.352479
4069 1 0.411194 29.208575 105.526543
4070 1 12.484889 28.448888 96.980665
4071 1 9.475115 23.604292 103.662555
4072 1 10.751367 28.051630 104.852878
4073 1 7.368702 26.615672 107.856587
4074 1 8.004167 26.950612 97.857163
4075 1 5.842757 22.552280 110.831984
4076 1 21.178381 20.736412 103.975670
4077 1 12.373770 1.147017 113.334850
4078 1 29.870256 7.293856 120.432578
4079 1 7.656682 23.906201 112.916300
4080 1 8.183611 29.069589 105.397285
4081 1 10.684682 32.468553 121.096273
4082 1 11.444875 1.840556 126.101222
4083 1 10.487542 31.155419 116.721991
4084 1 11.384860 7.326292 118.427500
4085 1 3.793554 25.607171 116.074525
4086 1 9.623916 30.115461 132.414703
4087 1 7.356505 28.541108 127.973608
4088 1 7.196914 1.695682 130.140343
4089 1 9.581666 32.335826 126.246203
4090 1 11.422263 26.549950 130.222636
4091 1 13.233730 26.265121 128.307453
4092 1 13.743422 22.193985 132.359194
4093 1 13.312203 18.134107 127.762582
4094 1 13.700353 28.470265 134.076754
4095 1 11.241495 24.478094 128.036246
4096 1 15.540055 27.910040 127.939558
4097 1 15.736233 32.581591 0.995135
4098 1 15.867449 2.092747 3.341116
4099 1 17.470526 32.325644 3.534931
4100 1 17.578338 1.754861 1.285919
4101 1 15.538838 32.712012 5.484867
4102 1 15.903749 2.055495 7.312895
4103 1 17.660063 32.730417 7.355643
4104 1 17.414141 1.894364 5.267545
4105 1 15.827746 32.260084 9.524599
4106 1 15.614674 1.320948 12.027498
4107 1 18.068863 32.113314 11.606655
4108 1 18.056269 1.897957 9.640866
4109 1 15.826208 32.012247 13.566898
4110 1 15.646051 1.621755 15.719339
4111 1 17.518914 32.231942 15.953406
4112 1 17.549469 1.855192 13.930865
4113 1 15.803614 32.516644 17.820552
4114 1 15.861878 2.178053 19.601790
4115 1 17.816323 32.262578 19.399827
4116 1 17.756989 1.757732 17.620444
4117 1 15.541579 32.525013 21.565069
4118 1 15.606426 1.932198 23.671295
4119 1 17.630065 32.585130 23.602546
4120 1 17.829447 1.461871 21.328728
4121 1 15.720178 32.443937 25.886060
4122 1 15.646310 1.984771 27.510782
4123 1 17.593372 0.177412 27.688527
4124 1 17.524708 2.022848 25.382011
4125 1 15.432842 32.521862 29.714263
4126 1 15.548092 1.967940 31.407513
4127 1 17.880194 32.586764 31.501934
4128 1 17.761163 1.849791 29.704828
4129 1 15.952876 32.725346 33.765399
4130 1 15.818706 2.010590 35.487058
4131 1 17.996519 0.072668 35.218362
4132 1 18.083443 1.850176 33.236425
4133 1 15.564149 32.499211 37.602743
4134 1 15.368558 2.165839 39.511613
4135 1 17.600701 32.675711 39.256194
4136 1 17.695078 2.033133 37.503701
4137 1 15.527028 32.339367 41.254170
4138 1 15.826733 1.657571 43.385966
4139 1 17.928468 0.100190 43.368861
4140 1 17.644050 1.867023 41.656391
4141 1 15.849745 32.694949 45.452967
4142 1 15.933506 2.232095 47.663419
4143 1 17.751976 0.121223 47.980324
4144 1 17.660964 2.000247 45.476340
4145 1 15.721326 0.257874 49.628435
4146 1 15.764807 1.983006 51.762765
4147 1 17.513204 32.611939 51.766294
4148 1 18.080694 2.121054 49.853787
4149 1 15.582113 0.006112 53.878713
4150 1 15.476014 2.131787 55.937915
4151 1 17.465177 0.007607 55.978487
4152 1 17.594368 2.086712 53.858905
4153 1 15.759444 0.022225 57.875087
4154 1 15.744012 2.075170 59.576908
4155 1 17.720394 0.169532 60.041220
4156 1 17.859291 2.015461 57.833928
4157 1 15.469834 0.074776 61.985257
4158 1 15.409327 2.071300 63.776731
4159 1 17.579623 32.581871 63.842964
4160 1 17.282764 2.305720 61.726588
4161 1 15.497287 0.535428 66.124963
4162 1 15.834057 4.205311 66.279780
4163 1 11.741960 3.777386 74.146832
4164 1 21.815082 6.141646 70.662906
4165 1 19.211485 6.297138 72.193350
4166 1 15.985634 1.019803 81.677644
4167 1 12.552431 32.413810 76.390771
4168 1 15.930364 7.994454 66.392107
4169 1 24.602345 3.716680 74.252229
4170 1 17.921947 8.284872 68.128956
4171 1 14.415140 30.937093 70.354945
4172 1 14.604434 3.067588 81.732985
4173 1 19.956478 0.265682 79.972859
4174 1 9.765682 25.485153 91.736214
4175 1 17.053107 30.820805 91.477182
4176 1 19.183744 4.193838 83.661012
4177 1 7.118701 10.280833 85.208453
4178 1 15.218669 3.718388 95.973619
4179 1 10.153444 29.947179 87.139318
4180 1 6.620579 0.563537 82.318844
4181 1 22.616320 11.128766 95.839152
4182 1 20.109315 10.370973 95.270706
4183 1 15.487243 5.919238 88.806445
4184 1 17.522086 0.486981 88.236101
4185 1 13.868544 9.041044 83.683052
4186 1 20.061899 6.883613 99.798319
4187 1 15.789208 2.241047 89.173962
4188 1 16.366596 0.141043 93.535947
4189 1 16.350751 24.921585 96.346428
4190 1 11.244720 31.835145 107.850110
4191 1 20.492901 2.745957 104.838732
4192 1 28.729473 12.111973 93.761780
4193 1 12.375136 7.750015 106.889377
4194 1 15.757506 4.367727 101.054419
4195 1 10.950395 30.080612 103.487582
4196 1 18.671346 9.016720 111.048510
4197 1 9.692631 27.546766 111.087889
4198 1 16.991107 0.288010 111.359152
4199 1 22.479746 31.627672 110.208522
4200 1 16.661674 3.728502 103.551865
4201 1 12.756504 26.890190 106.327042
4202 1 26.356901 30.355394 113.049584
4203 1 13.158599 2.881791 119.967129
4204 1 13.270360 31.814901 117.145394
4205 1 17.517436 28.418476 114.300111
4206 1 12.323475 31.052278 119.334725
4207 1 17.086467 24.548307 104.395881
4208 1 16.495608 25.941586 107.955275
4209 1 9.323964 28.440211 125.689623
4210 1 10.763884 2.537449 121.158447
4211 1 13.727171 3.457506 125.507563
4212 1 19.053727 31.246771 115.692376
4213 1 17.511366 30.089666 127.903262
4214 1 11.886897 8.237440 127.917957
4215 1 19.780549 26.112708 130.019737
4216 1 14.683670 4.882596 121.091351
4217 1 13.720618 3.940550 129.911875
4218 1 11.424087 32.110399 132.317749
4219 1 19.642171 28.013364 132.141471
4220 1 30.026836 30.099795 127.985767
4221 1 15.875551 3.252879 131.449338
4222 1 18.012691 1.742933 131.660866
4223 1 11.609606 28.383911 132.213392
4224 1 26.548414 10.270207 127.378505
4225 1 15.610876 3.902229 1.251388
4226 1 15.990691 5.778419 3.230070
4227 1 17.584143 3.875428 3.176815
4228 1 17.734524 6.093052 1.153273
4229 1 15.457317 4.080977 5.496717
4230 1 15.625944 5.838287 7.476250
4231 1 17.573383 3.833164 7.685473
4232 1 17.671068 5.613154 5.496295
4233 1 15.512239 3.627608 9.457349
4234 1 15.653662 6.007983 11.535106
4235 1 17.499036 3.532505 11.567764
4236 1 17.371813 5.740585 9.570294
4237 1 15.577547 3.849802 13.899980
4238 1 15.714558 6.174814 15.708563
4239 1 17.776991 3.882808 15.290756
4240 1 17.600016 5.871261 13.452552
4241 1 15.602661 3.890852 17.529966
4242 1 15.769493 6.002114 19.927836
4243 1 17.731186 3.683531 19.535423
4244 1 17.679654 5.860225 17.437330
4245 1 15.730300 3.892727 21.521514
4246 1 15.862870 5.831520 23.483642
4247 1 17.682201 3.802297 23.228326
4248 1 17.847279 6.091892 21.681059
4249 1 15.679189 3.981199 25.515894
4250 1 15.717673 5.822504 27.678714
4251 1 17.899818 3.651411 27.478598
4252 1 17.671155 5.896650 25.653051
4253 1 15.662768 3.685424 29.656112
4254 1 15.660999 6.219407 31.626815
4255 1 17.893702 3.746218 31.202476
4256 1 17.540369 5.821642 29.702001
4257 1 15.862475 4.074655 33.077875
4258 1 15.999715 6.401443 35.818300
4259 1 17.758157 4.069819 35.566137
4260 1 17.825036 5.807584 33.615274
4261 1 15.683350 4.074359 37.539208
4262 1 15.869269 5.903844 39.653535
4263 1 17.559832 3.691294 39.518687
4264 1 17.793369 5.948070 37.465040
4265 1 15.268606 3.947485 41.528033
4266 1 15.376647 6.200213 43.411261
4267 1 17.523666 3.937156 43.633515
4268 1 17.625044 5.805626 41.789210
4269 1 15.455726 3.718576 45.305564
4270 1 15.912596 6.090718 47.617352
4271 1 17.915729 3.922070 47.792727
4272 1 17.755225 5.757112 45.854680
4273 1 15.986223 3.909478 49.820144
4274 1 15.925974 6.446753 51.842459
4275 1 17.835440 4.123069 52.108057
4276 1 18.126462 6.264674 49.601489
4277 1 15.435091 4.165186 53.515289
4278 1 15.749254 6.313530 55.935117
4279 1 17.692470 3.865440 55.897875
4280 1 17.619807 6.027122 53.822446
4281 1 15.640539 4.158479 57.948879
4282 1 15.741424 6.087258 60.011568
4283 1 17.838445 3.917382 59.870762
4284 1 17.781130 6.115270 57.834014
4285 1 15.887880 4.325816 61.825677
4286 1 15.975624 6.185049 64.049911
4287 1 17.576162 3.993872 64.069127
4288 1 17.940140 5.923599 61.746031
4289 1 20.535260 10.422482 67.875363
4290 1 17.870314 5.969645 66.215919
4291 1 19.814663 4.176425 65.665913
4292 1 20.030209 7.692688 65.953741
4293 1 19.694528 3.886472 70.074270
4294 1 15.437313 4.575134 70.304985
4295 1 16.908785 1.045841 74.001351
4296 1 27.872332 2.466447 72.564746
4297 1 15.819903 29.117424 74.237722
4298 1 17.980272 10.254087 79.214303
4299 1 21.592902 3.516767 75.046250
4300 1 17.465029 17.161021 79.535334
4301 1 11.626392 3.982720 69.985549
4302 1 24.418377 9.140088 85.180223
4303 1 21.039053 4.046763 81.945982
4304 1 16.762578 13.346902 87.408450
4305 1 29.482203 29.888509 91.626694
4306 1 18.824934 2.393971 86.871478
4307 1 10.703100 3.775525 86.083938
4308 1 31.665659 8.787807 91.215211
4309 1 19.122813 32.723776 95.582581
4310 1 22.139032 4.213521 89.079679
4311 1 4.075850 30.117162 96.960176
4312 1 11.149728 15.496328 81.797523
4313 1 6.160453 4.378737 97.236855
4314 1 18.648733 1.918460 93.589898
4315 1 14.503859 30.134971 95.723192
4316 1 24.452300 9.475681 95.049506
4317 1 19.033499 4.841698 98.430009
4318 1 16.997763 5.652412 96.463886
4319 1 11.850203 2.128508 97.298758
4320 1 20.499777 3.616540 107.417984
4321 1 12.299595 26.038125 101.660198
4322 1 16.103457 3.016048 93.711102
4323 1 3.698154 29.430251 108.515038
4324 1 16.535502 13.342685 96.507318
4325 1 6.250382 29.010651 107.491060
4326 1 13.435588 1.336376 111.262712
4327 1 18.151923 28.973137 104.995184
4328 1 27.821640 32.697063 108.205137
4329 1 21.837758 4.986217 120.960232
4330 1 16.601152 1.294505 119.168402
4331 1 7.607891 21.263941 113.003403
4332 1 13.103506 28.004658 103.474492
4333 1 10.444339 29.692561 109.549132
4334 1 16.390379 7.799157 120.236887
4335 1 20.722797 22.474959 122.789367
4336 1 13.332842 2.987963 122.672696
4337 1 14.143108 29.103468 120.228812
4338 1 31.261439 6.796914 115.187502
4339 1 18.526204 4.654099 114.107082
4340 1 14.064936 0.863350 108.744919
4341 1 11.372862 8.476427 112.229508
4342 1 17.645376 3.424562 126.518179
4343 1 16.226638 7.395924 105.654196
4344 1 11.544466 4.872864 120.409077
4345 1 13.742923 30.125035 124.246241
4346 1 19.853866 5.979245 129.878505
4347 1 22.351816 1.510565 127.611970
4348 1 6.765014 8.653150 120.292273
4349 1 13.787176 1.730035 131.883408
4350 1 15.687902 6.010814 134.470247
4351 1 19.275558 5.931816 133.797313
4352 1 21.745297 5.713106 132.258661
4353 1 15.701986 7.983904 1.723456
4354 1 15.780815 10.446498 3.241813
4355 1 17.688597 7.802500 3.409265
4356 1 17.446562 10.135415 1.193999
4357 1 15.482500 8.200770 5.533185
4358 1 15.399055 10.266676 7.419944
4359 1 18.040172 7.812441 7.781965
4360 1 17.800252 9.606750 5.734407
4361 1 15.717744 8.020413 9.217230
4362 1 15.600058 9.968826 11.544358
4363 1 17.690227 7.871893 11.272034
4364 1 17.345949 10.018233 9.435716
4365 1 15.351689 7.810213 13.536690
4366 1 15.604817 10.056501 15.428493
4367 1 17.821055 8.075034 15.397614
4368 1 17.570369 9.891813 13.442863
4369 1 15.711521 8.025290 17.562069
4370 1 15.444444 9.993883 19.689015
4371 1 17.518992 8.057077 19.616523
4372 1 17.445444 9.978286 17.718593
4373 1 15.648308 8.178008 21.969537
4374 1 15.780798 10.220742 23.405466
4375 1 17.707988 8.039643 23.415962
4376 1 17.569990 10.065319 21.445063
4377 1 15.637943 8.012930 25.578838
4378 1 15.737650 10.308928 27.484905
4379 1 17.589346 7.826954 27.549032
4380 1 17.702278 9.802914 25.524743
4381 1 15.645122 8.279755 29.593530
4382 1 15.652165 10.280541 31.639650
4383 1 17.689717 7.962264 31.833800
4384 1 17.668320 10.032446 29.391598
4385 1 15.621993 8.352930 33.743698
4386 1 15.558062 9.975560 35.773432
4387 1 17.638488 8.148736 35.546786
4388 1 17.826749 9.910464 33.483985
4389 1 15.743835 8.118290 37.738107
4390 1 15.721382 10.246431 39.574589
4391 1 17.542215 7.986441 39.488101
4392 1 17.972559 10.088618 37.625276
4393 1 15.444001 7.843398 41.560480
4394 1 15.796273 10.450499 43.735110
4395 1 17.603224 8.169637 43.880679
4396 1 17.380807 9.720990 41.320217
4397 1 15.179189 7.990255 45.491685
4398 1 15.848720 10.001029 47.256048
4399 1 17.743613 8.116514 47.397595
4400 1 18.087124 10.544352 45.626743
4401 1 15.641756 8.036647 49.434059
4402 1 15.804257 10.156974 51.469552
4403 1 17.952762 8.481655 51.965998
4404 1 17.871025 10.100241 49.551531
4405 1 15.434045 8.285034 53.757539
4406 1 15.607593 10.371962 55.765134
4407 1 17.765944 8.347795 55.305146
4408 1 17.577596 10.539777 53.667168
4409 1 15.536188 8.055716 58.058252
4410 1 15.845020 10.481207 59.767164
4411 1 17.765409 8.420564 59.856817
4412 1 17.912501 9.874716 57.826777
4413 1 15.917254 8.093408 61.784912
4414 1 16.485708 10.152720 64.236007
4415 1 18.071130 7.968807 64.165685
4416 1 18.148934 9.955989 61.824422
4417 1 13.611452 7.940626 67.836351
4418 1 18.076535 10.109325 66.107795
4419 1 24.086914 8.202728 65.640113
4420 1 15.724646 12.154871 66.017014
4421 1 16.503037 8.211744 74.459585
4422 1 12.737327 13.923590 74.030780
4423 1 17.761333 8.371537 72.058105
4424 1 20.260936 12.227795 74.343547
4425 1 14.356230 13.153583 76.872348
4426 1 16.449044 7.903408 79.706443
4427 1 14.146430 9.173504 74.241356
4428 1 15.356473 15.433867 85.279907
4429 1 16.625450 0.526069 78.816103
4430 1 15.934183 11.918349 78.413149
4431 1 12.050141 1.532820 78.884478
4432 1 23.510516 12.233573 82.696309
4433 1 15.515307 7.551455 77.177782
4434 1 10.944007 2.082595 90.218816
4435 1 15.267833 3.632876 87.111938
4436 1 25.817881 14.919840 83.061274
4437 1 7.381461 17.236452 92.613159
4438 1 21.155303 18.517329 85.056145
4439 1 18.649991 12.658471 90.621526
4440 1 21.525127 12.005068 80.881227
4441 1 7.645619 19.218542 94.351585
4442 1 16.860367 6.177400 93.141480
4443 1 17.948204 8.829724 104.281287
4444 1 19.691277 5.879611 92.957776
4445 1 21.734456 6.603257 91.299463
4446 1 10.531132 11.615832 101.087496
4447 1 22.945159 30.706406 105.741348
4448 1 18.361127 15.060294 92.597042
4449 1 8.409371 2.678346 86.377486
4450 1 22.520484 8.154640 107.603355
4451 1 15.079935 1.706254 100.647427
4452 1 18.561655 2.581049 102.471479
4453 1 12.235586 14.657526 94.492730
4454 1 15.678826 3.509771 117.641422
4455 1 17.731649 4.420507 108.455541
4456 1 21.501042 5.198482 103.620679
4457 1 18.637155 2.180397 109.946355
4458 1 16.705552 8.269040 109.566466
4459 1 17.418932 10.418947 120.282662
4460 1 10.761396 10.990144 105.736387
4461 1 18.352925 7.232267 107.300638
4462 1 7.478156 7.082008 113.001083
4463 1 12.878555 0.368297 121.865590
4464 1 17.243717 14.015505 101.172838
4465 1 20.656092 13.153168 109.933415
4466 1 13.057782 5.304323 118.314430
4467 1 20.589916 14.977974 122.753126
4468 1 24.043045 16.793346 117.952489
4469 1 19.107705 18.537257 125.948191
4470 1 17.744233 9.781163 127.592993
4471 1 17.721816 31.963014 129.880691
4472 1 21.322698 16.437703 130.379577
4473 1 21.820839 7.900834 133.968547
4474 1 7.459389 8.252117 132.162415
4475 1 9.645818 3.706424 126.312441
4476 1 13.867520 9.729835 132.036419
4477 1 13.549692 7.918582 134.681811
4478 1 15.837166 10.106430 134.150273
4479 1 17.769715 8.198078 134.253510
4480 1 16.128433 11.984009 127.775163
4481 1 15.895414 12.273973 1.275972
4482 1 15.682444 13.841185 3.321906
4483 1 17.661674 12.138429 3.642674
4484 1 17.715549 14.058659 1.423368
4485 1 16.005788 11.921441 5.511134
4486 1 15.579691 14.391372 7.682831
4487 1 17.593070 11.792966 7.521022
4488 1 17.770470 13.951649 5.695684
4489 1 15.473925 12.229394 9.506576
4490 1 15.661719 14.365881 11.183777
4491 1 17.642600 12.048602 11.603503
4492 1 17.861931 13.854456 9.215966
4493 1 15.552084 12.258493 13.327066
4494 1 15.514221 14.071936 15.436009
4495 1 17.698292 12.336875 15.084174
4496 1 17.424568 14.597395 13.172182
4497 1 15.888255 12.034087 17.534070
4498 1 15.280846 13.759328 19.404389
4499 1 17.597622 12.040792 19.403229
4500 1 17.624347 14.123873 17.695197
4501 1 15.421903 12.021868 21.488032
4502 1 15.593547 14.067553 23.513955
4503 1 17.546628 12.175571 23.778358
4504 1 17.455129 13.938961 21.260102
4505 1 15.169159 12.156274 25.433450
4506 1 15.569040 13.959933 27.253254
4507 1 17.433140 12.283543 27.631736
4508 1 17.538643 14.132382 25.463734
4509 1 15.307635 12.409137 29.471964
4510 1 15.583556 14.018674 31.701344
4511 1 17.832633 11.948724 31.527857
4512 1 17.778115 13.912751 29.848398
4513 1 16.064895 11.824146 33.772029
4514 1 15.915207 14.034136 35.301583
4515 1 17.900962 11.875626 35.607518
4516 1 17.875769 14.279135 33.469054
4517 1 15.831439 12.314098 37.499764
4518 1 15.629605 14.309320 39.598959
4519 1 17.534873 12.408964 39.875609
4520 1 17.795199 13.964460 37.426110
4521 1 15.817524 12.096915 41.708018
4522 1 15.510017 14.483557 43.827668
4523 1 17.728884 12.546954 43.925647
4524 1 17.578290 14.471572 41.991146
4525 1 15.507074 12.350827 45.724070
4526 1 15.444815 13.997563 47.995484
4527 1 17.782056 12.460037 47.835860
4528 1 17.483881 14.246011 45.970295
4529 1 15.586063 11.937023 49.496843
4530 1 15.475480 14.104242 51.681947
4531 1 17.854558 12.077874 51.390673
4532 1 17.610566 14.282034 49.938113
4533 1 15.504928 11.922793 53.669705
4534 1 15.678441 14.526467 55.615500
4535 1 17.720142 12.840885 55.803897
4536 1 17.762367 14.185768 53.462344
4537 1 16.022229 12.272779 57.809877
4538 1 15.880042 14.192939 60.232704
4539 1 18.142255 12.119461 59.911027
4540 1 17.543434 14.630027 58.104088
4541 1 16.318541 12.303311 62.129336
4542 1 15.788764 14.206147 63.792272
4543 1 18.290260 12.304498 63.913492
4544 1 18.040077 14.228472 61.743455
4545 1 13.952519 12.149133 68.031354
4546 1 11.970083 12.131362 69.947264
4547 1 13.451709 0.270224 72.140365
4548 1 17.629300 14.154473 65.863996
4549 1 20.055080 12.116812 69.859769
4550 1 15.866424 12.449161 70.141438
4551 1 20.370136 18.599782 67.589578
4552 1 22.108703 12.427644 67.711138
4553 1 21.603331 20.736808 76.690356
4554 1 11.052267 8.183199 83.304613
4555 1 12.812390 11.113814 84.657089
4556 1 21.734312 11.946917 77.349595
4557 1 18.571736 18.056469 69.550595
4558 1 14.337940 4.843224 77.191074
4559 1 15.846453 9.892836 72.006944
4560 1 18.190306 16.140583 71.986239
4561 1 23.686907 4.589639 86.880191
4562 1 25.353768 12.510842 81.178809
4563 1 17.658432 7.021742 87.345528
4564 1 25.057867 10.039166 82.728775
4565 1 12.712306 12.767960 89.322079
4566 1 20.797856 11.844769 83.591639
4567 1 24.928726 16.688842 78.390703
4568 1 22.114925 9.378992 83.614296
4569 1 14.411273 10.199474 93.776471
4570 1 19.333329 10.951724 92.539002
4571 1 23.608707 27.669782 106.539460
4572 1 21.284173 14.464376 81.623288
4573 1 15.596594 13.425616 99.107163
4574 1 6.694662 21.935348 98.876511
4575 1 23.850810 12.803131 92.080637
4576 1 17.743414 17.094069 91.167822
4577 1 14.654146 6.444834 99.700570
4578 1 14.755630 11.024058 96.799246
4579 1 20.669428 13.737462 91.850863
4580 1 15.189242 9.027057 103.487654
4581 1 11.593403 2.354722 103.757493
4582 1 14.144121 6.140204 96.987057
4583 1 17.279212 13.602538 104.214206
4584 1 14.247628 14.074457 101.230782
4585 1 18.925210 32.330403 109.234270
4586 1 10.044745 7.854065 99.418134
4587 1 5.434953 10.281209 112.837996
4588 1 12.384369 10.449528 98.155633
4589 1 20.153289 8.716288 108.277066
4590 1 15.260806 10.779647 115.618814
4591 1 13.907860 9.580000 114.031130
4592 1 5.472571 26.458338 112.567920
4593 1 19.834833 5.786245 125.906467
4594 1 15.690736 13.917110 126.129504
4595 1 15.264209 15.276808 117.932018
4596 1 14.838962 0.998482 116.345668
4597 1 17.260076 12.398215 122.394677
4598 1 17.735906 16.317408 122.291752
4599 1 17.720579 12.467764 130.018435
4600 1 11.637481 20.129675 128.084943
4601 1 9.808691 8.066002 126.079788
4602 1 15.458578 18.141132 130.040076
4603 1 13.293694 16.334943 130.008607
4604 1 21.090090 20.047542 125.234235
4605 1 15.461416 16.062754 132.291908
4606 1 17.569787 15.938762 134.343523
4607 1 15.738506 11.575864 132.034204
4608 1 13.418923 16.201064 134.113303
4609 1 15.770051 15.989623 1.244451
4610 1 15.409986 17.898565 3.016938
4611 1 17.627405 15.925600 3.344754
4612 1 17.710811 17.885379 1.409382
4613 1 15.501676 16.147818 5.209023
4614 1 15.636858 18.129063 7.180811
4615 1 17.708203 16.276619 8.131880
4616 1 17.673926 18.037201 5.661710
4617 1 15.368549 16.356899 9.616427
4618 1 15.605156 18.143610 11.727007
4619 1 17.785405 16.511814 11.386453
4620 1 18.069963 18.440544 9.557119
4621 1 15.292224 16.236556 13.763035
4622 1 15.418080 18.417728 15.357196
4623 1 17.449300 15.780691 15.542121
4624 1 17.401167 18.268597 13.708598
4625 1 15.453796 16.168432 17.825424
4626 1 15.683450 18.228851 19.370805
4627 1 18.039113 16.442852 19.645766
4628 1 17.488204 18.253683 17.464648
4629 1 15.752099 15.970540 21.288378
4630 1 15.603107 18.339395 23.398507
4631 1 17.686861 16.392926 23.236034
4632 1 17.339930 18.277993 21.361213
4633 1 15.595379 16.367059 25.497446
4634 1 15.653994 18.301387 27.563822
4635 1 17.544051 16.032066 27.189270
4636 1 17.766735 18.107309 25.298528
4637 1 15.749627 15.789335 29.095484
4638 1 15.809151 18.176327 31.262482
4639 1 17.625006 16.312391 31.563158
4640 1 17.771618 18.051838 29.247082
4641 1 15.777609 16.536009 33.556867
4642 1 15.809940 17.928700 35.886071
4643 1 17.734589 16.158753 35.598832
4644 1 17.600993 18.547643 33.477482
4645 1 15.811036 15.515409 37.410503
4646 1 15.641640 18.285750 39.870423
4647 1 17.289852 16.139401 39.758404
4648 1 17.901737 18.117963 38.063854
4649 1 15.470108 16.366757 41.995981
4650 1 15.348156 18.456739 43.729139
4651 1 17.616057 16.263827 43.922021
4652 1 17.678391 18.076382 41.670230
4653 1 15.415773 16.039818 46.253866
4654 1 15.912252 18.422417 47.502817
4655 1 17.939107 16.055100 47.841967
4656 1 17.961570 18.272675 45.644867
4657 1 15.723762 16.378163 49.597952
4658 1 15.643925 18.337839 51.328231
4659 1 17.566347 16.511216 51.635860
4660 1 17.631897 18.725446 49.473221
4661 1 15.842387 16.344632 53.718085
4662 1 15.771175 18.280876 55.667503
4663 1 17.679839 16.668608 56.073668
4664 1 17.610941 18.791719 53.761971
4665 1 15.540954 16.405204 57.914192
4666 1 15.730545 18.466319 59.680471
4667 1 17.995216 16.392172 60.295447
4668 1 17.860565 18.226645 57.926569
4669 1 15.711113 17.070310 62.006201
4670 1 15.821927 18.877313 63.781235
4671 1 17.734333 16.262795 63.780965
4672 1 18.076603 18.553493 61.929103
4673 1 15.393845 20.659427 65.989849
4674 1 17.546319 18.643813 65.824220
4675 1 19.911293 20.555122 66.034922
4676 1 19.764342 24.627297 66.216754
4677 1 15.868586 15.872112 70.185063
4678 1 17.748073 12.267170 67.982118
4679 1 19.411537 14.255821 76.519345
4680 1 18.524574 19.116542 75.116197
4681 1 22.166686 23.160789 69.866848
4682 1 10.000644 20.627528 68.376671
4683 1 18.906116 12.355689 78.571909
4684 1 19.768167 30.234818 80.691753
4685 1 10.039216 18.058756 70.395173
4686 1 13.907661 19.966787 72.244653
4687 1 9.200476 23.819618 85.102508
4688 1 19.540161 10.628526 81.796816
4689 1 6.128072 10.923043 80.586112
4690 1 12.276592 13.965720 78.705650
4691 1 23.804516 11.537098 79.182629
4692 1 19.657015 16.996445 78.017364
4693 1 15.644553 7.835096 95.104756
4694 1 13.920219 28.688624 91.091663
4695 1 15.496085 20.509532 84.996310
4696 1 23.875155 31.928362 97.460494
4697 1 15.052524 11.290034 83.111198
4698 1 15.601779 16.596597 89.136079
4699 1 19.366275 16.124303 89.184805
4700 1 4.031978 16.314104 94.526706
4701 1 9.018371 24.381202 94.213439
4702 1 8.496426 19.220083 98.979411
4703 1 15.350611 15.301258 103.477481
4704 1 10.392356 19.229618 95.527391
4705 1 18.974491 11.883017 105.277099
4706 1 7.099992 15.758907 94.589324
4707 1 15.247003 27.106838 98.774242
4708 1 16.184221 14.389406 93.942515
4709 1 30.252255 4.741350 93.048807
4710 1 20.570004 15.097948 107.693477
4711 1 17.447460 20.205612 114.052093
4712 1 13.490959 11.269948 105.388974
4713 1 25.984949 19.693294 99.475389
4714 1 7.631025 19.601194 110.916697
4715 1 12.866823 24.370475 107.571238
4716 1 16.138710 10.156778 111.403328
4717 1 12.853234 15.968435 116.286410
4718 1 14.806691 11.460376 123.440746
4719 1 13.207394 17.205286 123.976468
4720 1 14.150946 26.398010 109.155033
4721 1 21.429648 15.015292 120.140280
4722 1 16.336300 21.720295 116.982750
4723 1 15.013038 17.977236 125.781083
4724 1 16.669545 18.367851 106.941630
4725 1 11.753001 12.152575 128.131127
4726 1 16.303678 21.019362 122.934295
4727 1 19.753902 17.740479 123.384031
4728 1 6.939953 17.042798 115.949535
4729 1 17.536884 22.034582 127.697360
4730 1 19.486267 10.316352 130.156353
4731 1 19.535999 16.251852 132.301396
4732 1 15.204576 26.113793 125.804466
4733 1 17.365212 15.987034 130.171478
4734 1 15.408538 18.184453 134.261964
4735 1 17.265111 18.174390 132.083907
4736 1 26.881031 11.667134 121.214533
4737 1 15.855701 20.542450 1.413553
4738 1 15.586986 22.096276 3.524161
4739 1 17.395208 20.113249 3.612863
4740 1 17.769550 22.229577 1.372746
4741 1 15.221644 20.101934 5.478692
4742 1 15.617108 21.826085 7.376659
4743 1 17.805143 20.162150 7.372505
4744 1 17.936040 22.168950 5.644053
4745 1 15.534160 19.838997 9.146753
4746 1 15.699056 21.646675 11.377222
4747 1 17.893626 20.222248 11.425531
4748 1 17.275955 21.874695 9.292545
4749 1 15.240076 20.274389 13.515080
4750 1 15.402994 22.065568 15.387981
4751 1 17.484333 20.318768 15.741121
4752 1 17.607986 22.196869 13.491292
4753 1 15.543995 20.234864 17.655216
4754 1 15.682036 21.997096 20.088427
4755 1 17.894773 20.100761 19.640442
4756 1 17.549910 22.182747 17.708005
4757 1 15.391526 20.077828 21.540704
4758 1 15.653315 22.139419 23.569174
4759 1 17.624761 20.223652 23.494521
4760 1 17.845047 22.117364 21.767679
4761 1 15.697713 20.286091 25.716062
4762 1 15.272955 22.445004 27.849356
4763 1 17.656297 20.232138 27.541535
4764 1 17.631306 22.251781 25.790826
4765 1 15.633948 20.514321 29.461009
4766 1 15.432872 22.380626 31.899173
4767 1 17.622215 20.061878 31.354576
4768 1 17.990747 22.286536 29.625251
4769 1 15.731933 20.058174 33.405114
4770 1 15.331396 22.469678 35.449419
4771 1 17.234575 20.277210 35.709415
4772 1 17.512853 22.344648 33.731090
4773 1 15.507811 20.171701 37.764988
4774 1 15.752069 22.355505 39.812618
4775 1 17.645079 20.303578 39.862915
4776 1 17.604294 22.110879 37.718308
4777 1 15.658924 20.541578 41.930558
4778 1 15.731284 22.579373 43.516170
4779 1 17.616276 20.345967 43.792432
4780 1 17.574038 22.347538 41.581609
4781 1 15.520723 20.359164 45.446760
4782 1 15.611108 22.526182 47.629760
4783 1 17.587190 20.425636 47.436041
4784 1 17.483877 22.401828 45.697746
4785 1 15.883185 20.797152 49.563924
4786 1 15.413805 22.599432 51.706302
4787 1 17.668022 20.805470 51.684235
4788 1 17.512890 22.796259 49.860840
4789 1 15.385517 20.383514 53.712119
4790 1 15.637565 22.719885 55.867977
4791 1 17.554456 20.682381 55.896915
4792 1 17.438172 22.429792 53.957420
4793 1 15.746828 20.731434 57.814809
4794 1 15.799600 22.596992 59.944934
4795 1 17.816647 20.364801 60.205518
4796 1 17.776522 22.529108 57.974143
4797 1 15.870757 20.720147 61.850738
4798 1 15.467874 22.900197 64.303025
4799 1 17.849196 20.786524 63.764742
4800 1 17.797277 22.550353 62.005724
4801 1 15.490276 22.636685 68.025457
4802 1 9.784617 22.319460 65.763993
4803 1 20.336790 20.761277 70.053669
4804 1 18.004219 22.144518 66.055220
4805 1 18.007171 15.791685 68.107239
4806 1 13.775676 26.337761 70.489674
4807 1 16.966622 17.372190 74.280397
4808 1 7.908260 19.474485 79.284029
4809 1 11.739532 26.468367 68.613920
4810 1 11.746632 22.093253 72.502764
4811 1 17.728626 22.279700 70.000860
4812 1 10.421591 27.249080 86.663993
4813 1 1.513854 19.065245 78.319348
4814 1 18.234591 18.512661 82.246978
4815 1 13.428721 15.749025 83.224833
4816 1 15.854718 18.032107 71.939794
4817 1 20.199253 23.201745 75.163987
4818 1 14.006735 24.361142 83.367388
4819 1 16.803687 19.272837 89.564991
4820 1 9.703208 9.788169 86.696362
4821 1 7.060932 15.001399 87.756087
4822 1 12.954225 13.628986 84.868391
4823 1 17.672182 16.168722 84.597423
4824 1 15.554607 27.573957 95.900809
4825 1 12.459775 17.529535 95.641285
4826 1 20.967852 27.784049 91.929313
4827 1 10.404052 13.660571 90.360241
4828 1 11.695106 25.355585 93.240541
4829 1 14.199159 24.621944 92.184115
4830 1 14.165677 19.576455 88.816410
4831 1 12.930430 0.743970 99.330411
4832 1 16.947208 23.475740 87.207778
4833 1 5.213075 23.407927 96.892002
4834 1 11.058556 15.302513 108.686468
4835 1 30.215746 19.294961 101.607978
4836 1 27.118115 3.359201 89.864539
4837 1 15.783479 19.031933 100.223316
4838 1 13.786146 15.391770 109.343166
4839 1 12.922757 12.722756 99.347284
4840 1 18.569112 26.648382 109.688432
4841 1 24.419540 19.150761 107.301252
4842 1 15.289320 15.019403 107.391317
4843 1 15.612528 15.423129 111.269867
4844 1 15.872392 17.706490 102.370744
4845 1 8.689729 26.819302 113.869173
4846 1 14.013836 24.202518 121.067373
4847 1 13.405169 21.867808 109.084671
4848 1 10.153044 25.010857 111.974375
4849 1 16.616075 17.519276 112.654788
4850 1 3.760300 23.715548 112.192983
4851 1 13.723656 22.996943 115.546275
4852 1 18.853298 30.322681 121.562381
4853 1 14.840090 1.253004 123.824306
4854 1 10.474140 19.909313 120.636055
4855 1 15.749159 22.506293 133.909498
4856 1 13.446566 20.360908 126.067479
4857 1 13.471056 28.207425 126.095698
4858 1 17.624327 24.410788 134.187741
4859 1 26.334763 29.580292 123.545524
4860 1 15.603310 14.290955 130.195707
4861 1 17.766823 25.939174 127.757963
4862 1 17.520831 20.184867 134.096207
4863 1 19.409954 18.245724 134.076220
4864 1 17.303272 22.585704 131.826066
4865 1 15.737925 24.223459 1.511994
4866 1 15.667186 26.263825 3.417116
4867 1 17.647736 24.009169 3.427565
4868 1 17.771327 26.410188 1.277523
4869 1 15.837406 24.138234 5.512883
4870 1 15.454706 26.401087 7.282209
4871 1 17.681380 24.059616 7.618301
4872 1 17.491358 25.939628 5.678303
4873 1 15.721658 24.296030 9.444145
4874 1 15.938269 26.209827 11.184569
4875 1 17.677345 23.924017 11.284417
4876 1 17.744021 25.935088 9.532148
4877 1 15.672910 23.993552 13.505995
4878 1 15.499285 26.148126 15.957189
4879 1 17.426393 24.227849 15.918929
4880 1 18.060665 26.051294 13.459047
4881 1 15.382691 23.596213 17.857758
4882 1 15.554796 25.937506 19.507463
4883 1 17.840100 24.006716 19.650122
4884 1 17.805954 26.062140 17.692590
4885 1 15.490939 24.122974 21.485667
4886 1 15.694978 26.213840 23.456517
4887 1 17.882880 24.092707 23.753536
4888 1 17.640321 25.923829 21.655081
4889 1 15.668107 24.430915 25.457454
4890 1 15.490243 26.129027 27.750707
4891 1 17.882483 24.199999 27.283851
4892 1 17.402983 26.324451 25.487889
4893 1 15.626153 24.269542 29.836792
4894 1 15.513106 26.580973 31.594440
4895 1 17.805363 24.158884 31.634310
4896 1 17.688770 25.935162 29.440298
4897 1 15.788014 24.348241 33.562827
4898 1 15.761423 26.266395 35.359811
4899 1 17.700684 24.388806 35.614909
4900 1 17.747914 26.354046 33.656810
4901 1 15.523571 24.379992 37.454083
4902 1 15.741410 26.173769 39.431468
4903 1 17.639219 24.203842 39.278323
4904 1 17.544811 26.393929 37.569185
4905 1 15.585387 24.365798 41.635083
4906 1 15.656489 26.474236 43.783010
4907 1 17.616010 24.591804 43.717336
4908 1 17.198621 26.756679 41.725474
4909 1 15.533624 24.297338 45.473741
4910 1 15.367594 26.938381 48.012488
4911 1 17.755211 24.501058 47.958705
4912 1 17.865336 26.385578 45.689411
4913 1 15.439584 24.645328 49.859710
4914 1 15.536887 26.687645 51.922270
4915 1 17.751342 24.625100 51.698524
4916 1 17.409461 26.768607 50.117787
4917 1 15.792579 24.643311 53.804670
4918 1 15.527648 26.485552 56.113098
4919 1 17.709929 24.412869 55.818106
4920 1 17.696770 26.648493 53.979728
4921 1 16.080528 24.244369 58.113058
4922 1 15.557350 26.367968 60.206662
4923 1 17.998251 24.349649 59.943896
4924 1 18.167039 26.208074 57.710875
4925 1 15.911663 24.690304 62.164884
4926 1 15.331265 26.389577 64.075209
4927 1 18.062914 24.584258 63.959512
4928 1 18.013013 26.449376 62.119789
4929 1 16.138032 24.834106 65.860381
4930 1 19.740911 24.904026 70.355194
4931 1 17.700951 27.292803 74.244212
4932 1 16.300521 24.853086 70.203498
4933 1 9.776587 21.435719 74.102053
4934 1 16.353643 30.880399 68.414653
4935 1 21.670512 3.773678 72.377313
4936 1 6.996605 4.561787 74.416054
4937 1 8.302974 30.524024 80.242259
4938 1 18.148287 27.375955 77.264532
4939 1 9.441324 22.612643 78.142389
4940 1 11.933085 30.763188 71.665688
4941 1 10.176586 28.836821 71.753747
4942 1 6.351477 29.570283 78.764594
4943 1 7.543071 11.982247 92.373121
4944 1 3.671611 18.088165 80.530262
4945 1 13.483241 24.648619 75.881608
4946 1 17.559680 4.064764 88.743065
4947 1 14.676113 26.978647 82.858564
4948 1 11.216282 23.306682 83.015345
4949 1 18.505021 1.724729 84.123674
4950 1 24.077471 21.147428 103.739011
4951 1 0.646194 18.040759 84.356255
4952 1 11.671185 19.657180 87.953962
4953 1 14.455888 29.255677 83.820699
4954 1 16.417088 31.811698 96.442994
4955 1 10.426163 21.532268 94.282591
4956 1 18.692193 25.986079 98.329755
4957 1 20.384000 20.102301 93.524424
4958 1 14.993996 22.440562 93.390153
4959 1 20.556260 29.514432 94.429351
4960 1 19.774155 2.655024 89.686967
4961 1 15.048557 23.068717 104.980526
4962 1 2.897885 20.224305 108.028771
4963 1 25.537341 29.197472 101.909648
4964 1 22.657944 23.622823 97.633798
4965 1 10.984562 25.026308 105.612244
4966 1 6.350539 23.985546 105.801007
4967 1 13.217247 23.318101 102.333862
4968 1 17.456175 26.538427 100.751040
4969 1 13.402065 16.650052 90.948419
4970 1 24.048632 24.923634 114.406532
4971 1 16.480429 23.298105 120.915712
4972 1 14.413147 17.935336 104.542895
4973 1 11.520624 1.372000 130.185234
4974 1 9.777772 26.109209 124.230086
4975 1 5.068773 19.587832 117.168933
4976 1 14.679801 22.595909 112.150079
4977 1 4.067285 27.763353 114.769826
4978 1 13.722392 32.320194 130.129680
4979 1 14.585608 19.106255 122.774619
4980 1 13.392249 20.737457 121.173797
4981 1 10.063481 20.442945 109.516326
4982 1 19.499715 25.949631 125.036612
4983 1 17.518859 26.182540 132.004062
4984 1 7.880198 29.426080 117.410087
4985 1 13.489356 30.322330 128.236007
4986 1 15.598293 30.290825 133.969399
4987 1 15.553014 26.084122 130.163317
4988 1 19.792708 19.886229 132.004611
4989 1 11.501140 28.382193 128.340572
4990 1 13.610047 26.504169 132.023833
4991 1 19.501344 23.937344 132.037367
4992 1 19.562979 26.185997 133.945239
4993 1 15.727077 28.538835 1.360651
4994 1 15.907293 30.306614 3.442263
4995 1 17.467461 28.331820 3.494374
4996 1 17.685488 30.293115 1.300491
4997 1 15.816159 28.264138 5.650599
4998 1 15.715182 30.405580 7.818804
4999 1 17.638348 28.603490 7.581082
5000 1 17.774477 30.711239 5.515429
5001 1 15.718033 28.224847 9.611744
5002 1 15.737576 30.144281 11.931644
5003 1 17.710115 28.180577 11.728780
5004 1 17.694471 30.260696 9.819262
5005 1 15.759811 27.807457 13.568841
5006 1 15.993327 30.226436 15.751358
5007 1 17.899960 28.402181 15.682196
5008 1 17.814158 30.324876 13.859671
5009 1 15.520656 28.185769 17.741892
5010 1 15.456799 30.473748 19.667286
5011 1 17.679390 27.906797 19.643269
5012 1 17.484663 30.034792 17.896214
5013 1 15.575449 28.415300 21.579004
5014 1 15.598389 30.321159 23.639830
5015 1 17.605076 28.365367 23.419682
5016 1 17.738190 30.058760 21.390953
5017 1 15.660149 28.532928 25.745030
5018 1 15.496813 30.561318 27.682825
5019 1 17.608035 28.291884 27.639998
5020 1 17.565879 30.389959 25.739355
5021 1 15.679075 28.542004 29.302326
5022 1 15.725312 30.268480 31.430507
5023 1 17.442861 28.610295 31.222687
5024 1 17.692908 30.671898 29.339934
5025 1 15.864998 28.292513 33.470767
5026 1 15.638605 30.501495 35.459632
5027 1 17.394104 28.396393 35.750385
5028 1 17.619981 30.427185 33.361758
5029 1 15.471681 28.743748 37.718021
5030 1 15.320018 30.347347 39.638995
5031 1 17.651096 28.577666 39.558169
5032 1 17.634792 30.582929 37.502277
5033 1 15.664376 28.552843 41.703471
5034 1 15.935802 31.073414 43.488102
5035 1 17.770932 28.300834 43.570939
5036 1 17.585970 30.570233 41.583019
5037 1 15.753989 28.454025 45.840186
5038 1 15.599814 30.788929 47.624253
5039 1 17.370441 28.795902 47.965951
5040 1 17.808901 30.688556 45.918912
5041 1 15.684808 28.762814 49.837037
5042 1 15.323405 30.906681 51.676735
5043 1 17.440381 28.602359 52.122392
5044 1 17.483735 30.774645 49.679245
5045 1 15.423140 28.793415 53.945248
5046 1 15.646264 30.943236 55.952710
5047 1 17.698498 28.397655 55.883785
5048 1 17.562617 30.734357 53.965366
5049 1 15.534242 28.478857 57.985668
5050 1 15.649594 30.555252 60.024341
5051 1 17.671495 28.610370 60.260770
5052 1 17.485614 30.348906 57.862925
5053 1 15.760307 28.328509 61.903619
5054 1 15.560512 30.697784 64.224803
5055 1 17.603587 28.809851 63.956215
5056 1 17.657648 30.639599 61.804090
5057 1 13.955421 26.724527 66.290475
5058 1 14.241527 32.452439 68.287433
5059 1 18.003144 1.673302 70.192096
5060 1 15.685876 29.051350 66.488618
5061 1 15.749263 26.839942 68.575958
5062 1 11.696757 0.415074 69.783045
5063 1 16.415134 28.907614 70.398483
5064 1 17.915448 2.063785 65.889456
5065 1 6.985908 21.845990 78.700122
5066 1 6.061029 6.503970 78.638068
5067 1 14.028260 0.957260 83.310119
5068 1 22.041697 28.468450 68.092707
5069 1 19.236206 24.837749 78.730227
5070 1 2.958940 2.690922 76.004364
5071 1 14.955093 31.252205 86.039884
5072 1 14.441880 31.945600 79.046417
5073 1 6.103995 26.975206 74.530047
5074 1 12.299482 24.119313 85.536518
5075 1 18.434621 30.103892 83.030188
5076 1 8.898735 30.908853 90.689789
5077 1 3.993431 28.725999 79.245847
5078 1 20.173573 30.467701 91.641904
5079 1 13.081996 5.586000 88.202941
5080 1 17.261183 32.343003 85.187278
5081 1 14.980511 1.168025 106.114102
5082 1 20.668509 4.073296 100.629088
5083 1 4.802279 25.817860 93.338928
5084 1 20.738052 27.842469 89.405160
5085 1 22.147894 18.834242 88.348949
5086 1 7.136959 26.022077 100.798709
5087 1 18.099968 0.472231 98.340653
5088 1 24.042357 13.979442 105.265580
5089 1 6.452092 21.749664 103.576159
5090 1 14.190905 20.901576 98.172284
5091 1 22.425684 26.903918 108.873568
5092 1 10.650814 18.099831 98.114707
5093 1 22.150556 27.684254 101.079367
5094 1 13.550190 32.721749 96.911664
5095 1 14.987348 31.604645 111.960656
5096 1 20.202631 24.950335 96.605037
5097 1 6.665171 23.781407 94.379254
5098 1 15.081079 24.018712 109.877342
5099 1 21.884615 31.299385 116.180993
5100 1 17.003246 31.169739 106.824852
5101 1 22.589669 12.800604 118.628377
5102 1 11.705953 27.342194 113.116196
5103 1 14.837769 29.471057 116.753035
5104 1 14.929319 27.993162 113.823023
5105 1 23.120100 5.879361 116.629975
5106 1 16.554733 29.935912 119.680948
5107 1 15.717812 1.275925 126.362517
5108 1 13.432947 32.410678 126.153848
5109 1 7.303486 30.738050 129.742164
5110 1 20.076185 30.330725 130.066608
5111 1 15.580641 24.366776 128.071384
5112 1 17.603436 30.301366 131.999634
5113 1 13.518476 28.369146 130.272348
5114 1 17.632094 28.086855 130.193567
5115 1 13.647713 30.777182 131.949332
5116 1 15.556910 32.091534 127.752449
5117 1 17.700829 24.131159 129.859806
5118 1 17.752146 28.230569 133.780779
5119 1 15.534791 28.272769 132.260365
5120 1 23.699942 0.626344 125.003772
5121 1 19.548455 32.615706 1.298417
5122 1 19.618705 1.809967 3.312945
5123 1 21.489826 32.139327 3.323778
5124 1 21.749059 1.892574 1.409069
5125 1 19.664322 32.563146 5.106174
5126 1 19.732303 1.680583 7.351649
5127 1 21.567862 32.479276 7.298890
5128 1 21.876193 2.002336 5.525523
5129 1 19.844812 32.276666 9.511599
5130 1 19.663670 1.613480 11.681010
5131 1 21.400426 32.518420 11.567874
5132 1 21.759232 1.635488 9.657444
5133 1 19.765941 32.478183 13.731436
5134 1 19.762089 1.586428 15.560631
5135 1 21.714824 32.259712 15.869413
5136 1 21.967627 1.878321 13.510837
5137 1 19.528937 32.172505 17.514784
5138 1 19.966217 1.542086 19.383321
5139 1 21.554557 32.126554 19.667103
5140 1 21.696494 1.538703 17.502582
5141 1 19.613356 32.179898 21.776843
5142 1 19.566873 1.746708 23.585939
5143 1 21.586724 32.354226 23.664790
5144 1 21.736275 1.497944 21.392322
5145 1 19.534366 32.372423 26.006166
5146 1 19.876117 1.634957 27.856753
5147 1 22.000609 32.362720 27.513994
5148 1 21.605170 1.782320 25.546662
5149 1 19.951201 32.302539 29.430619
5150 1 20.018230 1.878428 31.424712
5151 1 21.818509 32.395389 31.705139
5152 1 22.140811 1.579812 29.497943
5153 1 20.107768 0.018863 33.437435
5154 1 19.862016 1.817879 35.877368
5155 1 21.657477 32.406858 35.516250
5156 1 21.836749 1.879509 33.805240
5157 1 19.663923 32.181652 37.508025
5158 1 19.752745 1.922982 39.538661
5159 1 21.678790 32.658877 39.291167
5160 1 21.830778 1.958717 37.809864
5161 1 19.645045 32.252095 41.176319
5162 1 19.844440 2.121182 43.125614
5163 1 21.826124 32.646138 43.615046
5164 1 21.891222 1.510680 41.522902
5165 1 19.727176 32.630949 45.619544
5166 1 19.709020 1.697704 47.549860
5167 1 21.630514 0.379619 47.630191
5168 1 21.753809 1.890506 45.187703
5169 1 19.921842 32.271586 49.801912
5170 1 19.845819 1.584702 51.940444
5171 1 21.772116 32.584126 51.740076
5172 1 21.451252 2.039097 49.540299
5173 1 19.886542 32.599497 53.764692
5174 1 19.843287 1.796950 55.902139
5175 1 21.989294 0.034781 55.788135
5176 1 21.726174 1.995772 53.906232
5177 1 20.021487 32.724744 57.799398
5178 1 19.668664 1.769991 60.162771
5179 1 22.036308 32.695391 59.895658
5180 1 21.801263 1.987869 57.897393
5181 1 19.863673 32.703572 61.902034
5182 1 19.896127 2.039733 63.771059
5183 1 21.857066 0.066844 64.012058
5184 1 21.800607 2.063889 61.784705
5185 1 20.239105 0.368477 65.854404
5186 1 20.141329 2.216147 67.958829
5187 1 24.045918 30.717271 68.562812
5188 1 22.014593 2.316834 65.766611
5189 1 22.014828 0.273771 68.005437
5190 1 24.086564 24.657675 70.996516
5191 1 24.563083 30.680507 72.659457
5192 1 19.971695 5.833699 68.060430
5193 1 22.053707 20.784078 67.700441
5194 1 16.462778 31.127773 72.059951
5195 1 18.040657 29.911406 75.365408
5196 1 24.173027 2.418108 67.973137
5197 1 12.869188 2.664344 76.451223
5198 1 18.052065 21.986359 73.776150
5199 1 19.867227 31.172921 72.461880
5200 1 22.664438 6.608879 85.309073
5201 1 19.107496 20.005582 77.801863
5202 1 13.019000 0.139353 80.903231
5203 1 27.959771 5.217509 82.167430
5204 1 17.195161 3.505325 79.903178
5205 1 18.347849 30.569778 88.713213
5206 1 16.846587 26.381473 79.640382
5207 1 15.671048 3.045307 83.934006
5208 1 21.093650 23.970416 81.030673
5209 1 13.643192 28.895988 100.146578
5210 1 27.509813 9.030338 109.918233
5211 1 22.180292 32.081702 107.491771
5212 1 13.371825 0.981036 89.004345
5213 1 18.902257 23.392316 98.994115
5214 1 11.544340 27.707559 91.663400
5215 1 15.671484 30.496565 98.604133
5216 1 17.649270 9.431716 89.539147
5217 1 27.480201 1.561766 112.368893
5218 1 15.605691 1.803078 98.052461
5219 1 20.150309 28.041385 96.471622
5220 1 20.498408 25.156744 100.774896
5221 1 31.920844 1.260867 116.052688
5222 1 21.142708 17.207447 113.439472
5223 1 20.073414 28.940366 113.375139
5224 1 24.816394 32.401029 115.477866
5225 1 24.786128 19.240605 118.173705
5226 1 18.721583 7.049590 112.713097
5227 1 19.315283 26.563230 106.989886
5228 1 14.403238 28.816937 107.954308
5229 1 19.039994 9.142350 114.356315
5230 1 21.102569 32.303260 121.681485
5231 1 13.265226 3.302444 116.392458
5232 1 20.977089 1.574371 117.295851
5233 1 16.283016 23.083528 114.576956
5234 1 20.986529 32.345851 118.915558
5235 1 23.711177 29.777654 129.498233
5236 1 19.011616 1.732542 121.515615
5237 1 9.738883 0.405367 118.531240
5238 1 22.429751 32.364860 129.651302
5239 1 25.677754 32.008508 118.060361
5240 1 23.666761 5.796822 130.185857
5241 1 18.849727 30.009339 125.565266
5242 1 21.905505 29.865636 127.221899
5243 1 3.777704 4.368228 123.445969
5244 1 11.537643 30.404735 130.083169
5245 1 19.667451 3.878641 131.918266
5246 1 19.180352 1.716529 134.014866
5247 1 23.425633 30.223751 133.986711
5248 1 21.442050 32.427417 133.870654
5249 1 19.415708 3.753945 1.058485
5250 1 19.574896 5.715739 3.333952
5251 1 21.385511 3.716585 3.362146
5252 1 21.624322 5.586432 1.310870
5253 1 19.579053 3.455733 5.497471
5254 1 19.664950 5.798826 7.419024
5255 1 21.653111 3.878846 7.372371
5256 1 21.688835 5.474274 5.255178
5257 1 19.630311 3.530063 9.285229
5258 1 19.644764 5.768727 11.014028
5259 1 21.691069 3.653588 11.423510
5260 1 21.516588 5.760283 9.421773
5261 1 19.876341 3.685254 13.650811
5262 1 19.880668 5.821940 15.439774
5263 1 21.842901 3.756744 15.445987
5264 1 21.806894 5.641039 13.204288
5265 1 19.648600 3.700215 17.798346
5266 1 19.216876 5.982259 19.454528
5267 1 21.920687 3.823534 19.561402
5268 1 21.654314 5.744578 17.408101
5269 1 19.893476 3.585002 21.283279
5270 1 19.882152 5.931892 23.556967
5271 1 21.681982 4.025274 23.335014
5272 1 21.393477 5.826832 21.455771
5273 1 19.718346 3.999532 25.615230
5274 1 19.666549 6.116284 27.662538
5275 1 21.665769 3.344945 27.647864
5276 1 21.834885 5.866703 25.726056
5277 1 19.710340 3.671005 29.492427
5278 1 19.725701 5.743493 31.393129
5279 1 21.805796 3.918787 31.163677
5280 1 21.761872 5.948082 29.443691
5281 1 19.854309 3.980009 34.301724
5282 1 20.279090 5.885446 35.988809
5283 1 21.741049 3.610944 35.698764
5284 1 21.809665 5.968512 33.804632
5285 1 19.744717 3.994707 37.722952
5286 1 19.995165 6.310956 39.498297
5287 1 21.737734 4.199612 39.672438
5288 1 22.114976 6.218085 37.545636
5289 1 19.722033 3.904400 41.338448
5290 1 19.738922 5.864482 43.591012
5291 1 21.879134 3.808639 43.497334
5292 1 21.773703 5.937023 41.759611
5293 1 19.799498 3.724215 45.562325
5294 1 20.006828 5.825122 47.608169
5295 1 21.827488 3.804929 47.693578
5296 1 21.768815 5.853746 45.585452
5297 1 19.920717 4.132049 49.816957
5298 1 19.724015 6.135188 51.720986
5299 1 21.561058 3.851821 51.911285
5300 1 21.975259 6.396954 49.969461
5301 1 19.759434 3.965747 53.716838
5302 1 19.852863 6.150414 55.923307
5303 1 21.769036 4.229009 55.692520
5304 1 22.202014 5.815676 53.827024
5305 1 19.696987 3.968993 57.903281
5306 1 19.982463 5.959058 59.788352
5307 1 21.703158 3.950395 59.850158
5308 1 21.999146 5.910460 57.865058
5309 1 19.652735 3.955012 61.884916
5310 1 19.908974 5.916455 63.922498
5311 1 21.874796 4.004425 63.666136
5312 1 21.873550 6.131393 61.996212
5313 1 20.338905 32.478509 69.981804
5314 1 17.965521 3.897849 68.095777
5315 1 19.881049 28.510036 65.656639
5316 1 22.071131 5.923130 65.956116
5317 1 11.170740 0.849166 74.212473
5318 1 27.982197 32.638114 70.278319
5319 1 22.709556 2.134606 79.628020
5320 1 12.489919 10.720093 81.996576
5321 1 20.169758 28.231845 75.023861
5322 1 21.699473 13.416207 86.397306
5323 1 8.570465 29.898979 76.295209
5324 1 19.427864 4.764197 79.829070
5325 1 11.146820 32.709549 82.913581
5326 1 26.700654 4.877889 86.970414
5327 1 14.861270 29.840129 76.670285
5328 1 22.604703 6.703768 82.868201
5329 1 19.673578 32.496229 92.806067
5330 1 28.511961 3.033223 86.814679
5331 1 23.428014 29.032613 87.930333
5332 1 19.929997 6.650908 84.987978
5333 1 18.401839 5.192739 101.125108
5334 1 25.664470 1.837855 97.730350
5335 1 23.678793 0.389845 94.840303
5336 1 24.833989 30.281675 95.185654
5337 1 13.896540 0.668590 103.492154
5338 1 16.242936 26.075313 85.043951
5339 1 20.293411 13.781096 100.093882
5340 1 20.140314 1.276634 100.013704
5341 1 19.091492 4.825434 105.744835
5342 1 24.155550 9.687603 99.096100
5343 1 22.414316 0.662415 92.275873
5344 1 26.778964 8.882738 97.066676
5345 1 16.753807 11.150391 98.925328
5346 1 18.274281 8.764597 101.189735
5347 1 19.907625 29.850645 118.919473
5348 1 7.543250 28.619305 100.555592
5349 1 21.527814 0.285488 104.346490
5350 1 12.516637 31.593961 110.557366
5351 1 26.046073 4.276160 108.260667
5352 1 12.317845 28.179073 110.466490
5353 1 16.492374 26.064355 111.751425
5354 1 8.675011 5.603530 119.380879
5355 1 15.203152 22.979839 107.599104
5356 1 24.443516 2.286892 111.711007
5357 1 19.428904 25.208772 111.890111
5358 1 21.079999 4.182863 109.716692
5359 1 22.544297 11.100189 107.749394
5360 1 18.077732 13.865837 124.190925
5361 1 8.104820 31.903637 120.043250
5362 1 23.544632 0.265661 120.615786
5363 1 15.851626 31.909130 124.702935
5364 1 15.749317 3.854745 123.290099
5365 1 15.462503 3.855237 127.728652
5366 1 20.511852 3.811455 123.334224
5367 1 29.850212 4.090848 126.102151
5368 1 27.697336 5.582730 130.054023
5369 1 23.848590 1.757305 130.274697
5370 1 17.711916 1.750366 124.121698
5371 1 31.658862 32.659930 132.286906
5372 1 29.870555 7.971321 129.891797
5373 1 17.235276 3.923093 133.802728
5374 1 17.412741 5.539457 131.736968
5375 1 21.281672 3.875525 134.313077
5376 1 23.609505 31.945451 127.590569
5377 1 19.620302 8.076666 1.370626
5378 1 19.495333 9.817509 3.480297
5379 1 21.629184 7.702735 3.147700
5380 1 21.410044 9.969169 1.050313
5381 1 19.923892 7.514398 5.454763
5382 1 19.857042 9.748900 7.901183
5383 1 21.676965 7.736134 7.485019
5384 1 21.270698 9.906815 5.903615
5385 1 19.791191 7.840170 9.659607
5386 1 19.624414 10.179147 11.512415
5387 1 21.582867 7.757605 11.617605
5388 1 21.678148 10.086189 10.054486
5389 1 19.741701 8.089251 13.487176
5390 1 19.599851 10.004824 15.625028
5391 1 21.845143 7.625168 15.707882
5392 1 21.669690 10.302943 13.856077
5393 1 19.542058 7.966441 17.455292
5394 1 19.651944 9.886912 19.605538
5395 1 21.643995 7.740794 19.466772
5396 1 21.549644 9.928044 17.630222
5397 1 19.634735 8.258404 21.462489
5398 1 19.740018 10.087133 23.275552
5399 1 21.830585 8.054365 23.212978
5400 1 21.796877 10.170839 21.480917
5401 1 19.719131 7.803640 25.416433
5402 1 19.534085 9.705678 27.676794
5403 1 21.719942 7.993873 27.519938
5404 1 21.759395 9.828006 25.413939
5405 1 19.383440 7.891159 29.851201
5406 1 19.980548 9.989941 31.478853
5407 1 22.156904 7.927143 31.318016
5408 1 21.633571 10.048276 29.413073
5409 1 19.774028 7.616862 33.096210
5410 1 19.961131 9.696060 35.312248
5411 1 21.945147 8.043162 35.785536
5412 1 21.787638 10.189882 33.432602
5413 1 19.979364 8.108624 37.687219
5414 1 19.828157 10.387804 39.657894
5415 1 21.482928 8.220011 40.138484
5416 1 21.779264 10.159576 37.704420
5417 1 19.494873 7.894555 41.772249
5418 1 19.505561 10.007722 43.464708
5419 1 21.795375 8.149580 43.973126
5420 1 21.855690 9.912359 42.284235
5421 1 19.709091 7.870965 45.421128
5422 1 19.700165 9.897068 47.632374
5423 1 21.892320 8.240296 47.922843
5424 1 21.435070 10.203527 45.639108
5425 1 20.044424 8.233777 49.760708
5426 1 19.998336 10.147056 51.760608
5427 1 22.033123 7.984418 52.050087
5428 1 22.068557 10.285446 49.714776
5429 1 20.015141 7.889347 53.798657
5430 1 19.670045 10.246905 55.542758
5431 1 21.988221 7.789082 55.786423
5432 1 21.975944 10.090588 53.873772
5433 1 19.889125 8.030735 57.543925
5434 1 19.959118 10.187505 59.778280
5435 1 21.926497 8.101913 59.866328
5436 1 21.655393 9.696119 57.618178
5437 1 19.664865 8.003665 62.026396
5438 1 19.766670 10.045336 63.927677
5439 1 22.238255 8.349616 63.526002
5440 1 22.235084 10.269628 61.759468
5441 1 26.072750 4.178250 68.362969
5442 1 20.066855 12.260729 65.744698
5443 1 24.000401 6.425141 67.447454
5444 1 22.247515 14.254872 70.032405
5445 1 23.749199 32.492797 70.606789
5446 1 18.074241 10.548416 69.893472
5447 1 17.229333 5.924352 78.351337
5448 1 19.453788 8.122802 74.219153
5449 1 18.321974 5.759951 74.511517
5450 1 15.018378 0.527413 76.611177
5451 1 25.940853 13.760236 78.643665
5452 1 15.853428 7.147104 82.469867
5453 1 23.197520 27.608436 90.342796
5454 1 15.526639 14.071908 82.766701
5455 1 16.750067 31.286077 80.712872
5456 1 23.537276 3.489384 77.253830
5457 1 18.112180 8.616089 92.347534
5458 1 16.798594 13.138609 84.817983
5459 1 15.691536 10.927644 88.381594
5460 1 28.849566 10.572520 95.978752
5461 1 23.881233 10.044756 89.197020
5462 1 23.729881 17.412308 89.814750
5463 1 0.690587 3.870338 89.932048
5464 1 23.236961 3.747915 98.867426
5465 1 26.451164 9.710135 89.688501
5466 1 30.425508 7.599683 93.280595
5467 1 17.387069 32.548888 100.885336
5468 1 17.701312 9.033418 97.019582
5469 1 17.382308 17.410344 104.656412
5470 1 14.225487 3.443042 104.327799
5471 1 20.812374 7.700972 102.273872
5472 1 21.011688 16.048131 96.722821
5473 1 19.929513 2.012081 97.123381
5474 1 15.170647 16.353095 100.120526
5475 1 24.120310 12.194954 100.689628
5476 1 11.716435 7.211572 97.735555
5477 1 15.707996 30.812734 114.783199
5478 1 14.894530 12.233919 103.020206
5479 1 23.566039 9.788838 105.572305
5480 1 18.313389 11.492778 109.770932
5481 1 11.873132 5.727808 100.444377
5482 1 25.741056 8.942434 107.194985
5483 1 16.614110 12.525891 111.985254
5484 1 22.303736 27.691668 114.671772
5485 1 15.679596 2.744737 110.826576
5486 1 20.976934 10.406034 110.152561
5487 1 18.754694 27.081208 119.072470
5488 1 17.594381 23.717574 118.545963
5489 1 25.130235 13.161429 108.663081
5490 1 19.509184 9.726174 125.524245
5491 1 23.302601 11.420749 123.524627
5492 1 15.742001 19.794285 111.553298
5493 1 12.680999 5.963739 122.568912
5494 1 15.798592 7.583331 132.134653
5495 1 19.549276 4.041703 120.810977
5496 1 21.838439 10.108294 127.464489
5497 1 21.822984 4.027136 130.093151
5498 1 22.041879 9.801678 131.976942
5499 1 25.519685 32.496119 129.588477
5500 1 23.932828 7.758067 127.806206
5501 1 24.013189 3.632656 127.635228
5502 1 17.553816 13.971070 132.159844
5503 1 19.732253 9.972612 133.905653
5504 1 25.380367 15.902570 129.793367
5505 1 19.639623 12.264956 1.441844
5506 1 19.606684 14.302214 3.709401
5507 1 21.577771 11.956963 3.518246
5508 1 21.766267 13.454787 1.124424
5509 1 19.648775 12.052807 5.458430
5510 1 19.865392 13.945944 7.459425
5511 1 22.032777 11.758140 7.580980
5512 1 21.734718 14.045724 5.304637
5513 1 19.535235 11.907564 9.557778
5514 1 19.502063 14.117099 11.482514
5515 1 21.480163 12.127916 11.628854
5516 1 21.872585 13.778419 9.484660
5517 1 19.704950 11.988832 13.490433
5518 1 19.854674 13.615067 15.634259
5519 1 21.803599 11.811346 15.724081
5520 1 21.676859 14.002943 13.954315
5521 1 19.078586 11.919960 17.567899
5522 1 19.754000 14.138683 19.344983
5523 1 21.688179 11.794932 19.633828
5524 1 21.676586 13.809550 17.701008
5525 1 19.560662 12.156536 21.496463
5526 1 19.937359 14.116413 23.384207
5527 1 21.715200 12.163353 23.417007
5528 1 21.851613 14.166910 21.490714
5529 1 19.742522 11.755257 25.303148
5530 1 19.858810 13.763693 27.368698
5531 1 21.723442 11.940499 27.115902
5532 1 22.009774 13.994371 25.186878
5533 1 19.451434 12.025974 29.154721
5534 1 19.601838 14.318527 31.760585
5535 1 21.560598 12.169786 31.450834
5536 1 21.597295 13.983731 29.535424
5537 1 19.845806 12.273585 33.605443
5538 1 19.634402 14.478285 35.687974
5539 1 21.613971 12.217639 35.841353
5540 1 22.103619 14.073716 33.827011
5541 1 19.585766 12.402057 37.760080
5542 1 19.668207 14.100087 39.958830
5543 1 21.781073 12.230607 39.648465
5544 1 21.690767 14.302172 38.072509
5545 1 19.703727 12.210684 41.948973
5546 1 20.026377 14.264673 43.777371
5547 1 22.315305 12.514200 43.846976
5548 1 21.861465 14.148379 41.708474
5549 1 19.906543 12.462637 45.602995
5550 1 20.068404 14.133995 47.861828
5551 1 22.145740 11.833928 47.523699
5552 1 22.060089 14.181995 46.135610
5553 1 19.954545 12.181971 49.487180
5554 1 19.868562 14.628029 51.539064
5555 1 22.104615 12.495807 51.700671
5556 1 21.850360 14.443482 49.779890
5557 1 19.981782 12.248047 53.732179
5558 1 19.850182 14.512649 55.677463
5559 1 22.194481 12.372437 55.681652
5560 1 21.879819 14.753232 53.997024
5561 1 19.801612 12.331468 57.480823
5562 1 20.134383 14.264311 59.634888
5563 1 22.017958 12.611373 59.521085
5564 1 22.131675 14.386398 57.553462
5565 1 20.211825 12.189774 61.608788
5566 1 20.060612 14.482863 63.878338
5567 1 22.075287 12.204747 63.923715
5568 1 21.994410 14.135691 61.956145
5569 1 21.726736 10.131670 70.182339
5570 1 18.185361 13.757360 70.319055
5571 1 20.231810 14.163742 71.951790
5572 1 22.060445 10.485286 65.718802
5573 1 20.090978 10.422305 72.221651
5574 1 27.869736 13.576685 76.521741
5575 1 17.808851 6.204541 69.754966
5576 1 24.405212 14.042308 67.968106
5577 1 14.338565 19.782918 76.802427
5578 1 25.580662 11.375022 86.064571
5579 1 18.326950 8.445915 76.853251
5580 1 24.136458 18.465971 76.346304
5581 1 7.507696 14.059961 76.097218
5582 1 15.340372 17.876392 84.636035
5583 1 28.475314 16.150209 83.338683
5584 1 14.983494 7.116030 86.292239
5585 1 16.971892 18.525865 77.381391
5586 1 17.530337 10.883574 83.660695
5587 1 2.238776 8.953955 89.428013
5588 1 13.262977 7.744437 81.166427
5589 1 16.147139 13.197296 89.975558
5590 1 21.586824 9.253175 100.271489
5591 1 28.655959 15.805455 88.607258
5592 1 19.407212 17.517336 87.053129
5593 1 13.168405 13.536059 96.733302
5594 1 23.787251 9.495595 91.659870
5595 1 18.018915 12.102000 94.606971
5596 1 18.195983 3.940915 91.462535
5597 1 24.129313 17.160470 96.393989
5598 1 16.631582 11.489329 91.850693
5599 1 17.502538 15.649890 99.267711
5600 1 17.256003 16.184354 87.208811
5601 1 17.378927 9.844455 94.492874
5602 1 19.961825 24.079239 104.759223
5603 1 21.590232 14.653651 102.555433
5604 1 24.718426 16.895946 99.121321
5605 1 23.587124 9.200564 102.174945
5606 1 15.667845 11.057063 108.862444
5607 1 0.053302 16.603335 112.135724
5608 1 23.023815 25.156552 99.716012
5609 1 26.617958 22.366935 104.357622
5610 1 23.220104 14.683004 112.746584
5611 1 24.459041 14.099983 116.649637
5612 1 19.369537 12.993185 102.544239
5613 1 19.075897 18.294012 94.796528
5614 1 21.134365 18.779216 110.922729
5615 1 20.940026 9.024369 112.593278
5616 1 26.954677 17.264261 102.461513
5617 1 18.210944 14.365082 109.952537
5618 1 11.187325 21.325369 115.792852
5619 1 17.859251 5.107437 124.195025
5620 1 21.464669 21.514547 120.101576
5621 1 23.929063 10.192062 125.846946
5622 1 19.983415 14.675123 125.865122
5623 1 19.961150 13.805731 129.836411
5624 1 18.362968 16.941437 114.805998
5625 1 21.401404 14.244393 131.934547
5626 1 13.621821 14.372948 132.081364
5627 1 25.818538 11.964778 133.979589
5628 1 13.737215 12.416707 130.451552
5629 1 16.171664 7.630428 128.149482
5630 1 15.765258 13.945479 134.111385
5631 1 19.912977 14.089200 134.192833
5632 1 23.403543 18.042430 129.776076
5633 1 19.644521 16.104083 1.537576
5634 1 19.828959 18.405766 3.259612
5635 1 21.742997 15.566296 3.172460
5636 1 21.445621 17.878784 0.939112
5637 1 19.578892 16.100774 5.624414
5638 1 19.779696 18.080015 7.462792
5639 1 21.830717 15.860893 7.553550
5640 1 21.673073 17.781166 5.312839
5641 1 19.977277 15.933602 9.765572
5642 1 19.936214 18.395963 11.523869
5643 1 21.714806 15.709576 11.439841
5644 1 21.831527 17.995567 9.442346
5645 1 19.445254 16.162226 13.662962
5646 1 20.051812 18.201839 15.410199
5647 1 21.898942 16.443042 15.648562
5648 1 21.917319 18.053592 13.356419
5649 1 19.780572 16.062356 17.117536
5650 1 20.142705 18.051690 19.338205
5651 1 21.902919 15.866458 19.252459
5652 1 22.052244 18.067010 17.359043
5653 1 20.080542 16.170206 21.329599
5654 1 19.855750 18.096704 23.261100
5655 1 21.781569 16.274812 23.510798
5656 1 21.969326 18.109806 21.485844
5657 1 19.892387 15.846638 25.142107
5658 1 19.850363 18.386898 27.235711
5659 1 21.305548 16.008504 27.285846
5660 1 21.616123 18.510735 25.454893
5661 1 19.682429 16.095831 29.370771
5662 1 19.847649 18.115900 31.635719
5663 1 22.155182 16.243180 31.659588
5664 1 21.790404 18.104500 29.317787
5665 1 19.713173 16.383533 33.684839
5666 1 19.613091 18.400496 35.806163
5667 1 21.770252 16.530810 35.492037
5668 1 21.889495 18.595417 33.677963
5669 1 19.529661 16.072783 38.203191
5670 1 19.984188 18.451599 39.893752
5671 1 21.792133 16.056267 39.970076
5672 1 21.697452 18.274766 37.652748
5673 1 19.846320 16.277459 41.778264
5674 1 19.788635 18.212700 43.527806
5675 1 21.677401 16.342910 44.168497
5676 1 21.837467 18.351308 41.905185
5677 1 19.847120 16.227882 45.844772
5678 1 19.851497 18.383739 47.724379
5679 1 21.594737 16.496618 47.819200
5680 1 21.748365 18.457519 45.735379
5681 1 19.727817 16.767331 49.867828
5682 1 19.441123 18.665825 51.710971
5683 1 21.809878 16.638797 51.799042
5684 1 21.712897 18.876968 50.065818
5685 1 19.514749 16.525792 53.771800
5686 1 19.910129 18.629657 55.739173
5687 1 21.899255 16.680408 55.852622
5688 1 21.874420 18.236835 53.823157
5689 1 19.853446 16.386252 58.172709
5690 1 20.000464 18.421402 60.047412
5691 1 22.100804 16.473917 60.034889
5692 1 21.902776 18.600428 57.825473
5693 1 19.942178 16.333585 61.937197
5694 1 19.788906 18.553897 64.039764
5695 1 21.875427 16.271308 63.934466
5696 1 21.939296 18.302471 61.933956
5697 1 19.952153 16.341886 66.046602
5698 1 17.967978 20.072898 71.412750
5699 1 22.184443 16.521426 67.844904
5700 1 23.673253 16.512019 65.841484
5701 1 26.167062 12.179251 67.997345
5702 1 19.586232 16.589729 74.602546
5703 1 27.810670 12.482715 74.121897
5704 1 30.799366 26.124007 83.245534
5705 1 20.232198 16.689670 80.613379
5706 1 21.762656 16.315698 72.377008
5707 1 25.068968 19.432635 78.992280
5708 1 30.013496 14.126097 74.343617
5709 1 25.215702 14.661644 75.182389
5710 1 15.316388 16.907744 81.659846
5711 1 19.388426 13.961994 87.858699
5712 1 21.972198 18.399917 77.985924
5713 1 14.447768 22.714316 78.256024
5714 1 25.885072 18.987544 89.310818
5715 1 21.765896 24.896865 83.258446
5716 1 15.777055 9.593234 85.832405
5717 1 13.354814 10.462593 90.644565
5718 1 21.642207 4.583511 94.129336
5719 1 31.905069 7.200555 82.951181
5720 1 20.054965 15.036706 83.951882
5721 1 14.334712 14.845567 80.277231
5722 1 19.185669 17.793822 97.407519
5723 1 11.249296 14.118420 87.407732
5724 1 20.407663 8.544908 90.131259
5725 1 15.542109 23.283624 85.049533
5726 1 13.862078 22.251775 95.807600
5727 1 21.456205 23.723601 102.571360
5728 1 21.698242 13.548365 88.974899
5729 1 21.856505 18.481915 91.121872
5730 1 11.518143 14.282210 101.513865
5731 1 10.179424 21.424702 97.076491
5732 1 19.618171 9.867416 85.074259
5733 1 14.759244 28.867482 105.173196
5734 1 23.116736 7.421878 103.870293
5735 1 18.338488 15.953494 102.311373
5736 1 13.082519 16.419089 102.513308
5737 1 28.173587 20.079752 102.925890
5738 1 9.952211 9.276876 110.303864
5739 1 27.206992 19.857180 119.445056
5740 1 15.669418 13.559427 109.648255
5741 1 15.398948 18.713595 115.599764
5742 1 22.348662 24.601127 110.157656
5743 1 13.600450 15.773288 125.998749
5744 1 16.922094 16.465964 109.478411
5745 1 11.509046 17.265801 114.177796
5746 1 17.191357 18.464220 123.740044
5747 1 20.528724 24.378761 108.363443
5748 1 14.007744 13.989010 123.475170
5749 1 15.189398 16.476180 120.462822
5750 1 21.770037 13.560078 127.704530
5751 1 24.317833 7.963377 123.966025
5752 1 13.337496 26.339515 119.102698
5753 1 13.471607 20.196955 130.413986
5754 1 23.306808 20.357360 127.192083
5755 1 27.327092 18.249279 129.648379
5756 1 22.423243 23.513486 118.151687
5757 1 17.665888 9.817648 131.617976
5758 1 21.328891 19.739265 129.577006
5759 1 21.894642 15.921031 133.987276
5760 1 25.474885 21.768897 132.313435
5761 1 19.506675 20.429942 1.384080
5762 1 19.352697 22.097187 3.375341
5763 1 21.783351 20.092950 3.355485
5764 1 21.364888 22.221516 1.507046
5765 1 19.755573 19.811476 5.509566
5766 1 19.658206 22.053896 7.785518
5767 1 21.527058 20.140178 7.160199
5768 1 21.725040 22.251171 5.162471
5769 1 20.085068 20.227351 9.442701
5770 1 19.590405 22.074678 11.389638
5771 1 21.780919 20.158109 11.695961
5772 1 21.772834 22.392449 9.782267
5773 1 19.656634 20.148792 13.805934
5774 1 19.774418 22.485841 15.478977
5775 1 21.779213 20.125231 15.253585
5776 1 21.753982 21.946237 13.449098
5777 1 19.722317 20.198207 17.281149
5778 1 19.685034 21.974697 19.381328
5779 1 21.809998 20.105470 19.437597
5780 1 21.704789 22.170168 17.431521
5781 1 19.956735 19.891045 21.500272
5782 1 19.899725 22.112802 23.534672
5783 1 21.640094 20.480244 23.420576
5784 1 21.585356 22.299157 21.517538
5785 1 19.356466 20.327566 25.467071
5786 1 19.686995 22.054354 27.550601
5787 1 21.761836 20.144570 27.550580
5788 1 21.817262 22.087319 25.758070
5789 1 19.710529 19.861385 29.415380
5790 1 19.779036 22.300472 31.668882
5791 1 21.602783 20.069020 31.672065
5792 1 22.116487 21.843416 29.709358
5793 1 19.593774 20.092026 33.416664
5794 1 19.532526 22.074227 35.795853
5795 1 21.845617 20.263928 35.882726
5796 1 21.636326 21.827877 33.596660
5797 1 19.693961 20.245171 37.883958
5798 1 19.491630 22.245885 39.954209
5799 1 21.599108 20.398755 39.882433
5800 1 21.628214 22.512621 37.605015
5801 1 19.745510 20.351977 41.880630
5802 1 19.271509 22.366565 43.929810
5803 1 21.679263 20.419512 43.950710
5804 1 21.426420 22.406941 42.249601
5805 1 19.631236 20.363616 45.784071
5806 1 19.465626 22.508029 48.260896
5807 1 21.562301 20.461175 47.729281
5808 1 21.175467 22.425486 46.108551
5809 1 19.625280 20.370751 49.603892
5810 1 19.791082 22.912247 52.013751
5811 1 21.766999 20.872335 52.075210
5812 1 21.711437 22.606290 49.865308
5813 1 19.882253 20.704864 53.848479
5814 1 19.625451 22.725028 56.072152
5815 1 21.773649 20.970685 55.694934
5816 1 21.875429 22.784466 53.721444
5817 1 19.705217 20.677488 57.701043
5818 1 20.186523 22.643727 59.859672
5819 1 21.901605 20.581632 60.025903
5820 1 22.378511 22.907540 58.013867
5821 1 20.274003 20.108621 61.821932
5822 1 20.048191 22.738646 63.790301
5823 1 22.226622 20.415170 63.841181
5824 1 21.957255 22.502119 61.983318
5825 1 24.193641 20.444571 65.718627
5826 1 24.447228 21.250866 76.876534
5827 1 19.885486 22.677066 68.193914
5828 1 23.689817 18.157559 68.094290
5829 1 26.343193 14.293059 69.806283
5830 1 22.216907 20.376599 71.825917
5831 1 21.943478 18.586902 70.126794
5832 1 20.376838 20.926147 73.723125
5833 1 20.721984 16.155717 69.846543
5834 1 15.693543 26.691222 72.107574
5835 1 31.714593 18.945473 76.769795
5836 1 4.745760 22.488054 76.923598
5837 1 27.099730 15.916921 77.427041
5838 1 22.381339 16.357192 76.358961
5839 1 17.964607 18.707306 84.960376
5840 1 21.156618 23.119328 77.753317
5841 1 16.206323 18.750431 87.145176
5842 1 19.803307 22.725120 82.874710
5843 1 20.522852 20.166102 82.470014
5844 1 1.088236 26.320380 84.576747
5845 1 21.396157 17.248016 82.857798
5846 1 8.279041 27.881040 83.148551
5847 1 23.150893 25.709311 85.623496
5848 1 19.392279 20.794115 84.878998
5849 1 15.881078 16.814556 96.709495
5850 1 21.779961 16.156116 88.481825
5851 1 20.969865 13.177026 97.275639
5852 1 19.143278 20.748548 96.014904
5853 1 13.256587 19.952655 100.675927
5854 1 18.401970 18.378944 100.242639
5855 1 13.962662 16.484795 93.909732
5856 1 13.253360 19.499683 86.115763
5857 1 10.093739 19.120334 100.751395
5858 1 17.491307 21.080969 107.774172
5859 1 15.426804 9.407516 100.563437
5860 1 19.520832 20.120987 98.545877
5861 1 21.607565 20.066619 106.324347
5862 1 22.032603 18.154823 118.699017
5863 1 18.064863 19.013969 109.413247
5864 1 19.494864 15.159410 104.422084
5865 1 20.791721 17.651584 102.700926
5866 1 12.089329 22.928985 112.004770
5867 1 18.835466 23.406592 115.942300
5868 1 15.189134 13.230118 114.199358
5869 1 23.438311 22.439662 122.425830
5870 1 19.929888 27.587643 115.753519
5871 1 20.560727 15.249901 114.996054
5872 1 17.216146 23.575587 112.019741
5873 1 15.649736 15.849387 123.964315
5874 1 19.483199 26.051081 121.399126
5875 1 19.603823 19.239613 113.381997
5876 1 28.793281 9.419034 121.514559
5877 1 18.767665 20.447113 123.637983
5878 1 15.300401 22.164677 126.051520
5879 1 22.732617 20.747147 117.947334
5880 1 15.523427 28.043098 123.945737
5881 1 18.335290 20.930998 120.889478
5882 1 21.160432 27.900343 125.292902
5883 1 20.103392 22.097233 129.655358
5884 1 14.980580 24.532921 117.471140
5885 1 15.381061 20.061514 127.863633
5886 1 19.644178 22.346329 134.087389
5887 1 21.607638 20.155388 134.085217
5888 1 23.919753 18.151172 133.951827
5889 1 19.527467 24.130539 1.521202
5890 1 19.382006 26.283538 3.609263
5891 1 21.312906 24.222910 3.279800
5892 1 21.274775 26.237432 1.284578
5893 1 19.522257 24.426483 5.538621
5894 1 19.651751 26.310019 7.633336
5895 1 21.933486 24.283593 7.448153
5896 1 21.778298 26.253532 5.286722
5897 1 19.942701 24.323724 9.263180
5898 1 19.733219 26.109122 11.264666
5899 1 21.751678 24.148811 11.538312
5900 1 21.830221 26.234031 9.489684
5901 1 19.930342 24.030072 13.237573
5902 1 19.392579 26.092670 15.542571
5903 1 21.697993 24.259178 15.270967
5904 1 21.650928 26.337454 13.683375
5905 1 19.862338 23.984751 17.660420
5906 1 19.960142 25.991127 19.633142
5907 1 21.787169 23.717319 19.467729
5908 1 21.931279 26.058267 17.369897
5909 1 19.751112 24.210717 21.600818
5910 1 19.740324 26.191117 23.798393
5911 1 21.857362 24.211498 23.341682
5912 1 22.011638 26.003772 21.306018
5913 1 20.082877 23.975223 25.461524
5914 1 19.897047 26.295803 27.448408
5915 1 21.782897 24.020743 27.911219
5916 1 21.942476 26.777450 25.553542
5917 1 19.995036 24.346858 29.969855
5918 1 19.936156 26.587730 31.527828
5919 1 21.714438 24.228712 31.807361
5920 1 21.828565 26.197136 29.684284
5921 1 19.696028 23.967598 33.715296
5922 1 19.710820 26.102249 35.639585
5923 1 21.701868 23.996927 35.789339
5924 1 21.428460 26.383054 33.705438
5925 1 19.814540 24.284159 37.813010
5926 1 19.296735 26.365231 39.617572
5927 1 21.490952 24.255521 39.815863
5928 1 21.721518 26.168973 37.698168
5929 1 19.515863 24.440456 41.685293
5930 1 19.691014 26.444059 43.709891
5931 1 21.638114 24.412146 43.935257
5932 1 21.465440 26.438586 41.753405
5933 1 19.416107 24.330249 46.003908
5934 1 19.319696 26.863594 47.883978
5935 1 21.517290 24.870423 47.516714
5936 1 21.545735 26.672146 45.637127
5937 1 19.861414 24.441441 49.807170
5938 1 19.793992 26.479823 51.935552
5939 1 21.966164 24.575711 51.629609
5940 1 21.699626 26.602293 49.520646
5941 1 19.573954 24.610726 54.027488
5942 1 19.832622 26.723469 55.884198
5943 1 21.776452 24.526939 55.614401
5944 1 21.845070 26.416944 53.892507
5945 1 20.280607 24.526375 57.773728
5946 1 19.863052 26.653554 60.058870
5947 1 22.090849 24.441437 60.297290
5948 1 22.173697 26.614019 58.149475
5949 1 19.701262 24.386130 61.825096
5950 1 19.771501 26.892818 63.798375
5951 1 21.905956 24.780909 63.481686
5952 1 21.990980 26.937006 61.859560
5953 1 21.869765 18.615803 65.551385
5954 1 14.079994 28.445218 68.520945
5955 1 22.058054 26.530814 70.404525
5956 1 17.856821 26.658990 66.011795
5957 1 9.982776 22.296641 70.428007
5958 1 14.014868 22.101764 70.676489
5959 1 10.244206 23.952735 75.888084
5960 1 14.093213 28.814534 71.876586
5961 1 22.706375 26.903623 74.863104
5962 1 29.414946 4.653876 77.453784
5963 1 23.543351 27.349040 81.470483
5964 1 15.651984 24.892964 74.018283
5965 1 14.325748 25.334614 78.832289
5966 1 12.806474 27.017109 76.612832
5967 1 16.405726 22.679114 72.261189
5968 1 22.446342 1.449075 76.429749
5969 1 12.574430 17.828063 81.532393
5970 1 10.749524 19.558571 85.561135
5971 1 15.926532 19.975688 78.910596
5972 1 15.167129 27.983635 78.576528
5973 1 10.146366 23.576789 80.672802
5974 1 25.832996 18.651387 94.507851
5975 1 11.868566 24.306822 90.329762
5976 1 3.449044 25.732948 88.814103
5977 1 10.506229 19.025512 90.193432
5978 1 11.515152 21.579566 89.770498
5979 1 20.362064 19.172324 79.925030
5980 1 14.301681 25.328184 94.837244
5981 1 15.076782 18.274034 92.118791
5982 1 20.047087 24.201890 90.146940
5983 1 16.612415 0.625070 103.335306
5984 1 17.630774 20.355465 80.395204
5985 1 19.632096 19.292300 89.569789
5986 1 20.776829 30.248927 103.443569
5987 1 29.380770 24.175141 97.091704
5988 1 9.888583 26.266841 103.069817
5989 1 18.372572 15.486926 95.666432
5990 1 29.725281 0.215653 106.143999
5991 1 20.407109 20.134452 108.735983
5992 1 16.419447 24.812258 93.609183
5993 1 22.959060 29.713638 108.529493
5994 1 24.773468 25.946644 110.079551
5995 1 26.402063 30.228067 116.106402
5996 1 27.826130 29.916151 109.091498
5997 1 14.886274 30.872262 121.947104
5998 1 28.555600 32.598920 116.920489
5999 1 14.437939 17.896899 110.428124
6000 1 12.507397 25.153948 116.625434
6001 1 22.351603 20.387019 123.058436
6002 1 18.386389 19.376906 116.441183
6003 1 19.412636 28.390299 123.380815
6004 1 20.393962 25.420209 114.590226
6005 1 21.506991 26.290429 122.909008
6006 1 17.423680 25.848297 123.099854
6007 1 21.760593 22.022015 132.007556
6008 1 26.016603 30.031340 128.212450
6009 1 23.391863 28.259235 131.801292
6010 1 19.401379 24.171314 127.599449
6011 1 17.997752 20.434783 129.855156
6012 1 24.015949 13.211440 120.661294
6013 1 17.281969 18.290837 128.178474
6014 1 21.778049 24.312939 134.334265
6015 1 21.762357 22.536347 127.772783
6016 1 21.655898 27.969659 129.463824
6017 1 19.586042 28.378728 1.389381
6018 1 19.445899 30.418294 3.309488
6019 1 21.455540 28.444944 3.467169
6020 1 21.571354 30.604139 1.163352
6021 1 19.862330 28.226510 5.584900
6022 1 19.775199 30.503813 7.115276
6023 1 21.773107 28.552473 7.497404
6024 1 21.671509 30.674136 5.489597
6025 1 19.650794 28.169202 9.466909
6026 1 20.011557 30.018648 11.389392
6027 1 21.793774 28.204619 11.334025
6028 1 21.657368 30.463820 9.274485
6029 1 19.731404 28.132526 13.827706
6030 1 19.732411 30.366464 15.765724
6031 1 21.716512 28.220879 15.703310
6032 1 21.740870 30.561855 13.748139
6033 1 19.755355 28.031837 17.602025
6034 1 19.582606 30.138261 19.584860
6035 1 21.728360 28.173215 19.210585
6036 1 21.762115 30.154745 17.401489
6037 1 19.507997 28.079924 21.694041
6038 1 19.320849 30.206751 23.643886
6039 1 21.962657 28.134824 23.436129
6040 1 21.585106 30.068509 21.487013
6041 1 19.349502 28.252341 25.373587
6042 1 19.807941 30.078547 27.272275
6043 1 22.089204 28.273022 27.615251
6044 1 21.795653 30.303000 25.464528
6045 1 19.710715 28.621431 29.524154
6046 1 19.907475 30.568587 31.347371
6047 1 21.575988 28.406193 31.739127
6048 1 21.901385 30.463500 29.601215
6049 1 19.564717 28.432863 33.596647
6050 1 19.649501 30.131561 35.668960
6051 1 21.927476 28.210428 35.875244
6052 1 21.805481 30.377709 33.394316
6053 1 19.763208 28.007556 37.559030
6054 1 19.726203 30.366507 39.552954
6055 1 21.498199 28.169053 39.700341
6056 1 21.718623 30.214890 37.835040
6057 1 19.593998 28.709786 41.544052
6058 1 19.799166 30.769640 44.004618
6059 1 21.370667 28.850820 43.320720
6060 1 22.020608 30.797387 41.507095
6061 1 19.444214 28.749321 45.645322
6062 1 19.673551 30.758289 47.811506
6063 1 21.548158 28.730107 47.897264
6064 1 22.021436 30.525417 45.804135
6065 1 19.516020 28.525379 49.934587
6066 1 19.581960 30.567454 51.804420
6067 1 21.411837 28.474403 52.063311
6068 1 21.932304 30.719987 49.941672
6069 1 19.430944 28.612958 53.991841
6070 1 19.607489 30.895033 55.772796
6071 1 21.708707 28.829201 55.770173
6072 1 21.498725 30.497923 53.854219
6073 1 19.580041 28.703466 58.202824
6074 1 19.842066 30.929341 59.760155
6075 1 22.056047 29.038304 59.748428
6076 1 21.608401 30.614352 57.727391
6077 1 19.829321 28.837915 61.895295
6078 1 19.809865 30.820916 63.852869
6079 1 21.823260 28.582035 63.855727
6080 1 21.685580 30.656040 61.997483
6081 1 18.247525 28.466410 67.972973
6082 1 17.931704 30.886055 66.404093
6083 1 13.747706 24.450618 72.089373
6084 1 20.129143 26.677859 68.469453
6085 1 23.066936 20.299771 80.084464
6086 1 24.625465 28.789015 74.336729
6087 1 17.891711 24.917638 68.340475
6088 1 20.401066 28.629493 70.169292
6089 1 16.806463 24.645771 77.820441
6090 1 23.931504 26.544911 68.646029
6091 1 18.358336 29.105208 72.572586
6092 1 18.218135 27.093917 70.864588
6093 1 21.670639 28.412595 79.602505
6094 1 8.988562 1.065172 83.972868
6095 1 23.458078 32.664092 83.710520
6096 1 25.867843 1.908306 91.538599
6097 1 10.529381 27.344401 77.714420
6098 1 12.208901 29.745766 77.266817
6099 1 10.559687 24.787556 87.278492
6100 1 12.593168 27.692505 79.834557
6101 1 25.455731 23.906726 78.613668
6102 1 13.582226 26.822087 85.469128
6103 1 12.321024 28.649765 82.345942
6104 1 16.121994 30.835851 104.451004
6105 1 14.281142 18.267862 98.329095
6106 1 17.180288 23.240465 91.704265
6107 1 15.681530 24.287534 101.943511
6108 1 21.524764 31.693772 95.319083
6109 1 8.393630 29.973690 102.519585
6110 1 11.240741 2.428653 99.929523
6111 1 12.436349 16.478675 99.835954
6112 1 20.201278 16.776503 92.681689
6113 1 3.951841 28.491717 99.459413
6114 1 18.601982 23.692264 101.889007
6115 1 19.065085 13.422828 82.175176
6116 1 26.507312 25.475519 107.906743
6117 1 21.027357 21.555245 89.452549
6118 1 14.619651 31.036630 109.197199
6119 1 13.418717 25.016096 97.423498
6120 1 12.820001 30.731774 98.674974
6121 1 23.398072 20.979212 110.740225
6122 1 19.484876 17.143856 108.985433
6123 1 13.911917 20.674272 105.976787
6124 1 22.555025 25.726303 116.456505
6125 1 31.724113 29.299813 103.295721
6126 1 14.580689 26.809324 116.023165
6127 1 20.065414 24.946797 118.081410
6128 1 17.287040 28.069912 121.737831
6129 1 15.885092 27.177429 118.656550
6130 1 19.874489 1.863419 129.825101
6131 1 20.263535 2.283704 125.501102
6132 1 28.557860 18.660322 115.629970
6133 1 23.786064 27.557120 127.196568
6134 1 25.558341 28.586368 118.738821
6135 1 15.597286 29.865658 129.840434
6136 1 28.259889 30.841817 122.535528
6137 1 15.668489 23.870029 123.783556
6138 1 17.618023 27.807961 125.835771
6139 1 26.352873 28.404795 130.104471
6140 1 27.014092 26.009830 129.533944
6141 1 21.574529 26.190164 132.011484
6142 1 19.510527 30.430802 133.939919
6143 1 23.446987 26.863077 124.576659
6144 1 19.561383 28.224159 127.706254
6145 1 23.497362 32.299271 1.036572
6146 1 23.690741 1.525817 3.306165
6147 1 25.594324 32.363761 3.151127
6148 1 25.769476 1.775769 1.137542
6149 1 23.621455 32.639536 5.272699
6150 1 23.801242 1.790434 7.505323
6151 1 25.906300 32.372146 7.485379
6152 1 25.601853 1.728224 5.437806
6153 1 23.880338 32.285778 9.489678
6154 1 23.802001 1.502853 11.516328
6155 1 25.928818 32.576353 11.407626
6156 1 25.807987 1.971593 9.429083
6157 1 23.926436 32.456604 13.759636
6158 1 23.506147 1.598198 15.620330
6159 1 25.671681 32.353445 15.632993
6160 1 26.173887 1.436802 13.621685
6161 1 23.687582 32.435695 18.081135
6162 1 23.678575 1.945479 19.296428
6163 1 25.886757 32.338549 19.459600
6164 1 25.925682 1.689384 17.788988
6165 1 23.887430 32.057739 21.404703
6166 1 23.664361 1.833525 23.169515
6167 1 25.740386 32.547739 23.438040
6168 1 26.088124 1.486242 21.338300
6169 1 23.869559 32.622080 25.714493
6170 1 23.974637 1.702397 27.581864
6171 1 25.943374 32.564679 27.437585
6172 1 25.813138 1.718733 25.342128
6173 1 23.881559 32.250282 29.801614
6174 1 23.517026 1.843809 31.779183
6175 1 25.820007 32.591050 31.684824
6176 1 25.794034 1.779725 29.708879
6177 1 23.491959 32.531700 33.897803
6178 1 23.719681 1.600330 35.499161
6179 1 25.767571 32.245004 35.436592
6180 1 25.816895 1.823766 33.694932
6181 1 23.906235 32.470379 37.401572
6182 1 23.768187 1.826668 39.741606
6183 1 25.875969 32.540045 39.450822
6184 1 25.591995 1.772584 37.587352
6185 1 23.868137 32.375642 41.473386
6186 1 23.984347 1.575010 43.476179
6187 1 26.096735 32.567398 43.374907
6188 1 25.815186 1.854960 41.384720
6189 1 23.953808 32.684634 45.897890
6190 1 23.593030 1.949191 47.952659
6191 1 26.061643 32.668425 47.896190
6192 1 25.906452 1.930073 45.478459
6193 1 23.893418 32.661258 49.470253
6194 1 23.938087 1.770356 51.736781
6195 1 25.677630 32.306677 51.532774
6196 1 25.693559 1.894070 49.762450
6197 1 23.815043 32.619827 53.830822
6198 1 23.708089 1.906669 55.817588
6199 1 25.738802 0.140806 55.986974
6200 1 25.741858 1.831679 53.735577
6201 1 23.990732 32.551323 57.796366
6202 1 23.959130 2.220099 59.956117
6203 1 25.865876 0.143560 59.940602
6204 1 25.667383 2.073902 58.113989
6205 1 24.186986 0.091202 62.144835
6206 1 23.816991 2.161566 63.831469
6207 1 25.873309 32.525477 64.139615
6208 1 25.919189 2.035281 61.999421
6209 1 23.746534 0.148695 65.955316
6210 1 25.627190 0.154101 68.319636
6211 1 26.924321 28.418893 72.560995
6212 1 25.577359 30.653944 66.257057
6213 1 26.004656 30.497427 70.583336
6214 1 30.185098 30.851767 70.280863
6215 1 22.759906 32.720070 88.918709
6216 1 26.144316 0.107509 72.810857
6217 1 24.157319 0.207006 74.577910
6218 1 5.211433 26.497495 78.137430
6219 1 26.854296 31.996614 76.751493
6220 1 22.456866 28.551246 76.757448
6221 1 21.059974 1.621553 84.478536
6222 1 23.143351 28.301332 84.874983
6223 1 24.275987 0.568008 80.485108
6224 1 29.047878 32.504273 81.023274
6225 1 18.296880 32.672991 82.178325
6226 1 21.604277 32.655630 81.915910
6227 1 18.555908 1.705088 77.524347
6228 1 10.871414 4.990373 82.723933
6229 1 21.081411 30.101782 100.444776
6230 1 23.228675 30.657361 90.552536
6231 1 21.775053 6.975099 88.222883
6232 1 15.221888 25.745472 90.118067
6233 1 18.692823 32.505788 104.788006
6234 1 18.508113 28.882423 92.898410
6235 1 25.117054 2.392592 87.662898
6236 1 26.050968 2.227975 94.134591
6237 1 21.558330 26.541624 98.169378
6238 1 25.657920 14.106928 98.975374
6239 1 22.985460 21.924269 108.193643
6240 1 1.691198 4.351039 100.206372
6241 1 30.674419 0.719825 102.284508
6242 1 23.376737 3.024295 104.149409
6243 1 1.383013 30.999058 107.175986
6244 1 20.116445 28.836150 108.551490
6245 1 31.873851 31.903558 104.813853
6246 1 5.255850 11.957838 114.996247
6247 1 26.484686 9.436529 114.302791
6248 1 30.414277 4.926210 121.650447
6249 1 24.495182 32.409213 112.690269
6250 1 21.463332 18.564443 99.170581
6251 1 25.559543 2.147676 114.585910
6252 1 23.808705 13.709836 102.621926
6253 1 16.993252 30.607922 109.694913
6254 1 16.796647 5.901420 118.480988
6255 1 21.283996 6.705965 123.509643
6256 1 21.041570 32.502452 125.462950
6257 1 27.850361 0.191234 125.060634
6258 1 19.843094 7.919622 127.862743
6259 1 28.290587 32.628218 120.074844
6260 1 21.443562 8.750408 115.340023
6261 1 18.422022 0.020725 125.997869
6262 1 27.361770 1.679035 129.997547
6263 1 26.108126 1.243841 120.263913
6264 1 27.137728 3.116027 125.159753
6265 1 29.918854 5.860226 128.331216
6266 1 23.925114 3.593461 131.921882
6267 1 24.455436 3.486159 124.526477
6268 1 25.789016 1.624142 131.943823
6269 1 28.026060 30.594223 130.448785
6270 1 23.735583 1.791428 134.134033
6271 1 25.662745 32.552115 134.175502
6272 1 27.897078 0.071595 132.160199
6273 1 23.663218 3.859690 1.508585
6274 1 23.864688 5.697266 3.352552
6275 1 25.785049 3.373871 3.322280
6276 1 25.522529 5.897290 1.512715
6277 1 23.900849 3.662490 5.363002
6278 1 23.659588 5.631895 7.147139
6279 1 25.798709 3.688840 6.973506
6280 1 25.533191 5.713039 5.169788
6281 1 23.643460 3.751889 9.349717
6282 1 24.000881 5.507284 11.170302
6283 1 25.874222 3.309999 11.660459
6284 1 25.888107 5.842748 8.786168
6285 1 24.172847 3.699172 13.474415
6286 1 23.681381 5.843749 15.532480
6287 1 25.550657 3.749553 15.438533
6288 1 25.486343 5.883283 13.365332
6289 1 23.877779 3.704560 17.332535
6290 1 23.813701 6.040293 19.578615
6291 1 26.151137 3.739738 19.757454
6292 1 25.927369 5.789156 17.566451
6293 1 23.843734 4.005936 21.442297
6294 1 23.565604 5.778431 23.623159
6295 1 25.742677 4.362161 23.376764
6296 1 25.716266 5.830617 21.146328
6297 1 23.555601 3.717672 25.446106
6298 1 23.541927 5.852489 27.327963
6299 1 25.911115 3.710998 27.502388
6300 1 25.640514 5.730173 25.545136
6301 1 23.706347 3.877706 29.359711
6302 1 23.875676 5.721602 31.368964
6303 1 25.676095 3.685871 31.636614
6304 1 25.970786 5.729702 29.694976
6305 1 23.749102 3.941795 33.609495
6306 1 23.924843 5.918090 35.586384
6307 1 25.750263 3.715372 35.439974
6308 1 25.997814 5.794612 33.714718
6309 1 23.852275 4.030124 37.703750
6310 1 23.823578 6.123460 40.058101
6311 1 25.771027 3.978770 39.561884
6312 1 25.840686 6.037944 37.679020
6313 1 24.087602 3.915197 41.427688
6314 1 24.088441 6.262732 43.728316
6315 1 25.818362 3.902316 43.763053
6316 1 25.985055 6.271190 41.713088
6317 1 23.833064 3.448907 45.655029
6318 1 23.875380 5.826538 47.704631
6319 1 25.857863 3.707240 47.714770
6320 1 25.902893 5.926044 46.065534
6321 1 23.426820 3.908110 50.091389
6322 1 24.215285 5.868332 51.759246
6323 1 25.590342 3.616565 51.646504
6324 1 25.827448 5.851789 49.462311
6325 1 23.683606 3.787760 53.999199
6326 1 24.368451 5.959975 55.767074
6327 1 25.767655 3.674608 55.897046
6328 1 25.941021 5.988077 53.664402
6329 1 23.842713 3.946877 57.630429
6330 1 24.268393 5.896265 59.520724
6331 1 26.231959 3.846398 59.833023
6332 1 26.466284 5.605739 57.571426
6333 1 23.774806 4.002903 61.822698
6334 1 24.100796 5.952707 63.806833
6335 1 26.079470 4.133875 63.771070
6336 1 25.938490 6.130414 61.827102
6337 1 24.242272 4.055097 65.834855
6338 1 23.640393 10.229092 68.232285
6339 1 22.348831 4.320866 68.204181
6340 1 27.627524 1.989399 68.379356
6341 1 21.988926 30.561765 70.397647
6342 1 31.947820 4.525429 69.941523
6343 1 23.004701 30.506302 74.986374
6344 1 30.523539 2.144892 74.010306
6345 1 23.837261 31.823829 77.135995
6346 1 16.407483 10.068075 76.620333
6347 1 23.160706 4.764380 80.285953
6348 1 17.319542 12.384883 76.422527
6349 1 18.009827 10.685080 74.384709
6350 1 21.551460 4.246728 84.905110
6351 1 18.305424 3.312260 75.362244
6352 1 27.127697 5.669353 79.211536
6353 1 25.106415 28.428649 92.271689
6354 1 24.227124 8.870838 78.971459
6355 1 19.207320 25.466408 81.840231
6356 1 30.198400 6.729181 74.039426
6357 1 20.622473 29.115732 84.492769
6358 1 23.255522 2.264615 82.087504
6359 1 30.998112 6.179093 90.915178
6360 1 30.622514 4.835996 82.314646
6361 1 26.034650 7.803617 93.446376
6362 1 24.163483 6.372971 92.318050
6363 1 27.583922 6.957466 89.628888
6364 1 21.883090 11.853366 93.443385
6365 1 26.803853 2.463378 100.143270
6366 1 23.573695 30.131368 100.232202
6367 1 19.853646 27.949063 99.786234
6368 1 29.983315 26.105389 92.308604
6369 1 24.242139 7.785374 89.786472
6370 1 25.077207 7.425568 98.402899
6371 1 21.883852 29.811394 98.039528
6372 1 10.397848 0.932090 95.199221
6373 1 23.088149 31.762345 102.198874
6374 1 19.974371 30.005708 110.820549
6375 1 25.954346 6.573539 114.931901
6376 1 27.901694 11.649334 103.876828
6377 1 19.074939 16.905358 111.546218
6378 1 26.735158 13.538712 114.124233
6379 1 16.781245 3.165236 120.744666
6380 1 21.438501 15.517789 110.901171
6381 1 17.444555 6.487327 115.793883
6382 1 18.105059 31.983961 119.639252
6383 1 1.593535 7.542001 110.036575
6384 1 22.759914 1.126959 114.161040
6385 1 17.028103 10.698507 113.894726
6386 1 19.422828 16.234825 127.979602
6387 1 16.374577 0.322993 121.629893
6388 1 31.957238 5.067274 119.378701
6389 1 21.783921 7.555390 129.301278
6390 1 11.243127 7.766099 123.681616
6391 1 31.624896 10.425823 126.732223
6392 1 23.904663 5.984489 122.137849
6393 1 28.939106 1.574611 127.415055
6394 1 25.708758 10.014499 131.997373
6395 1 29.742299 3.531963 129.730375
6396 1 17.557804 11.956504 134.115483
6397 1 23.655914 5.905565 134.145356
6398 1 23.750028 8.077174 131.947980
6399 1 29.338805 1.953761 131.731703
6400 1 31.621347 5.747055 130.496515
6401 1 23.319239 7.753824 1.212661
6402 1 23.594827 10.016330 3.158472
6403 1 25.552373 7.927947 3.282715
6404 1 25.623277 9.961577 1.208208
6405 1 23.345668 8.128189 5.209075
6406 1 23.422802 9.669308 7.741602
6407 1 25.666142 7.970074 6.943772
6408 1 25.660354 9.951127 4.955232
6409 1 23.567401 7.631712 9.311721
6410 1 23.862795 10.212809 11.825703
6411 1 25.696132 8.059279 11.528662
6412 1 25.772666 9.737963 9.202893
6413 1 23.597026 8.148559 13.720261
6414 1 23.807912 10.124520 15.909246
6415 1 25.821207 7.836804 15.654588
6416 1 26.303504 9.937660 13.752731
6417 1 23.873801 8.027690 17.656641
6418 1 23.799108 10.091036 19.203856
6419 1 25.970965 7.766450 19.375505
6420 1 26.255951 9.701219 17.487385
6421 1 23.922647 8.012110 21.152203
6422 1 24.210220 9.362801 23.253945
6423 1 25.758613 7.421399 23.123987
6424 1 26.135269 9.807556 21.086476
6425 1 23.806145 7.975516 25.429832
6426 1 23.588329 10.164085 27.297458
6427 1 25.757442 7.789293 27.235933
6428 1 26.163971 9.867143 25.259384
6429 1 24.001703 8.125276 29.409880
6430 1 23.637361 10.363530 31.301625
6431 1 25.570049 8.050420 31.645630
6432 1 26.264193 10.197131 29.310633
6433 1 23.663411 8.199247 33.588228
6434 1 23.689738 10.183463 35.948610
6435 1 25.719513 7.998530 35.680325
6436 1 25.700159 9.875667 33.627555
6437 1 24.045840 8.422999 37.914647
6438 1 23.886720 10.272581 39.494923
6439 1 25.846577 8.671974 40.016756
6440 1 25.961264 10.143068 37.902437
6441 1 24.065807 8.221483 41.769768
6442 1 23.811293 10.025409 44.186949
6443 1 25.849763 8.062647 43.847184
6444 1 25.766862 10.344290 42.247251
6445 1 23.565954 7.761002 45.738413
6446 1 23.899440 9.847799 47.484289
6447 1 26.321191 8.150722 47.281863
6448 1 25.924970 10.420410 45.625126
6449 1 24.147447 8.269663 49.631743
6450 1 24.021104 10.182027 51.726201
6451 1 25.789006 8.324964 51.858243
6452 1 26.103035 10.204586 49.677545
6453 1 24.114996 8.050079 54.030814
6454 1 24.008057 10.110885 55.910867
6455 1 26.047222 7.984652 56.032090
6456 1 26.094637 10.129671 53.880527
6457 1 24.150964 7.951315 57.884522
6458 1 23.848540 10.342503 59.548076
6459 1 26.090932 8.114802 59.722339
6460 1 26.064444 10.135859 58.096178
6461 1 24.255181 7.986474 61.813727
6462 1 24.228075 10.353886 63.915827
6463 1 26.242121 8.311717 63.707135
6464 1 26.174655 10.246624 61.672145
6465 1 26.163193 7.987014 67.990206
6466 1 23.893907 8.259112 74.294251
6467 1 24.120395 2.170011 72.175599
6468 1 26.072515 10.125018 65.931620
6469 1 25.565148 6.308543 69.973939
6470 1 23.746563 12.039357 70.107039
6471 1 23.012378 9.947132 81.037172
6472 1 21.631284 8.049388 72.182755
6473 1 25.165749 1.300829 77.725932
6474 1 32.047614 10.168615 75.223641
6475 1 25.760368 8.485971 76.583180
6476 1 26.056163 8.131144 72.280280
6477 1 18.430892 31.196102 78.399338
6478 1 26.516840 8.915894 86.749144
6479 1 31.620332 32.668988 80.045477
6480 1 19.119997 2.362253 72.874453
6481 1 19.528729 5.700244 76.643417
6482 1 27.683465 6.751002 76.718879
6483 1 30.576182 10.868942 88.917372
6484 1 28.889188 30.533548 89.118314
6485 1 14.422088 2.163622 91.745274
6486 1 23.963365 12.200996 97.706622
6487 1 31.606288 15.934200 90.219204
6488 1 27.552495 13.763324 85.382613
6489 1 23.040532 4.811293 101.550910
6490 1 24.221893 12.438124 88.060249
6491 1 3.286605 6.215335 99.040616
6492 1 26.085676 4.374868 92.641377
6493 1 19.296362 23.981155 93.830475
6494 1 26.111154 28.983937 97.497005
6495 1 19.832580 13.772436 94.661213
6496 1 24.310389 2.517301 101.268330
6497 1 21.866870 11.282762 91.037875
6498 1 25.329713 10.480193 109.740088
6499 1 18.508110 30.258278 99.929095
6500 1 22.123699 15.822079 91.178967
6501 1 21.055438 1.225028 109.427753
6502 1 20.364544 7.620341 104.993927
6503 1 29.878110 28.125420 108.269225
6504 1 19.612499 2.478862 112.822300
6505 1 20.509694 6.083820 115.679688
6506 1 14.941143 5.412546 115.891121
6507 1 28.180121 5.795040 116.279728
6508 1 23.596773 7.043442 114.367507
6509 1 13.776397 7.049259 113.881138
6510 1 17.015054 12.837953 107.263732
6511 1 21.655584 12.173110 112.044364
6512 1 30.280636 8.013394 110.014435
6513 1 30.356171 9.272980 123.815846
6514 1 30.134624 8.031255 126.271250
6515 1 25.157401 7.627797 120.760813
6516 1 19.930079 5.699666 118.682789
6517 1 15.630328 29.575785 126.061581
6518 1 21.842494 16.465772 125.685057
6519 1 19.650887 8.071172 131.993840
6520 1 21.799849 5.708295 127.418590
6521 1 23.579604 11.737068 131.995851
6522 1 21.667644 11.572593 129.704106
6523 1 31.696067 9.728015 134.164750
6524 1 17.889184 1.386501 128.137739
6525 1 23.883651 9.900323 134.119396
6526 1 25.936540 7.916263 134.178844
6527 1 27.668761 9.850204 130.153987
6528 1 27.703442 10.018013 134.228920
6529 1 23.760906 12.083583 1.467209
6530 1 23.841359 13.398735 3.722468
6531 1 25.861175 11.843620 3.079490
6532 1 25.764832 14.064780 1.423999
6533 1 23.281886 11.456383 5.313237
6534 1 23.608277 13.914521 7.501002
6535 1 25.507562 11.785022 7.413315
6536 1 25.818007 13.992753 5.349084
6537 1 23.836008 11.708104 9.669979
6538 1 23.854399 13.776408 11.689804
6539 1 26.058308 11.665227 11.649370
6540 1 25.720602 13.888140 9.358546
6541 1 23.938364 11.788367 13.746935
6542 1 24.156099 14.122949 15.770213
6543 1 25.683362 11.951528 15.859064
6544 1 25.879835 14.174553 13.562152
6545 1 23.820222 11.954384 17.547991
6546 1 23.827227 13.801098 19.709194
6547 1 25.990724 11.926027 19.109893
6548 1 26.369462 14.229657 17.444089
6549 1 23.956118 11.511601 21.407672
6550 1 23.728582 13.748593 23.215806
6551 1 26.026165 12.004559 23.216600
6552 1 26.062404 14.264678 21.603197
6553 1 23.727660 12.063197 25.364777
6554 1 23.629642 13.960268 27.405449
6555 1 25.943429 12.007371 27.472741
6556 1 25.768678 14.229611 25.523448
6557 1 23.921385 12.034947 29.176208
6558 1 23.825877 13.756128 31.372600
6559 1 26.099507 11.961399 31.472941
6560 1 25.680602 14.061783 29.528162
6561 1 23.912806 12.086151 33.656979
6562 1 23.602329 14.242672 35.792453
6563 1 25.724130 12.137355 35.656570
6564 1 25.355733 14.149392 33.642675
6565 1 23.692938 12.387193 37.703314
6566 1 23.756832 14.086547 39.900750
6567 1 25.841186 12.304033 39.666256
6568 1 25.665106 14.182586 37.769753
6569 1 23.815247 12.140522 41.651499
6570 1 23.918800 14.586674 44.017928
6571 1 25.763753 12.534906 43.911624
6572 1 25.724823 14.462801 41.808275
6573 1 24.091336 12.516516 45.731072
6574 1 24.081212 14.272929 47.741351
6575 1 26.043068 12.338186 48.015063
6576 1 25.986164 14.261933 45.788059
6577 1 23.869720 12.061189 49.614131
6578 1 23.685789 14.515700 52.050339
6579 1 25.573372 12.456437 51.560973
6580 1 25.670373 14.425886 49.962551
6581 1 23.785453 12.248365 53.690295
6582 1 23.894091 14.560004 55.659846
6583 1 25.631052 12.178304 55.629331
6584 1 26.168117 14.200745 53.594418
6585 1 24.078675 12.616805 57.724646
6586 1 23.799536 14.306972 59.824773
6587 1 26.083072 12.366489 60.019921
6588 1 26.074614 14.221140 57.599151
6589 1 24.066841 12.152022 61.943696
6590 1 24.154550 14.086036 63.796598
6591 1 26.060838 12.370936 64.123067
6592 1 26.059415 14.162149 61.822231
6593 1 24.228259 12.246657 66.206046
6594 1 28.448990 14.339344 67.949061
6595 1 23.791345 8.275379 70.695435
6596 1 26.457923 18.212284 70.588806
6597 1 17.676253 11.890925 72.056652
6598 1 29.710409 12.201331 72.193287
6599 1 27.951242 4.333426 70.431976
6600 1 24.421718 16.479716 70.114297
6601 1 21.188737 14.345860 78.481350
6602 1 26.596611 8.314568 80.360265
6603 1 31.819800 14.622945 76.417468
6604 1 31.968638 14.646096 81.339693
6605 1 25.315714 3.602682 79.366415
6606 1 17.960582 15.968584 82.087400
6607 1 26.128346 5.845460 74.711974
6608 1 23.518553 16.493451 74.237241
6609 1 21.402513 6.100133 78.615913
6610 1 24.256888 6.626889 81.095391
6611 1 28.811697 11.116103 85.509789
6612 1 26.603131 2.937316 81.558235
6613 1 22.638292 5.564203 96.868296
6614 1 14.241104 14.634070 87.643589
6615 1 25.653746 16.179100 85.213312
6616 1 31.188681 7.480087 85.467429
6617 1 30.589711 14.512232 100.762849
6618 1 26.039438 12.563127 89.840475
6619 1 1.000216 12.546580 89.834966
6620 1 4.066225 5.516301 92.992405
6621 1 21.764788 11.605238 101.476284
6622 1 1.262972 11.909287 93.905360
6623 1 28.970789 11.679953 91.098243
6624 1 16.763156 17.309923 93.990004
6625 1 28.136093 6.513193 97.494696
6626 1 16.382263 7.116386 102.034094
6627 1 12.310799 13.752155 106.245464
6628 1 21.829608 25.415698 106.337310
6629 1 25.512539 3.147726 105.735891
6630 1 27.652857 11.883814 109.473885
6631 1 28.018323 6.621517 110.829439
6632 1 22.753481 8.671898 97.207194
6633 1 16.360916 5.778455 110.598834
6634 1 24.178884 12.366878 113.741315
6635 1 24.267763 21.226065 120.437545
6636 1 27.705693 7.775662 105.598954
6637 1 28.286381 15.108722 101.973476
6638 1 15.573823 8.213906 116.372418
6639 1 22.276801 17.501613 107.824940
6640 1 25.925050 19.985369 110.008174
6641 1 19.472236 12.099513 132.003834
6642 1 17.411366 5.512358 121.442658
6643 1 19.040110 1.862547 118.917490
6644 1 25.638742 12.768235 118.587887
6645 1 21.772862 11.810020 121.511916
6646 1 29.299299 18.741158 121.257124
6647 1 19.224780 11.844996 127.008785
6648 1 22.023112 7.936738 125.414795
6649 1 25.364060 12.474143 125.941145
6650 1 20.056084 9.690066 120.066101
6651 1 23.707943 13.663868 133.815809
6652 1 1.597302 20.061697 126.331479
6653 1 23.522903 16.071779 131.827846
6654 1 21.514538 11.891650 133.915061
6655 1 25.620259 14.274429 131.878996
6656 1 27.813410 14.123215 130.167496
6657 1 23.491265 15.919384 1.204958
6658 1 23.450643 17.896028 3.305603
6659 1 25.689973 15.938439 3.335424
6660 1 25.471846 17.958665 1.469083
6661 1 23.654678 15.908067 5.223787
6662 1 23.531255 18.260001 7.274408
6663 1 25.739527 16.062353 7.519229
6664 1 25.423966 17.984903 5.263489
6665 1 23.672563 16.012510 9.387586
6666 1 23.977071 18.041047 11.608304
6667 1 25.863285 15.892055 11.703395
6668 1 25.594423 18.064474 9.497322
6669 1 23.546830 16.074991 13.446148
6670 1 24.336083 18.196282 15.582526
6671 1 26.106022 16.038592 15.409588
6672 1 26.135718 17.815334 13.396659
6673 1 24.120648 16.129030 17.571506
6674 1 23.905479 17.904836 19.666327
6675 1 26.034482 15.770371 19.472944
6676 1 26.215377 17.724283 17.564155
6677 1 23.768896 16.169491 21.720891
6678 1 23.904666 18.376896 23.388280
6679 1 25.771209 16.115086 23.361979
6680 1 25.854855 18.022384 21.550308
6681 1 23.694400 16.402114 25.573617
6682 1 23.956825 18.247931 27.504977
6683 1 25.640645 16.310892 27.403971
6684 1 25.818236 17.937116 25.407213
6685 1 23.371898 15.959744 29.312036
6686 1 23.788502 18.668808 31.414203
6687 1 25.459758 16.156479 31.309251
6688 1 25.695251 18.080240 29.449588
6689 1 23.877746 16.493004 33.676386
6690 1 23.829975 18.330457 35.810429
6691 1 25.401061 15.937037 35.614503
6692 1 25.911140 17.990988 33.675130
6693 1 23.616414 15.910445 37.809482
6694 1 23.569745 18.206473 39.890036
6695 1 25.570415 16.338988 39.501969
6696 1 25.643241 18.525257 37.802433
6697 1 23.529510 16.473347 41.781400
6698 1 23.642360 18.445185 43.756083
6699 1 25.781279 16.458823 43.716736
6700 1 25.513707 18.566770 41.893278
6701 1 23.633664 16.458196 45.916003
6702 1 23.650748 18.706890 47.769944
6703 1 25.753200 16.008772 47.909607
6704 1 25.611551 18.421588 45.909774
6705 1 23.713409 16.348812 49.596697
6706 1 23.602846 18.871016 51.948204
6707 1 25.617651 16.478501 51.571336
6708 1 25.586540 18.538054 49.682850
6709 1 24.252874 16.676679 54.100916
6710 1 23.791621 18.656986 56.086028
6711 1 26.051864 16.473033 55.874569
6712 1 25.720435 18.573935 53.674225
6713 1 23.937660 16.302086 58.004099
6714 1 24.004328 18.348997 60.067758
6715 1 25.799519 16.399749 59.874649
6716 1 25.782611 18.520612 57.891664
6717 1 23.968069 16.139149 61.994085
6718 1 24.269388 18.289500 63.620381
6719 1 26.020629 15.875151 64.046688
6720 1 26.196831 18.242290 61.920150
6721 1 22.137394 14.101217 65.757971
6722 1 26.110419 22.563104 65.774017
6723 1 28.013538 16.639379 65.959963
6724 1 26.136921 24.383613 68.219049
6725 1 25.952992 12.426831 71.966073
6726 1 21.434874 18.444688 74.729915
6727 1 30.561618 17.798352 78.930151
6728 1 30.353012 16.561908 72.174104
6729 1 21.397809 6.044730 73.928462
6730 1 32.518211 15.588639 78.904555
6731 1 31.065761 10.998745 80.627930
6732 1 29.859104 15.695859 77.564115
6733 1 16.988388 12.015477 80.987525
6734 1 27.385885 23.330382 83.017889
6735 1 21.450352 9.157548 78.350012
6736 1 1.599126 14.361982 96.619076
6737 1 28.385892 9.177018 92.547061
6738 1 23.961083 22.886128 86.568034
6739 1 30.643847 20.284377 84.832430
6740 1 21.801119 9.810301 87.277813
6741 1 13.012745 21.621607 84.373424
6742 1 19.167936 30.911180 86.243925
6743 1 27.932313 14.171592 90.980026
6744 1 30.308039 15.041362 86.377960
6745 1 30.234801 13.621626 89.283559
6746 1 30.839938 17.738426 84.737713
6747 1 28.528127 18.705935 88.456082
6748 1 26.450677 16.523073 90.365086
6749 1 24.300459 7.428313 87.460811
6750 1 20.949715 20.579973 87.002268
6751 1 26.753594 11.443643 98.697370
6752 1 23.841299 20.937113 89.884929
6753 1 22.576069 20.104475 101.338454
6754 1 15.785220 21.251834 87.488158
6755 1 1.562162 29.550950 96.253434
6756 1 30.073841 19.783309 106.867600
6757 1 12.410343 20.151534 96.673824
6758 1 17.271887 11.192653 102.318309
6759 1 20.917486 16.167789 99.675619
6760 1 24.076722 21.036679 115.127373
6761 1 28.461443 21.201721 110.474635
6762 1 27.974946 17.982321 105.201633
6763 1 19.248474 14.233783 112.254976
6764 1 12.969501 15.850957 105.215462
6765 1 27.529753 24.265174 110.559981
6766 1 20.634852 19.267982 121.382320
6767 1 16.312184 11.084424 104.848059
6768 1 26.966445 25.449949 114.920287
6769 1 23.026956 14.621532 107.973261
6770 1 17.628075 12.794998 118.849561
6771 1 19.043057 6.464105 109.898758
6772 1 29.351628 20.393127 113.277548
6773 1 15.600169 16.463089 128.052300
6774 1 0.261353 13.014002 115.947395
6775 1 23.517060 13.826896 130.158050
6776 1 23.771459 11.773692 128.241909
6777 1 26.433746 18.434471 121.558872
6778 1 27.648765 18.261987 126.768678
6779 1 25.497230 14.113932 128.077034
6780 1 23.430250 15.004012 122.963893
6781 1 21.651015 17.888038 132.507566
6782 1 19.183586 17.840135 129.903291
6783 1 25.104497 20.102758 129.850707
6784 1 25.696161 20.030781 134.187514
6785 1 23.671063 20.096253 1.275047
6786 1 23.625005 22.312563 3.170156
6787 1 25.620690 20.154740 3.538944
6788 1 25.618514 22.293902 1.635796
6789 1 23.681775 20.171171 5.429151
6790 1 23.740076 22.238551 7.577128
6791 1 25.910814 20.105378 7.651989
6792 1 25.725440 22.422315 5.441082
6793 1 23.574104 20.180173 9.352661
6794 1 23.696451 22.278449 11.454530
6795 1 25.926671 20.242723 11.580172
6796 1 25.641523 22.164198 9.639773
6797 1 24.080242 19.848296 13.537330
6798 1 23.712873 21.962063 15.100091
6799 1 25.523730 20.312486 15.424204
6800 1 25.937016 22.189340 13.615050
6801 1 23.980289 20.375211 17.675470
6802 1 23.955301 22.236798 19.489604
6803 1 25.713911 19.759640 19.601519
6804 1 25.897038 22.283354 17.586528
6805 1 23.755954 20.171260 21.511756
6806 1 23.778227 21.939038 23.687859
6807 1 25.913507 20.308361 23.782023
6808 1 25.940983 22.280772 21.591242
6809 1 23.925552 19.984573 25.582168
6810 1 23.817405 22.324044 27.748482
6811 1 25.831685 20.432392 27.374349
6812 1 25.623691 22.248821 25.720402
6813 1 24.235709 20.116549 29.241577
6814 1 23.979420 22.195370 31.507557
6815 1 25.951996 20.225462 31.579369
6816 1 25.622601 22.562971 29.736492
6817 1 24.143998 20.124275 33.645434
6818 1 23.602392 22.348513 35.718370
6819 1 25.709752 20.303081 35.872548
6820 1 25.738280 22.329591 33.610545
6821 1 23.529444 20.464107 38.143868
6822 1 23.617363 22.798128 39.909281
6823 1 25.582634 20.648863 39.866160
6824 1 25.738707 22.498462 37.505494
6825 1 23.508599 20.472591 41.851190
6826 1 23.364777 22.520291 43.976362
6827 1 25.721752 20.621728 43.707982
6828 1 25.397205 22.526351 41.859656
6829 1 23.796338 20.369440 45.726713
6830 1 23.608528 22.344720 47.520565
6831 1 25.579092 20.349446 47.890512
6832 1 25.640872 22.692255 45.674458
6833 1 23.694486 20.819468 49.779640
6834 1 23.869032 22.740976 51.746680
6835 1 25.917342 20.550535 51.936049
6836 1 25.736597 22.531519 49.916362
6837 1 23.745209 20.703002 53.979616
6838 1 23.984508 22.848593 55.817305
6839 1 25.981113 20.694691 55.827821
6840 1 25.935682 22.795623 53.817411
6841 1 23.665267 20.745721 57.842584
6842 1 23.946066 22.609219 60.008223
6843 1 26.136352 20.410556 59.770887
6844 1 26.568036 22.614312 57.951771
6845 1 24.502835 20.130707 61.900574
6846 1 24.058836 22.450105 63.945246
6847 1 25.931494 20.149873 64.029073
6848 1 25.954553 22.386740 61.985735
6849 1 24.253935 25.080338 66.294299
6850 1 21.924712 22.935023 65.746485
6851 1 29.974285 26.494829 66.419408
6852 1 25.660540 18.496177 66.268483
6853 1 24.090148 22.596497 67.630269
6854 1 23.752268 14.161907 72.293020
6855 1 25.940536 15.510057 72.527330
6856 1 18.172652 24.959444 72.534252
6857 1 26.154605 17.590667 74.822658
6858 1 24.324183 26.910842 76.746925
6859 1 24.525651 17.682044 72.363850
6860 1 22.619579 22.262582 74.684438
6861 1 27.382417 10.827511 81.030393
6862 1 26.253726 25.924948 93.562348
6863 1 23.069301 10.001975 76.441297
6864 1 29.755416 14.072720 84.089366
6865 1 26.533924 12.050899 83.746503
6866 1 26.557916 19.755077 76.552372
6867 1 23.931606 20.316517 87.083521
6868 1 23.473577 14.001058 80.295704
6869 1 17.532332 8.129421 84.103446
6870 1 26.184554 21.408541 87.834191
6871 1 30.843073 17.126913 82.054864
6872 1 14.469718 17.245190 78.978086
6873 1 13.233861 19.929199 91.181699
6874 1 18.087783 19.696373 92.795692
6875 1 17.441069 21.113785 83.120576
6876 1 27.879656 25.774484 82.435016
6877 1 23.378416 20.200398 98.364837
6878 1 0.590805 17.136002 98.105842
6879 1 1.486464 22.496335 97.795417
6880 1 14.178194 31.259327 106.328466
6881 1 17.956731 8.777824 81.500209
6882 1 23.915107 24.454843 108.029408
6883 1 26.508869 14.060521 87.645347
6884 1 1.268505 16.642603 94.788646
6885 1 12.040775 17.829348 109.322267
6886 1 18.633562 19.096755 103.001896
6887 1 25.568635 20.957996 96.244391
6888 1 22.699970 18.612205 104.518831
6889 1 27.835070 20.503416 97.997919
6890 1 26.864845 27.602987 106.366737
6891 1 26.365748 8.651072 116.605628
6892 1 25.874891 24.476840 112.371541
6893 1 19.359461 19.217893 119.021936
6894 1 17.898671 30.737689 102.547883
6895 1 16.296572 21.673238 109.914393
6896 1 23.864224 3.402861 121.670442
6897 1 15.419693 16.070045 115.112705
6898 1 20.190589 17.399029 116.731869
6899 1 17.064689 25.797506 120.457066
6900 1 30.381634 13.685394 116.905679
6901 1 19.738137 17.132518 120.424798
6902 1 9.759017 1.541687 123.550466
6903 1 20.357417 12.090376 124.289675
6904 1 26.194978 26.708756 123.668497
6905 1 23.650484 18.633606 120.799116
6906 1 23.410864 19.788513 131.559378
6907 1 20.447881 20.758143 115.440227
6908 1 17.712792 14.716093 116.245250
6909 1 28.580396 26.364344 125.131411
6910 1 23.610473 22.136021 133.921435
6911 1 27.665179 22.413428 134.259197
6912 1 21.234698 25.968462 127.581687
6913 1 23.721832 24.221157 1.389265
6914 1 23.412530 26.116176 3.245219
6915 1 25.768096 24.359195 3.362850
6916 1 25.719824 26.562213 1.223207
6917 1 23.821528 24.314122 5.157847
6918 1 23.823723 26.455674 7.270648
6919 1 25.464609 24.234526 7.277883
6920 1 25.845312 26.360075 5.135205
6921 1 23.766985 24.234016 9.594020
6922 1 23.732347 26.026089 11.463661
6923 1 25.932969 23.954292 11.323033
6924 1 25.523929 26.288569 9.048483
6925 1 23.854666 24.123719 13.582939
6926 1 24.052857 26.448293 15.271583
6927 1 26.010730 24.291463 15.135016
6928 1 25.873518 26.507270 13.278218
6929 1 23.994550 24.170775 16.913458
6930 1 23.857788 25.693347 19.321926
6931 1 25.980777 24.017405 19.633857
6932 1 25.831657 26.193791 17.419316
6933 1 24.279381 24.571493 21.760300
6934 1 24.047906 26.332097 23.875868
6935 1 25.866173 24.267610 24.093488
6936 1 25.948623 26.528886 21.600413
6937 1 23.452208 24.106407 25.541111
6938 1 23.784108 25.941758 27.716164
6939 1 25.876164 24.520992 27.427328
6940 1 26.098529 26.570546 25.579469
6941 1 23.588276 24.349443 29.845085
6942 1 23.464450 26.753832 31.654963
6943 1 25.656513 24.448880 31.566424
6944 1 25.834564 26.177442 29.571994
6945 1 23.882213 24.357545 33.740521
6946 1 23.842194 26.234476 35.503239
6947 1 25.768628 24.457527 35.553122
6948 1 25.612623 26.652353 33.493790
6949 1 23.803498 24.561719 37.751379
6950 1 23.708636 26.337560 39.823196
6951 1 25.691501 24.164980 39.886448
6952 1 26.010890 26.514993 37.627553
6953 1 23.531988 24.666481 41.965612
6954 1 23.537195 26.882561 43.769654
6955 1 25.699206 24.736704 43.862349
6956 1 25.620446 26.365998 41.767612
6957 1 23.551703 24.605360 45.467616
6958 1 23.623525 26.757040 47.772557
6959 1 25.746000 24.456057 47.722200
6960 1 25.913146 26.313846 45.826094
6961 1 23.677647 24.877053 49.607789
6962 1 23.519927 26.719714 52.049679
6963 1 25.989267 24.595662 52.031027
6964 1 25.763628 26.746839 49.971949
6965 1 23.875029 24.767960 53.734125
6966 1 23.624431 26.655026 55.887157
6967 1 25.735297 24.618424 55.874927
6968 1 25.817876 26.770885 53.621462
6969 1 24.415482 24.590796 58.036250
6970 1 24.082631 26.527241 60.246990
6971 1 26.162263 24.574518 60.008839
6972 1 25.901609 26.791481 57.794074
6973 1 24.150933 24.489241 61.994733
6974 1 24.099633 26.494857 63.885540
6975 1 25.694550 24.664083 64.260588
6976 1 25.923219 26.982975 61.929520
6977 1 21.680801 26.624433 65.562300
6978 1 23.587805 28.541921 65.963673
6979 1 23.939844 28.797228 70.369601
6980 1 25.867214 28.613502 68.025417
6981 1 16.810609 20.984994 75.945195
6982 1 21.736619 28.785670 72.711046
6983 1 30.057239 20.458361 67.989440
6984 1 21.936993 24.805966 72.712889
6985 1 26.004789 24.517354 76.006570
6986 1 23.330809 16.330706 81.015430
6987 1 25.584892 27.326342 86.700478
6988 1 19.348400 27.500908 79.918912
6989 1 22.257987 29.962834 82.616190
6990 1 11.957039 22.112762 79.151421
6991 1 29.433135 11.344131 83.003914
6992 1 20.750266 30.351305 88.492485
6993 1 17.606525 16.016541 76.258429
6994 1 22.228113 31.133264 85.489027
6995 1 24.233684 19.905587 73.703022
6996 1 30.139738 28.493084 78.776655
6997 1 32.168179 28.365287 82.904940
6998 1 15.626056 24.191202 80.588963
6999 1 24.532325 25.110270 87.979069
7000 1 27.581029 26.815360 84.535702
7001 1 13.987861 23.299543 89.750844
7002 1 4.037227 32.644652 80.720728
7003 1 24.231937 21.921628 94.055939
7004 1 23.798200 17.982043 86.095357
7005 1 18.348674 22.045581 103.778739
7006 1 25.273208 20.623977 83.757980
7007 1 21.980168 23.304380 94.739980
7008 1 16.685147 22.083487 97.269397
7009 1 2.391329 14.018975 102.177656
7010 1 24.686789 30.065102 110.566219
7011 1 24.785402 23.637763 95.820182
7012 1 17.187779 21.222958 99.378170
7013 1 24.429937 23.170092 102.367246
7014 1 16.835051 27.267323 103.376961
7015 1 17.400888 0.206552 114.209685
7016 1 25.434231 27.344365 104.172082
7017 1 23.230069 26.477093 112.363968
7018 1 22.471225 23.140726 115.307751
7019 1 21.402024 21.326579 112.482005
7020 1 3.864960 29.734934 120.811383
7021 1 25.292088 27.592202 114.220529
7022 1 30.003524 25.969763 110.615303
7023 1 29.191359 25.833005 118.507337
7024 1 22.938386 19.148531 112.548283
7025 1 14.922958 28.664954 110.972532
7026 1 18.377554 23.276955 123.122554
7027 1 27.634991 23.803961 117.305199
7028 1 17.257199 30.111824 123.508369
7029 1 25.625369 24.035573 122.341732
7030 1 19.512632 14.802573 118.442241
7031 1 29.325055 22.626462 132.089667
7032 1 27.999301 12.704560 127.540637
7033 1 25.614176 0.708305 122.963261
7034 1 27.893133 23.294061 127.871836
7035 1 16.479743 9.480885 123.327313
7036 1 23.708422 26.065269 130.197777
7037 1 23.051645 15.878224 128.221545
7038 1 23.478982 26.300706 134.144695
7039 1 25.353902 24.210801 134.146568
7040 1 31.706874 20.265934 132.366448
7041 1 23.348924 28.305954 1.449571
7042 1 23.701057 30.612409 3.159412
7043 1 25.475027 28.504591 3.098335
7044 1 25.663393 30.597164 1.050708
7045 1 23.888313 28.466894 5.172197
7046 1 23.714540 30.491096 7.360948
7047 1 25.940509 28.262643 7.279911
7048 1 26.034723 30.074144 5.428100
7049 1 23.797678 28.560412 9.158179
7050 1 23.441780 30.649807 11.582724
7051 1 25.814461 28.402881 11.139962
7052 1 26.054149 30.229151 9.249322
7053 1 23.505758 28.445949 13.345735
7054 1 23.811207 30.256636 15.417621
7055 1 25.778885 28.551213 15.265411
7056 1 25.494928 30.055068 13.082622
7057 1 23.952887 28.292980 17.858393
7058 1 23.829135 30.360300 19.623202
7059 1 25.928681 28.026383 19.389446
7060 1 25.861981 30.603760 17.336507
7061 1 23.549164 28.315947 20.994123
7062 1 23.764111 30.407820 23.526672
7063 1 25.656499 28.669596 23.398815
7064 1 25.796584 30.269500 21.553036
7065 1 23.946606 28.394988 25.422143
7066 1 23.754619 30.485688 27.627360
7067 1 25.746828 28.435082 27.755832
7068 1 25.871123 30.607896 25.574463
7069 1 23.760214 28.226039 29.579338
7070 1 23.857997 30.010424 31.562955
7071 1 25.743985 28.371887 31.502102
7072 1 25.959654 30.746194 29.507592
7073 1 23.445651 28.225967 33.714877
7074 1 23.764628 30.267705 35.592086
7075 1 25.867286 28.245125 35.670745
7076 1 25.748554 30.589536 33.245581
7077 1 23.821355 28.266521 37.783999
7078 1 23.930702 30.651949 39.507568
7079 1 25.938456 28.551350 39.637270
7080 1 26.169598 30.445255 37.717430
7081 1 23.594379 28.480365 41.595982
7082 1 24.082058 30.379493 43.628087
7083 1 25.959177 28.466759 43.748328
7084 1 26.001855 30.322031 41.605472
7085 1 24.157554 28.559993 45.908552
7086 1 23.818067 30.491556 48.174126
7087 1 26.344090 28.326244 47.985366
7088 1 25.723570 30.655156 45.572894
7089 1 23.748032 28.404340 49.998714
7090 1 23.529059 30.703873 52.018789
7091 1 25.555216 28.735653 51.719311
7092 1 26.250211 30.366747 49.655740
7093 1 23.650902 28.711629 53.884442
7094 1 23.693682 30.710409 55.672928
7095 1 25.717197 28.659358 55.621934
7096 1 25.926666 30.712239 53.757303
7097 1 23.998718 28.754935 57.982477
7098 1 24.361267 30.660149 60.221250
7099 1 26.308687 28.800870 60.154741
7100 1 26.037828 30.868854 58.280560
7101 1 23.841770 28.811618 61.977845
7102 1 23.934019 30.903359 63.914893
7103 1 25.647311 28.720594 64.328765
7104 1 26.336017 30.766614 62.004855
7105 1 21.643731 30.526706 66.025439
7106 1 27.913115 26.617407 68.350526
7107 1 20.065282 26.646587 72.887772
7108 1 27.873494 30.612679 68.235390
7109 1 27.476564 29.268417 79.405821
7110 1 20.429679 21.564797 79.712347
7111 1 25.142031 26.120496 83.302689
7112 1 18.620576 30.532034 70.009051
7113 1 17.525718 32.131242 76.106365
7114 1 22.234839 31.571272 72.741002
7115 1 30.186997 24.461275 68.012605
7116 1 15.848886 0.135891 70.232728
7117 1 17.704916 22.847261 80.977519
7118 1 20.418701 30.586918 68.243196
7119 1 20.697770 26.251480 77.259767
7120 1 24.975477 21.841973 81.253083
7121 1 12.125112 25.866960 81.613053
7122 1 25.940082 22.712976 70.109201
7123 1 1.456744 22.052439 78.685937
7124 1 25.777044 26.688957 79.025030
7125 1 15.298942 22.281464 82.629185
7126 1 13.881856 24.565276 100.156779
7127 1 23.515323 0.649987 86.408595
7128 1 16.673206 26.861754 87.885809
7129 1 25.458107 32.189592 93.189681
7130 1 24.169022 27.385136 98.966755
7131 1 13.971681 1.314189 94.113185
7132 1 17.801520 27.220520 94.943466
7133 1 27.969721 1.036926 101.726703
7134 1 20.409903 7.798721 97.328896
7135 1 13.793091 17.071556 86.856451
7136 1 17.321888 28.295088 97.578132
7137 1 20.833595 28.153898 105.617810
7138 1 0.399752 26.580003 92.886076
7139 1 18.091322 28.298654 111.330258
7140 1 22.778816 28.971099 95.633264
7141 1 19.552783 20.941864 101.142930
7142 1 25.714079 5.404539 110.502779
7143 1 27.795177 23.608345 106.444783
7144 1 30.059612 28.249059 105.620547
7145 1 29.966785 1.318619 114.390826
7146 1 29.931295 11.252038 108.340426
7147 1 7.137297 2.009070 108.903789
7148 1 26.213814 4.163967 112.864083
7149 1 20.922007 22.351785 110.022469
7150 1 17.628816 1.427116 116.400731
7151 1 18.287306 3.890709 117.028705
7152 1 25.544151 28.041034 111.672989
7153 1 21.281179 2.046078 120.084316
7154 1 27.846402 5.937918 125.959468
7155 1 30.152434 32.692459 109.461266
7156 1 26.546483 9.168766 123.070051
7157 1 30.041304 26.943755 120.797987
7158 1 24.704770 24.829894 125.400169
7159 1 26.170844 25.989858 127.035834
7160 1 25.313395 26.372026 116.560584
7161 1 23.424339 29.305633 125.211750
7162 1 21.782737 24.170804 129.795682
7163 1 29.762711 23.793146 125.561521
7164 1 2.249578 4.338243 125.599916
7165 1 25.323246 26.141759 132.231387
7166 1 25.608255 3.902755 129.685806
7167 1 25.507179 28.402838 133.985527
7168 1 21.488671 28.140709 134.049898
7169 1 27.735652 32.504739 1.305822
7170 1 27.761037 1.528424 3.485358
7171 1 29.766002 32.214230 2.904176
7172 1 29.708837 1.804105 1.308706
7173 1 27.457444 32.371293 4.972284
7174 1 28.037280 1.774037 7.444936
7175 1 30.170345 32.373184 7.410094
7176 1 29.904048 1.738312 5.199796
7177 1 27.775299 32.494891 9.475226
7178 1 28.145472 1.516846 11.954083
7179 1 29.839392 32.506901 11.311370
7180 1 30.120472 1.612526 9.212220
7181 1 28.055360 32.140400 13.943202
7182 1 27.842313 1.880371 15.379713
7183 1 30.214365 32.466383 15.514978
7184 1 30.134729 1.740676 13.744402
7185 1 27.992222 32.556520 17.149128
7186 1 28.044549 1.720474 19.598038
7187 1 29.612534 32.247533 19.251641
7188 1 29.790676 1.814864 17.366518
7189 1 27.765482 32.284883 21.322776
7190 1 27.512396 1.820591 23.521349
7191 1 29.899102 32.618099 23.755718
7192 1 29.840064 1.516762 21.666052
7193 1 27.640034 32.469788 25.413009
7194 1 27.887680 1.788669 27.700550
7195 1 29.770258 32.398732 27.343141
7196 1 29.623425 2.027822 25.502026
7197 1 27.995916 32.609719 29.617688
7198 1 27.736702 1.701230 31.494241
7199 1 29.766277 32.510267 31.701874
7200 1 29.945610 1.873582 29.465498
7201 1 27.976786 32.629420 33.669860
7202 1 27.595978 1.519683 35.864663
7203 1 30.063201 32.704374 35.876373
7204 1 30.094818 1.632008 33.427542
7205 1 27.914583 32.504486 37.728980
7206 1 27.947294 2.123053 39.472576
7207 1 30.094296 0.043027 39.677518
7208 1 29.997632 1.812375 37.766252
7209 1 28.120185 0.026988 41.586794
7210 1 28.044240 2.164306 43.347578
7211 1 30.029656 0.027899 43.670692
7212 1 29.878140 2.131730 41.459139
7213 1 28.048944 32.690668 45.376536
7214 1 28.026252 1.537365 47.767801
7215 1 30.348399 32.711307 47.968592
7216 1 29.722845 1.890640 45.567770
7217 1 28.019769 32.450557 49.781901
7218 1 27.893046 1.927167 51.472270
7219 1 30.128255 0.048077 51.367559
7220 1 29.951463 1.934622 49.734697
7221 1 28.001542 32.732424 54.013223
7222 1 28.118031 1.871564 55.831351
7223 1 29.865484 32.611654 55.825602
7224 1 29.993044 1.654796 53.688743
7225 1 27.524006 0.158843 57.780251
7226 1 27.806468 1.848327 60.196720
7227 1 29.926738 0.190220 60.036055
7228 1 30.076799 2.039031 58.126845
7229 1 27.953009 0.169443 62.334190
7230 1 27.979492 1.788433 64.174629
7231 1 29.885049 32.553812 64.346116
7232 1 29.937522 1.867702 62.040357
7233 1 27.657445 0.113285 66.496653
7234 1 25.857421 2.179252 65.689549
7235 1 30.842580 32.657174 82.830218
7236 1 29.775376 0.135411 68.068096
7237 1 28.619678 32.719441 74.208962
7238 1 1.437578 0.740207 81.752634
7239 1 1.532006 29.155282 77.574132
7240 1 32.108951 30.246467 78.639315
7241 1 25.628885 22.372385 74.612215
7242 1 30.850247 2.580536 78.884218
7243 1 19.290732 2.473267 81.105698
7244 1 27.162821 1.361740 79.370298
7245 1 29.476813 31.403560 78.854115
7246 1 20.210472 31.822433 83.957526
7247 1 16.126153 2.900344 76.969239
7248 1 7.863080 0.243613 86.732928
7249 1 26.732284 30.268953 74.692682
7250 1 20.939186 27.419810 82.246154
7251 1 27.164188 30.326552 81.691340
7252 1 24.516065 30.966421 81.797502
7253 1 20.394326 0.218541 87.279663
7254 1 23.926741 2.966907 84.883541
7255 1 15.397352 26.899767 92.589149
7256 1 25.099848 31.293373 85.328216
7257 1 29.243117 27.900564 96.639978
7258 1 27.062521 3.672035 96.339194
7259 1 28.504100 28.977360 111.630920
7260 1 24.000318 24.976961 93.557835
7261 1 21.420570 22.211023 99.797464
7262 1 23.117172 27.408754 93.484031
7263 1 5.595926 30.716168 94.946781
7264 1 26.326270 32.346238 96.130208
7265 1 22.729759 16.580274 94.148425
7266 1 27.207398 6.846927 108.404974
7267 1 28.309042 26.093672 98.756216
7268 1 22.847644 0.411893 99.965851
7269 1 26.803155 0.264732 105.416892
7270 1 30.541136 0.867661 118.458224
7271 1 23.897943 28.872623 120.962845
7272 1 30.577347 10.188190 93.650420
7273 1 25.954410 32.351434 109.998954
7274 1 28.914118 8.829959 117.167086
7275 1 23.315975 26.577595 119.509670
7276 1 23.317926 5.529230 108.929837
7277 1 24.164043 4.386590 114.182561
7278 1 32.219624 28.705680 116.926884
7279 1 31.489455 3.958997 114.979400
7280 1 29.588353 6.251794 104.248065
7281 1 19.819533 32.370810 128.178969
7282 1 0.831234 30.529765 122.570512
7283 1 2.192926 3.384899 121.287620
7284 1 26.392133 25.535721 118.904024
7285 1 28.503006 7.324262 123.307229
7286 1 31.694869 2.020948 130.132329
7287 1 1.499479 7.697484 130.219069
7288 1 27.891837 12.039182 132.319693
7289 1 23.305082 25.003062 127.678366
7290 1 29.884722 32.611132 129.143666
7291 1 25.286077 1.444223 127.311134
7292 1 32.453187 3.063774 125.565831
7293 1 3.132417 31.022152 125.610489
7294 1 27.979026 1.928186 134.110402
7295 1 30.247016 30.276781 131.817111
7296 1 25.951445 28.439899 125.876030
7297 1 27.545913 3.740709 1.304395
7298 1 27.632420 5.574727 3.311431
7299 1 30.019605 3.737513 3.448689
7300 1 29.597427 6.068652 1.453645
7301 1 27.728348 3.599515 5.317785
7302 1 28.054134 6.146386 7.170622
7303 1 29.781381 3.920194 7.279636
7304 1 29.674963 5.833000 5.115853
7305 1 27.731853 3.933374 9.423392
7306 1 27.389663 5.700739 11.309167
7307 1 29.859134 3.830068 11.166232
7308 1 29.771957 6.224097 9.280954
7309 1 28.010848 3.834478 13.326646
7310 1 27.884540 5.626317 15.498452
7311 1 29.783454 3.867073 15.428843
7312 1 29.703561 5.802813 13.195209
7313 1 27.578569 3.702074 17.590186
7314 1 28.197236 6.068912 19.469802
7315 1 30.035189 3.798576 19.587996
7316 1 29.883413 5.722699 17.369905
7317 1 27.766338 3.679193 21.792569
7318 1 27.957294 5.979156 23.259594
7319 1 29.995069 3.691718 23.383875
7320 1 30.179134 5.923520 21.443148
7321 1 27.709937 3.710771 25.083665
7322 1 27.764453 5.853739 27.661103
7323 1 29.962796 3.790561 27.706302
7324 1 29.807633 5.857268 25.261713
7325 1 27.913800 3.992008 29.779453
7326 1 27.821160 5.952770 31.603324
7327 1 29.880633 3.915506 31.719727
7328 1 29.654778 5.693294 29.776259
7329 1 27.748470 3.574988 33.668289
7330 1 27.711912 5.918104 35.523504
7331 1 29.970215 3.718641 35.744966
7332 1 29.767612 5.732294 33.770063
7333 1 27.750297 4.204393 37.822848
7334 1 27.754021 6.342809 39.551640
7335 1 30.153359 3.805159 39.708107
7336 1 29.817494 5.935605 37.597832
7337 1 27.732139 4.064344 41.316538
7338 1 27.919524 5.438529 43.812245
7339 1 30.237743 4.182219 43.824033
7340 1 30.033440 6.223208 41.557123
7341 1 28.248424 3.998845 45.962830
7342 1 28.289719 6.068977 47.734967
7343 1 30.521918 3.342787 47.639297
7344 1 30.194864 6.091510 45.768544
7345 1 27.962488 3.834844 49.369478
7346 1 27.572924 5.958734 51.789214
7347 1 29.510412 4.092486 51.782122
7348 1 30.003257 5.797928 49.736779
7349 1 27.638097 3.957124 53.682195
7350 1 28.375252 6.278315 55.531411
7351 1 30.017228 3.846344 55.968129
7352 1 30.358694 5.651607 53.830088
7353 1 28.191966 3.647498 57.822630
7354 1 28.239096 6.038527 60.076928
7355 1 30.121444 3.997031 60.241675
7356 1 30.415668 5.680588 57.949467
7357 1 27.926571 4.009099 62.155267
7358 1 27.817055 6.223314 63.831123
7359 1 29.941552 3.988858 64.005587
7360 1 30.305135 6.233226 62.141948
7361 1 27.687706 4.133351 66.078289
7362 1 21.724264 2.053078 70.174189
7363 1 27.895079 6.041647 68.044264
7364 1 30.180256 5.997245 66.035627
7365 1 29.451593 2.203190 70.310342
7366 1 15.389637 5.683285 80.437139
7367 1 27.491949 27.484755 77.256234
7368 1 20.830080 32.203887 77.526267
7369 1 19.876310 0.803594 75.321612
7370 1 26.051428 1.784315 70.385659
7371 1 1.098505 30.873685 85.032920
7372 1 31.804921 2.536131 76.532637
7373 1 28.349838 1.068222 83.785852
7374 1 21.751612 7.811909 80.734246
7375 1 18.417816 22.898799 84.986184
7376 1 27.706036 8.247201 70.111834
7377 1 23.545275 3.495696 92.927455
7378 1 24.976166 0.195354 90.007765
7379 1 32.107996 5.254167 84.689100
7380 1 29.188073 4.415409 80.089493
7381 1 28.069057 0.323419 93.327232
7382 1 21.553355 27.557407 86.691932
7383 1 24.108038 3.359322 95.620965
7384 1 25.980483 27.512363 89.689673
7385 1 12.206789 22.693482 92.403188
7386 1 26.735648 10.424469 94.493678
7387 1 22.713911 7.382807 94.565465
7388 1 17.317258 0.772938 91.023797
7389 1 2.415781 0.033711 93.018493
7390 1 21.624708 1.912796 101.986153
7391 1 30.613997 31.499080 93.786141
7392 1 31.535958 29.456936 89.749651
7393 1 0.733863 5.928526 97.107485
7394 1 24.955366 6.070202 95.315925
7395 1 25.412993 0.050243 100.507003
7396 1 2.222827 29.517092 101.296957
7397 1 23.287877 0.168399 117.842410
7398 1 27.954809 2.306073 106.672933
7399 1 27.409353 31.260800 102.820815
7400 1 29.696265 16.623416 103.038793
7401 1 24.781347 16.292018 103.808410
7402 1 25.268870 13.051765 111.434625
7403 1 1.376832 5.116305 108.508579
7404 1 23.807761 28.757492 116.761566
7405 1 23.710769 10.064849 111.334075
7406 1 28.699316 7.370840 113.977644
7407 1 1.866446 27.484200 116.406487
7408 1 6.611561 5.884136 120.867111
7409 1 26.115661 3.890194 119.560570
7410 1 2.222958 19.764853 121.902020
7411 1 27.601012 7.914214 127.889089
7412 1 19.910197 0.783578 114.657123
7413 1 25.819697 5.883346 127.942101
7414 1 1.435984 12.036949 130.502240
7415 1 27.661935 8.269099 132.405761
7416 1 21.070063 9.131998 122.809430
7417 1 25.446231 3.864343 134.098165
7418 1 24.190910 5.841950 125.778060
7419 1 31.958763 3.730392 132.316220
7420 1 1.073361 3.825422 115.969015
7421 1 2.489160 2.348004 123.703718
7422 1 27.764535 5.843379 134.082126
7423 1 29.986858 3.820920 133.987506
7424 1 1.646072 3.723421 134.419935
7425 1 27.706682 8.127271 1.346688
7426 1 27.721167 9.798847 3.142639
7427 1 30.043540 7.956952 3.465553
7428 1 29.928131 10.164891 1.340180
7429 1 27.891864 7.959746 5.227720
7430 1 27.583574 10.009300 7.028435
7431 1 29.775930 8.125803 7.161099
7432 1 29.649455 10.188243 5.464004
7433 1 27.795119 8.020870 9.064245
7434 1 27.766836 9.818311 11.098846
7435 1 30.074192 8.157875 11.354852
7436 1 29.676745 10.048743 9.238272
7437 1 27.848239 7.738670 13.250588
7438 1 28.299531 10.184935 15.564423
7439 1 29.792231 8.070639 15.482513
7440 1 30.169244 10.020587 13.596416
7441 1 28.007232 7.789240 17.264643
7442 1 28.400196 10.153570 19.341722
7443 1 30.163894 7.997351 19.392836
7444 1 30.104797 10.302098 17.481034
7445 1 28.022052 7.864277 21.312418
7446 1 27.734534 9.652721 23.265899
7447 1 29.902618 8.218751 23.170577
7448 1 30.132004 10.230377 21.340429
7449 1 27.806109 7.681564 25.339278
7450 1 27.822508 10.031438 27.202890
7451 1 29.736119 7.760077 27.427253
7452 1 30.130208 9.538251 25.419689
7453 1 27.525646 7.950029 29.434012
7454 1 27.688463 9.939711 31.524869
7455 1 29.486313 7.738578 31.808747
7456 1 29.499181 9.639670 29.472848
7457 1 27.575238 7.975567 33.464120
7458 1 28.022589 10.174782 35.469105
7459 1 29.677532 7.993771 35.408328
7460 1 29.693043 9.819681 33.554198
7461 1 27.721883 7.916612 37.615060
7462 1 27.998474 10.359691 40.149225
7463 1 29.881195 8.144568 39.707790
7464 1 29.465041 10.022186 37.642869
7465 1 27.825943 8.110923 42.134277
7466 1 28.064706 10.137455 43.699714
7467 1 30.415125 8.185988 43.578499
7468 1 30.039674 10.297002 41.627668
7469 1 28.336987 7.863081 45.521701
7470 1 28.013749 10.057927 47.666482
7471 1 30.135432 8.116199 47.651138
7472 1 29.982559 10.271000 45.490723
7473 1 27.950574 7.898208 49.747398
7474 1 27.947768 10.148853 51.742400
7475 1 30.146034 8.107595 52.075170
7476 1 30.095956 9.839707 49.671643
7477 1 27.952257 8.375594 54.157848
7478 1 28.104510 10.296117 56.074739
7479 1 30.277829 8.173786 55.493767
7480 1 30.151381 10.342769 53.938820
7481 1 28.430939 7.996950 57.562485
7482 1 28.091708 10.498470 60.077271
7483 1 30.072191 7.790655 60.057819
7484 1 29.837387 10.105432 58.198027
7485 1 28.395160 8.613392 62.123375
7486 1 28.329944 10.416798 63.952140
7487 1 30.031976 8.210070 63.982640
7488 1 30.223939 10.516951 61.600643
7489 1 28.749120 4.534927 74.761029
7490 1 21.623518 7.865480 68.120020
7491 1 26.065517 6.321792 65.551027
7492 1 30.181433 10.209429 66.016629
7493 1 23.959677 4.124065 70.230204
7494 1 30.175371 10.126199 70.035108
7495 1 30.233590 4.585287 72.307746
7496 1 25.650971 10.109268 70.014234
7497 1 15.851100 4.771606 74.438964
7498 1 23.681997 14.163462 77.394861
7499 1 3.396103 5.910530 68.170941
7500 1 1.760691 9.844972 91.584456
7501 1 4.385951 4.696930 78.792167
7502 1 20.025091 5.256020 90.042209
7503 1 1.914154 5.920346 73.987349
7504 1 27.819578 10.320387 76.170704
7505 1 0.363868 0.851271 84.089285
7506 1 21.537134 1.267588 73.497247
7507 1 5.506106 3.838115 94.668092
7508 1 25.574000 6.415264 85.305925
7509 1 31.479172 5.410723 79.195980
7510 1 24.582873 13.388843 85.076659
7511 1 31.419072 0.655923 98.842388
7512 1 22.862310 5.565520 105.940606
7513 1 22.682976 25.958489 95.889684
7514 1 21.221714 32.285139 97.932655
7515 1 26.286108 11.209507 91.934249
7516 1 30.020484 12.651540 105.840233
7517 1 29.485251 12.078668 98.318897
7518 1 27.012724 12.849235 95.999915
7519 1 7.832979 5.048670 103.612262
7520 1 26.992472 7.648735 99.958864
7521 1 9.081363 2.371285 103.368704
7522 1 30.708324 10.731144 102.940578
7523 1 25.693128 4.491245 103.460759
7524 1 28.486309 8.953477 103.283851
7525 1 27.032979 15.618911 107.654577
7526 1 2.186960 20.330620 101.210738
7527 1 26.119288 4.192533 116.721491
7528 1 27.740701 10.485262 106.342710
7529 1 28.545301 12.795133 111.916285
7530 1 12.898797 12.174094 114.497017
7531 1 21.768720 4.100588 117.897129
7532 1 22.059169 1.206200 111.664689
7533 1 0.443493 0.019517 119.314756
7534 1 25.375016 15.948778 112.696601
7535 1 25.716548 9.722786 118.795722
7536 1 26.422458 14.989273 121.298919
7537 1 19.601435 7.082826 120.819168
7538 1 25.911219 17.586596 109.112134
7539 1 0.286412 14.461882 121.394797
7540 1 27.838371 16.911071 112.928211
7541 1 20.766228 11.411788 114.271328
7542 1 15.805016 12.961930 116.960576
7543 1 25.904765 7.628129 129.955685
7544 1 28.491487 13.840135 123.307657
7545 1 31.299738 21.101512 116.969162
7546 1 24.597680 9.598055 129.491862
7547 1 30.166813 13.781974 120.945956
7548 1 29.367071 16.282719 125.592984
7549 1 25.885044 6.051918 132.052704
7550 1 27.681291 16.101428 132.086032
7551 1 25.576101 15.929640 133.926590
7552 1 29.802167 11.846664 130.171095
7553 1 27.998587 12.174051 1.288672
7554 1 27.946713 14.043081 3.236966
7555 1 30.115800 12.217266 3.140994
7556 1 30.131185 14.247703 1.358035
7557 1 27.662758 11.885089 4.932883
7558 1 27.800429 13.940503 7.294828
7559 1 29.951716 11.992121 7.469648
7560 1 30.111752 13.973382 5.427463
7561 1 27.560810 12.035326 9.248660
7562 1 27.804176 13.942104 11.377734
7563 1 29.584999 11.818739 11.460654
7564 1 29.777559 13.782805 9.340067
7565 1 27.698825 12.114392 13.686912
7566 1 27.855823 14.250656 15.321606
7567 1 30.216823 12.011190 15.508431
7568 1 29.643794 13.586438 13.317476
7569 1 27.996287 12.051519 17.470590
7570 1 28.167022 14.000098 19.643143
7571 1 30.329638 12.249090 19.731614
7572 1 30.283120 14.069101 17.802849
7573 1 27.942413 11.871470 21.282884
7574 1 28.120626 13.996044 23.647773
7575 1 30.068385 11.804565 23.869042
7576 1 29.859156 13.972140 21.687731
7577 1 27.805785 12.160566 25.330337
7578 1 27.708049 14.185992 27.788096
7579 1 29.772306 11.885087 27.633233
7580 1 29.668803 13.928836 26.009740
7581 1 27.937549 12.275663 29.689932
7582 1 27.893096 14.028656 31.582875
7583 1 29.663571 11.879671 31.563012
7584 1 30.145689 14.128211 29.669300
7585 1 27.754253 11.830681 33.612590
7586 1 27.504560 14.104451 35.415629
7587 1 29.595024 12.541090 35.354288
7588 1 29.748144 14.527564 33.537335
7589 1 27.621162 11.989945 37.484149
7590 1 27.779300 14.481433 39.837457
7591 1 29.960517 12.238354 39.634716
7592 1 29.456204 14.137296 37.807045
7593 1 27.697806 12.397523 41.979808
7594 1 27.944411 14.204003 43.839011
7595 1 29.999878 12.036734 43.634679
7596 1 29.862595 13.890235 41.804733
7597 1 28.058047 12.307731 45.957964
7598 1 28.048537 14.295417 48.007079
7599 1 29.951146 12.220140 47.659350
7600 1 29.952704 14.467856 46.044749
7601 1 27.997231 12.347651 49.768645
7602 1 28.059661 14.725428 51.545622
7603 1 29.596814 12.301933 52.022972
7604 1 30.132502 14.250808 49.530265
7605 1 27.956722 12.185443 54.276772
7606 1 27.850418 14.544523 55.759689
7607 1 30.017595 12.461214 55.938287
7608 1 29.839531 14.478130 53.942398
7609 1 27.794654 12.305669 57.829776
7610 1 27.747898 14.337143 59.891499
7611 1 30.028074 12.529989 60.201193
7612 1 29.852969 14.259533 58.122220
7613 1 28.198603 12.272292 62.215520
7614 1 28.236788 14.277908 63.685225
7615 1 30.259067 12.253891 63.762067
7616 1 30.200395 14.959383 61.814891
7617 1 28.561206 12.112511 65.837716
7618 1 27.717714 9.951556 67.993385
7619 1 30.182861 16.370637 67.927101
7620 1 32.266589 14.446931 67.725553
7621 1 28.255956 12.376814 69.782994
7622 1 2.262786 14.582197 76.174793
7623 1 28.250464 14.336413 71.891087
7624 1 25.939962 20.408849 68.110240
7625 1 1.029717 3.105674 86.088118
7626 1 28.460083 12.404218 79.156722
7627 1 28.257715 20.647914 83.776174
7628 1 5.564698 18.314230 74.229066
7629 1 30.100423 8.519835 76.413418
7630 1 2.732435 20.748296 86.559048
7631 1 30.725027 0.565301 86.023084
7632 1 2.558988 13.209724 84.111766
7633 1 0.900824 8.836085 84.340802
7634 1 2.990895 17.330668 96.910958
7635 1 30.692162 12.864329 95.632101
7636 1 28.092507 31.408138 86.578032
7637 1 29.646834 10.292621 74.253311
7638 1 4.714893 16.219395 91.721822
7639 1 28.197838 6.964299 86.294682
7640 1 2.289092 14.228682 93.639526
7641 1 28.336193 18.773728 100.019379
7642 1 21.407497 18.681249 96.373541
7643 1 5.132964 13.025393 87.949071
7644 1 32.519068 11.455858 98.049817
7645 1 28.042110 4.313167 99.015024
7646 1 4.378744 11.622639 100.911016
7647 1 0.409781 19.936490 109.640856
7648 1 2.305237 15.347478 89.897749
7649 1 30.343695 20.523527 99.065154
7650 1 0.017514 21.220630 100.137816
7651 1 30.580872 19.151047 104.079048
7652 1 23.178712 14.852361 97.175930
7653 1 22.448016 14.052591 94.736533
7654 1 27.537786 16.196321 99.526505
7655 1 5.299881 4.993457 113.232327
7656 1 4.052871 13.161729 95.458935
7657 1 32.290418 17.728662 107.917995
7658 1 29.242094 21.757470 105.002963
7659 1 30.818896 14.367481 112.058417
7660 1 30.470855 16.916293 100.192442
7661 1 26.238050 5.998046 123.353731
7662 1 27.459005 11.162007 117.826815
7663 1 22.927219 13.434502 125.441599
7664 1 29.116039 16.009336 117.119451
7665 1 32.006543 24.958402 114.974472
7666 1 0.507151 22.350780 108.010419
7667 1 24.194655 16.144146 120.570834
7668 1 19.582558 13.023723 116.823152
7669 1 1.034758 12.327491 126.458858
7670 1 32.243196 15.932186 115.755091
7671 1 22.888899 11.082648 116.388174
7672 1 30.544696 23.231199 122.803796
7673 1 21.565966 18.247401 127.613409
7674 1 29.657418 18.164858 131.971869
7675 1 26.618156 21.598506 121.558831
7676 1 20.386382 3.528659 127.595927
7677 1 25.724597 18.004338 132.014668
7678 1 27.894911 14.458839 134.471896
7679 1 30.099344 12.134616 134.112032
7680 1 31.798618 12.103580 131.943186
7681 1 27.648715 16.248199 1.390734
7682 1 27.730182 18.179385 3.347333
7683 1 29.650292 16.001009 3.273534
7684 1 29.774687 18.181209 1.249305
7685 1 27.671768 15.966826 5.332079
7686 1 27.695368 17.886083 7.401143
7687 1 29.908502 15.990430 7.378649
7688 1 29.854622 18.105114 5.618235
7689 1 27.693993 15.822485 9.381412
7690 1 27.993876 18.076049 11.236239
7691 1 29.809258 15.875746 11.078902
7692 1 29.680227 18.060273 9.413375
7693 1 28.110345 16.179999 13.402052
7694 1 27.596470 18.402812 15.586997
7695 1 29.810445 16.130295 15.551910
7696 1 29.517612 18.200841 13.541052
7697 1 28.152157 15.980492 17.905093
7698 1 27.895748 18.013991 19.622256
7699 1 30.430522 16.050326 19.823465
7700 1 29.595717 17.812776 17.557527
7701 1 27.826134 16.119002 21.473794
7702 1 27.777912 18.252625 23.879621
7703 1 29.629642 15.980562 23.715967
7704 1 30.123703 17.882912 21.406648
7705 1 27.637513 16.068220 25.566931
7706 1 27.769643 18.155213 27.647251
7707 1 30.009231 16.012676 27.907229
7708 1 29.834398 18.006218 25.891221
7709 1 27.759174 16.086150 29.646272
7710 1 27.748964 18.037635 31.641219
7711 1 29.892550 16.235291 31.448692
7712 1 29.651483 18.123994 29.548845
7713 1 27.600179 16.219191 33.707948
7714 1 27.968502 18.423190 35.967303
7715 1 29.744006 16.021904 35.653113
7716 1 29.575375 17.934895 33.991962
7717 1 27.812706 16.138310 37.407364
7718 1 27.767340 18.089162 39.967902
7719 1 29.907807 16.338036 39.719308
7720 1 29.797932 18.259425 37.662808
7721 1 28.120152 16.320259 41.853049
7722 1 27.507156 18.508369 43.792098
7723 1 29.871790 16.185963 43.706187
7724 1 29.719021 18.511557 41.782390
7725 1 27.517941 16.266870 45.783203
7726 1 27.373768 18.294300 47.708465
7727 1 29.772005 16.447368 47.765312
7728 1 29.280124 18.085313 45.527270
7729 1 27.713757 16.612879 49.762160
7730 1 27.736967 18.493011 51.782736
7731 1 30.165457 16.360776 51.624903
7732 1 30.123815 18.377410 49.550838
7733 1 27.964607 16.419134 53.423464
7734 1 27.961356 18.415708 55.563656
7735 1 29.902625 16.397685 55.791788
7736 1 29.916016 18.298749 53.670207
7737 1 27.858760 16.260299 57.860535
7738 1 27.758758 18.392603 59.643523
7739 1 29.771404 16.438789 59.974570
7740 1 29.795744 18.248517 57.670231
7741 1 27.739973 16.385195 61.801276
7742 1 28.071681 18.550605 64.090603
7743 1 29.989076 16.570026 64.306948
7744 1 29.586332 18.386553 62.045430
7745 1 26.309472 14.202419 66.117981
7746 1 26.274193 20.223408 72.459164
7747 1 23.800789 20.809212 69.847638
7748 1 32.239773 18.524051 72.384790
7749 1 21.906629 12.240072 72.420074
7750 1 32.040557 11.934797 70.720768
7751 1 27.779497 15.507926 74.595382
7752 1 25.903048 10.597539 74.223126
7753 1 20.295177 18.376379 72.219811
7754 1 28.960344 22.075941 80.976016
7755 1 29.589451 15.542850 80.474213
7756 1 28.035592 20.796710 74.742480
7757 1 31.784691 12.473361 83.125485
7758 1 28.911762 7.354741 83.786251
7759 1 26.058926 10.600013 78.446113
7760 1 23.733412 5.942934 75.465133
7761 1 3.354613 9.755704 94.375665
7762 1 24.399641 15.308211 92.427280
7763 1 2.073432 10.915931 96.416664
7764 1 28.268627 6.114881 92.142802
7765 1 25.928144 24.736819 85.687066
7766 1 24.762274 20.206694 92.133814
7767 1 0.903229 21.143478 84.422864
7768 1 29.693196 7.187778 81.122763
7769 1 26.057714 17.082350 87.897191
7770 1 26.287435 18.341182 97.323699
7771 1 22.538239 22.895570 104.902838
7772 1 28.727907 17.541497 94.477519
7773 1 32.102030 10.650804 95.529741
7774 1 31.794311 18.873222 91.143603
7775 1 26.929039 14.557664 110.083425
7776 1 31.144536 16.749588 95.686491
7777 1 5.452554 8.563984 101.344544
7778 1 2.724343 6.819652 103.276163
7779 1 30.087555 14.414585 107.974299
7780 1 24.976973 21.907455 106.433009
7781 1 25.063277 0.575866 107.756285
7782 1 19.119061 11.345664 112.162644
7783 1 10.367190 16.082299 121.575415
7784 1 25.189351 19.260103 102.416953
7785 1 19.772697 11.650585 107.803550
7786 1 28.326709 31.633671 111.104419
7787 1 32.251963 18.987254 121.437095
7788 1 5.331660 23.368996 117.151909
7789 1 18.931411 23.434531 120.282338
7790 1 25.314778 21.419085 112.522766
7791 1 23.427875 17.831073 110.185446
7792 1 21.347205 7.821131 118.172508
7793 1 24.357834 15.435691 110.115300
7794 1 17.132796 15.063765 113.533322
7795 1 6.202406 12.914460 121.326765
7796 1 22.979013 10.492408 119.409324
7797 1 2.858108 17.674795 107.591654
7798 1 18.302740 7.521760 123.174750
7799 1 31.317406 16.116454 109.676223
7800 1 0.775639 23.804229 123.092607
7801 1 22.099781 4.044193 125.460067
7802 1 18.786793 10.567121 122.702633
7803 1 29.932526 19.712333 125.469493
7804 1 30.314507 17.918283 123.578784
7805 1 31.877722 16.427202 132.162360
7806 1 27.908213 17.924714 134.051370
7807 1 30.003761 16.247372 134.257792
7808 1 29.586431 20.209136 130.386148
7809 1 27.743229 19.901648 1.285783
7810 1 27.963864 22.198058 3.196726
7811 1 29.982216 20.333288 3.125686
7812 1 29.794412 22.117582 1.117518
7813 1 28.062660 20.375593 5.301912
7814 1 27.713901 22.068337 7.350644
7815 1 29.824807 20.173547 7.381802
7816 1 30.266310 22.273794 5.443938
7817 1 28.259638 20.159782 9.336306
7818 1 28.075620 22.258921 11.488932
7819 1 30.385411 20.257347 11.199388
7820 1 29.926380 22.375252 9.483555
7821 1 27.991863 20.547986 13.772621
7822 1 27.953916 22.391554 15.750483
7823 1 29.788284 20.061164 15.376892
7824 1 30.039413 22.148793 13.348021
7825 1 27.835515 20.220609 17.613778
7826 1 27.899042 22.024950 19.647141
7827 1 29.855996 20.024560 19.866558
7828 1 29.832222 21.732695 17.680455
7829 1 27.729109 20.307060 21.648346
7830 1 27.892681 22.222720 23.489237
7831 1 29.875743 20.301458 23.547857
7832 1 29.992780 22.266205 21.538033
7833 1 27.842605 20.477380 25.591945
7834 1 27.646022 22.183923 27.704454
7835 1 30.361913 20.117996 27.490182
7836 1 29.774945 22.208561 25.778311
7837 1 27.848018 20.197981 29.417568
7838 1 27.637941 22.208151 31.801422
7839 1 29.817644 19.955537 31.910491
7840 1 29.618669 22.294107 29.688771
7841 1 27.716959 20.122877 33.774178
7842 1 27.839213 22.225379 35.828949
7843 1 29.941787 20.393710 35.810013
7844 1 29.856883 22.271643 33.750161
7845 1 27.693058 20.341277 37.790913
7846 1 27.968726 22.352265 39.620931
7847 1 29.642413 20.293289 39.802486
7848 1 29.807196 22.226486 37.880665
7849 1 27.777670 20.662700 41.577548
7850 1 27.687685 22.627307 43.598071
7851 1 29.732133 20.319320 43.903762
7852 1 29.886293 22.287760 42.238580
7853 1 27.547616 20.354493 45.797986
7854 1 27.683695 22.172136 47.987391
7855 1 29.921603 20.210554 47.900511
7856 1 29.619331 22.285912 46.074784
7857 1 27.822550 20.409656 49.953011
7858 1 27.856598 22.540158 51.755514
7859 1 30.030414 20.158339 51.708160
7860 1 30.197707 22.130132 49.943138
7861 1 27.945445 20.650344 53.661150
7862 1 28.226866 22.538372 55.917393
7863 1 29.696069 20.284276 55.782139
7864 1 29.737095 22.732182 53.557059
7865 1 27.925760 20.259836 57.673908
7866 1 28.058509 22.355214 60.184458
7867 1 29.648069 20.367794 59.832254
7868 1 29.626715 22.440206 57.874605
7869 1 27.933513 20.640038 62.031808
7870 1 27.853101 22.919051 64.100260
7871 1 29.945714 20.673672 63.845293
7872 1 30.395734 22.826235 62.132329
7873 1 29.924809 22.404073 66.280914
7874 1 30.140548 18.649399 66.125020
7875 1 22.084697 25.044555 67.748336
7876 1 27.851631 20.485181 66.128079
7877 1 24.310447 22.359970 72.318997
7878 1 3.003212 18.238491 82.858784
7879 1 31.662710 12.634963 86.489890
7880 1 25.992860 18.043873 80.880846
7881 1 25.300223 12.317364 76.188067
7882 1 24.084694 24.612357 74.177851
7883 1 26.833368 21.424893 78.929911
7884 1 2.479954 15.947478 80.461095
7885 1 28.143068 13.619628 81.750867
7886 1 26.030090 27.764772 81.258344
7887 1 0.553977 14.431631 91.929759
7888 1 26.551380 19.682990 85.963069
7889 1 27.242546 20.247181 81.460800
7890 1 28.952712 20.881158 86.747369
7891 1 30.843460 29.640180 81.096546
7892 1 26.628504 23.087087 89.930847
7893 1 18.238593 20.436316 87.288043
7894 1 27.730371 27.421561 91.943709
7895 1 20.151474 22.240445 91.906300
7896 1 28.787449 18.203844 76.142922
7897 1 24.417506 17.670968 92.312541
7898 1 3.223660 18.265090 90.058577
7899 1 28.846713 26.578922 86.987324
7900 1 28.108620 31.220714 83.820780
7901 1 23.280768 19.079269 82.478159
7902 1 28.482949 24.182428 101.496470
7903 1 28.059260 19.092404 108.554540
7904 1 32.183061 24.180848 92.331072
7905 1 28.125938 28.817946 104.112181
7906 1 3.305692 32.196049 100.880110
7907 1 32.209998 12.227733 101.202625
7908 1 23.732066 15.209613 86.873944
7909 1 25.010323 11.451420 103.281215
7910 1 32.093436 17.090548 102.995934
7911 1 1.593219 26.893671 99.649357
7912 1 28.555922 22.794419 99.241029
7913 1 25.105901 17.961396 114.910958
7914 1 22.997190 17.072765 101.078625
7915 1 13.802548 20.482448 103.179632
7916 1 0.470470 29.723401 112.317896
7917 1 28.064039 23.922227 120.552815
7918 1 31.372250 26.274822 117.071365
7919 1 26.297663 27.188963 121.138472
7920 1 17.190403 28.888307 107.411018
7921 1 30.567532 22.188669 108.432192
7922 1 14.526119 22.449698 119.252200
7923 1 26.056190 12.161231 129.885176
7924 1 27.822959 19.054594 123.736928
7925 1 31.449999 12.834474 123.211579
7926 1 18.953139 13.878679 121.301303
7927 1 27.231959 24.213145 125.382821
7928 1 28.178174 22.759758 112.643111
7929 1 25.153254 17.852061 127.972433
7930 1 23.627590 17.970254 123.867999
7931 1 31.795490 25.915275 129.755972
7932 1 29.454174 21.505793 120.631140
7933 1 23.629264 24.043101 131.692768
7934 1 29.493867 20.125067 134.177830
7935 1 27.582880 19.927305 132.288339
7936 1 29.666315 21.378348 127.827530
7937 1 27.495264 24.236433 1.561892
7938 1 27.455604 26.870015 3.162994
7939 1 29.721131 24.303244 3.163947
7940 1 29.556252 26.202528 1.047639
7941 1 27.538481 24.599157 5.320004
7942 1 27.971252 26.393316 7.122364
7943 1 29.919523 24.167126 7.305232
7944 1 30.028188 26.564075 5.443366
7945 1 27.662486 24.195061 9.139049
7946 1 27.963780 26.374223 10.800131
7947 1 29.795607 24.387074 11.299379
7948 1 29.858442 26.448954 9.106174
7949 1 27.851722 24.496630 13.079828
7950 1 27.773337 26.503152 15.251057
7951 1 29.886489 23.975406 15.228037
7952 1 29.887471 26.354350 13.235650
7953 1 27.599387 24.299762 17.302105
7954 1 27.757211 25.914731 19.493511
7955 1 29.947244 24.095536 19.503461
7956 1 29.723727 25.949237 17.466652
7957 1 27.732566 24.353212 21.879194
7958 1 28.071666 26.241058 23.632246
7959 1 29.771502 24.191400 23.929998
7960 1 29.821736 26.443439 21.617502
7961 1 27.873968 24.480028 25.820402
7962 1 28.040822 26.343286 27.763482
7963 1 29.795159 24.402722 27.719447
7964 1 30.075979 26.394920 25.578269
7965 1 27.944931 24.323231 29.920798
7966 1 27.820030 26.555812 31.742357
7967 1 29.868807 24.476741 31.797669
7968 1 29.796251 26.112457 29.636818
7969 1 27.524296 24.635352 33.458305
7970 1 27.638768 26.476070 35.707399
7971 1 29.699622 24.487168 35.821740
7972 1 29.762292 26.529568 33.585922
7973 1 27.567075 24.183085 37.502936
7974 1 27.866094 26.113209 39.673480
7975 1 30.136545 24.167314 39.757825
7976 1 29.705450 25.990045 37.896820
7977 1 28.427160 24.299769 41.663816
7978 1 27.980935 26.259984 43.811012
7979 1 29.805890 24.603244 44.083930
7980 1 29.836910 26.773111 41.612487
7981 1 27.664060 24.251903 45.901558
7982 1 27.967278 26.226628 47.562800
7983 1 30.001613 24.370674 48.164892
7984 1 29.742022 26.865981 45.776509
7985 1 27.538420 24.507461 49.737288
7986 1 28.154345 26.614293 51.789113
7987 1 29.825653 24.507386 51.544875
7988 1 30.002844 26.651384 49.911530
7989 1 27.901955 24.720127 53.664741
7990 1 27.748498 26.733868 55.776491
7991 1 29.782350 24.542001 55.700716
7992 1 29.695120 26.580009 53.924373
7993 1 27.693781 24.867331 57.732286
7994 1 27.985980 26.561841 59.921962
7995 1 29.891442 24.417915 59.645815
7996 1 30.208109 26.741582 57.999473
7997 1 28.123153 24.718129 61.790821
7998 1 27.915650 26.642685 63.870961
7999 1 30.134274 24.364061 64.025011
8000 1 30.206707 26.432310 62.035962
8001 1 25.890213 16.444127 67.725892
8002 1 27.984450 24.874221 65.997211
8003 1 28.290693 28.776028 70.450649
8004 1 27.953530 28.500785 66.479593
8005 1 26.240633 26.818182 70.505125
8006 1 28.089023 24.995630 70.173720
8007 1 25.897289 31.549069 79.319935
8008 1 28.046999 22.753392 68.016434
8009 1 27.648124 18.288404 78.456169
8010 1 27.985478 20.629547 70.115881
8011 1 23.386810 22.510479 78.974202
8012 1 30.796901 2.630211 84.136600
8013 1 0.866990 12.298755 80.516490
8014 1 26.729134 15.547473 80.513222
8015 1 29.952796 24.610715 81.017236
8016 1 5.280818 19.030450 78.244796
8017 1 26.647494 0.528221 87.767116
8018 1 17.716001 24.852819 89.367317
8019 1 27.645177 22.309465 72.614101
8020 1 17.503212 27.834915 82.082975
8021 1 25.479638 28.613083 83.628546
8022 1 23.250798 15.548191 83.582075
8023 1 27.276295 28.777695 87.878058
8024 1 0.835080 2.861838 79.168249
8025 1 30.721154 13.696999 92.452971
8026 1 3.370138 25.322545 105.970762
8027 1 20.439323 26.411362 94.191730
8028 1 0.267825 0.463757 77.797823
8029 1 23.531007 23.425321 91.374650
8030 1 28.103017 30.412236 96.361976
8031 1 24.736849 25.235341 97.810199
8032 1 31.949873 3.248624 101.303196
8033 1 21.082477 13.469600 105.748562
8034 1 31.175069 30.501070 107.164154
8035 1 32.085348 28.381422 100.814537
8036 1 29.441081 25.350174 115.356991
8037 1 22.598773 29.280683 111.539225
8038 1 20.352478 22.369923 106.900985
8039 1 28.643587 21.836091 115.300509
8040 1 28.824595 25.851819 105.760996
8041 1 30.302532 23.382633 111.331409
8042 1 22.318368 18.709497 115.674534
8043 1 4.320951 27.921835 117.926789
8044 1 26.422208 24.957394 103.690610
8045 1 23.766847 30.170764 114.181141
8046 1 4.940781 31.181583 107.332108
8047 1 22.029153 15.109808 117.677037
8048 1 16.923007 1.566522 108.072020
8049 1 14.858856 26.593290 121.721234
8050 1 21.160765 30.370211 123.730256
8051 1 23.476855 31.671216 123.173776
8052 1 19.634401 21.542855 117.878196
8053 1 27.725294 28.370720 127.715879
8054 1 21.775212 24.805466 125.281126
8055 1 31.970646 21.781168 121.048028
8056 1 25.405116 31.304270 125.709170
8057 1 22.878183 22.078253 125.263469
8058 1 21.631571 1.809698 132.125701
8059 1 28.058695 28.465421 131.938614
8060 1 24.039385 26.185548 122.101799
8061 1 25.202802 22.562403 127.208037
8062 1 27.627693 26.394546 133.477578
8063 1 24.978729 24.043557 129.273109
8064 1 27.209107 24.058411 131.799592
8065 1 27.707773 28.657090 0.655489
8066 1 27.748230 30.539733 2.975687
8067 1 29.744922 28.541986 3.264939
8068 1 29.922291 30.441913 0.894767
8069 1 28.025204 28.589218 5.463979
8070 1 27.879100 30.695003 7.433375
8071 1 29.990475 28.854280 7.377357
8072 1 29.945032 30.474951 5.203968
8073 1 27.799478 28.498382 9.102797
8074 1 27.864885 30.498509 11.439040
8075 1 30.163907 28.267936 11.380511
8076 1 29.560196 30.388072 9.467027
8077 1 27.823633 28.548165 13.072790
8078 1 27.985872 30.153693 15.419341
8079 1 29.791833 27.943520 15.513442
8080 1 30.023125 30.513183 13.025381
8081 1 27.709838 28.392859 17.349044
8082 1 27.738857 30.177667 19.534888
8083 1 29.769058 28.518771 19.112559
8084 1 29.922964 30.355301 17.275045
8085 1 27.694734 28.279896 21.715336
8086 1 28.144886 30.670928 23.416288
8087 1 29.779204 28.221940 23.752417
8088 1 29.759059 30.060208 21.301134
8089 1 27.929109 28.466664 25.673323
8090 1 27.848297 30.587740 27.458743
8091 1 29.629244 28.526687 27.951199
8092 1 29.771015 30.327839 25.424478
8093 1 28.148380 28.449225 30.017699
8094 1 28.030129 30.557281 31.845449
8095 1 30.051801 28.696235 31.795586
8096 1 29.824352 30.756722 29.503896
8097 1 27.721149 28.591722 33.841287
8098 1 27.805977 30.463706 35.385396
8099 1 30.005172 28.173009 35.642517
8100 1 30.027619 30.385073 33.734557
8101 1 27.924776 28.174367 37.508558
8102 1 27.816774 30.702994 39.640510
8103 1 29.733228 28.446092 39.434782
8104 1 29.687514 30.504560 37.683796
8105 1 27.902415 28.393841 41.842220
8106 1 27.983954 30.385354 43.730595
8107 1 29.872851 28.409096 43.634439
8108 1 29.884281 30.799117 41.557254
8109 1 27.858833 28.547711 45.724201
8110 1 28.036942 30.582407 47.560473
8111 1 30.105783 28.613304 47.802326
8112 1 30.117933 30.734504 45.793492
8113 1 28.254925 28.639232 49.708828
8114 1 27.959369 30.652157 51.676398
8115 1 29.864317 28.736033 51.855941
8116 1 30.469395 30.366643 49.831319
8117 1 27.751133 28.715789 53.518399
8118 1 27.554281 30.445861 55.707198
8119 1 30.135543 28.593125 55.840537
8120 1 29.937700 30.583796 54.136536
8121 1 28.402706 28.905430 57.936654
8122 1 28.326844 30.702870 60.190877
8123 1 29.970383 28.489904 60.144595
8124 1 29.700784 31.100169 57.979991
8125 1 28.172330 28.656454 62.130767
8126 1 27.968343 30.587506 64.692941
8127 1 29.982374 28.473657 64.439258
8128 1 29.971461 30.438622 62.624904
8129 1 32.257725 22.573049 67.801781
8130 1 26.131554 26.744959 66.138425
8131 1 30.090088 30.769576 66.473659
8132 1 32.155531 30.528832 68.386706
8133 1 26.273490 26.750364 74.723990
8134 1 19.205336 26.887501 83.954065
8135 1 29.722330 22.429791 70.177123
8136 1 29.923722 28.616145 68.120545
8137 1 23.163612 24.547965 76.720688
8138 1 31.058003 32.483354 90.435637
8139 1 26.261202 24.674487 72.793578
8140 1 30.413031 32.534948 76.340845
8141 1 29.223315 20.232046 79.242775
8142 1 24.327432 6.104102 78.136760
8143 1 22.534058 21.942288 82.007614
8144 1 0.322410 31.035561 82.359109
8145 1 0.065262 24.610299 78.943243
8146 1 26.347842 0.241657 82.295185
8147 1 19.873972 29.460320 77.532435
8148 1 27.288137 29.363791 85.435321
8149 1 22.802979 26.384825 79.007996
8150 1 18.562350 25.361437 86.298226
8151 1 20.564872 30.825235 75.102344
8152 1 27.125572 28.449948 94.802247
8153 1 24.733195 23.624711 83.547928
8154 1 22.601811 20.530180 84.689629
8155 1 21.693474 25.099913 92.259109
8156 1 19.647000 22.756929 87.515628
8157 1 20.429206 25.197157 87.943257
8158 1 24.276728 25.139768 105.466375
8159 1 4.479808 1.715314 110.141237
8160 1 22.496735 23.739561 88.753920
8161 1 21.857641 26.138195 103.434887
8162 1 23.528996 2.387713 108.991293
8163 1 30.752040 26.238159 98.768481
8164 1 26.950405 24.866485 96.046390
8165 1 25.875994 1.733040 117.329714
8166 1 29.362467 24.671575 108.374745
8167 1 0.091449 18.532534 100.540350
8168 1 26.674928 10.800322 111.922579
8169 1 26.106360 23.200640 98.116936
8170 1 21.260430 31.513788 113.778738
8171 1 21.393637 28.889313 121.300383
8172 1 25.231807 28.313811 108.628291
8173 1 27.484753 27.782566 116.578832
8174 1 4.786877 7.004926 116.438509
8175 1 0.492955 25.557983 121.511687
8176 1 0.154019 32.449563 109.086232
8177 1 27.328119 32.418809 114.322241
8178 1 25.634489 30.958811 121.011403
8179 1 31.919334 4.017142 128.497884
8180 1 27.867445 5.848364 121.158384
8181 1 26.430265 22.403692 119.404295
8182 1 1.398955 30.578807 131.942935
8183 1 31.792040 28.232423 127.934223
8184 1 1.894814 0.403495 117.043931
8185 1 23.505354 32.585398 132.170292
8186 1 28.663148 4.444562 123.587566
8187 1 31.316694 1.820234 127.341211
8188 1 3.953462 1.696226 116.374215
8189 1 25.553295 30.686488 132.207218
8190 1 27.649712 30.588216 133.897960
8191 1 29.976588 28.633133 133.984948
8192 1 29.699905 28.013036 129.634062
