LAMMPS (10 Sep 2025)
  using 1 OpenMP thread(s) per MPI task
# fcc fraction of GPUMD frames with the same CNA as md/e2_melting (cna/atom, cutoff 0.854 a0).
#   lmp -in in.cna_rerun -var d coexist_900
variable a0 equal 3.9899
units      metal
atom_style atomic
boundary   p p p
read_data  ${d}/frame0.data
read_data  coexist_920/frame0.data
Reading data file ...
  orthogonal box = (0 0 0) to (32.657113 32.616308 134.61523)
  1 by 1 by 1 MPI processor grid
  reading atoms ...
  8192 atoms
  read_data CPU = 0.179 seconds
pair_style zero 6.0
pair_coeff * *
compute    c all cna/atom $(0.854*v_a0)
compute    c all cna/atom 3.4073745999999998091
variable   isfcc atom c_c==1
compute    nf all reduce sum v_isfcc
variable   ffcc equal c_nf/atoms
thermo_style custom step v_ffcc
thermo_modify format float %.5f
thermo     1
rerun      ${d}/prod.dump dump x y z box yes
rerun      coexist_920/prod.dump dump x y z box yes
WARNING: No fixes with time integration, atoms won't move
For more information see https://docs.lammps.org/err0028 (src/lammps-10Sep2025/src/verlet.cpp:60)
Generated 0 of 0 mixed pair_coeff terms from geometric mixing rule
Neighbor list info ...
  update: every = 1 steps, delay = 0 steps, check = yes
  max neighbors/atom: 2000, page size: 100000
  master list distance cutoff = 8
  ghost atom cutoff = 8
  binsize = 4, bins = 9 9 34
  2 neighbor lists, perpetual/occasional/extra = 1 1 0
  (1) pair zero, perpetual
      attributes: half, newton on
      pair build: half/bin/atomonly/newton
      stencil: half/bin/3d
      bin: standard
  (2) compute cna/atom, occasional
      attributes: full, newton on
      pair build: full/bin/atomonly
      stencil: full/bin/3d
      bin: standard
Per MPI rank memory allocation (min/avg/max) = 8.33 | 8.33 | 8.33 Mbytes
   Step         v_ffcc    
         0  0.28479
         1  0.29150
         2  0.27563
         3  0.25073
         4  0.25220
         5  0.24487
         6  0.23730
         7  0.22278
         8  0.23584
         9  0.24854
        10  0.25037
        11  0.23218
        12  0.19983
        13  0.22656
        14  0.21948
        15  0.22620
        16  0.23645
        17  0.24622
        18  0.23169
        19  0.23071
        20  0.22803
        21  0.23706
        22  0.23816
        23  0.24060
        24  0.24792
        25  0.25793
        26  0.24817
        27  0.26660
        28  0.24902
        29  0.26111
        30  0.25891
        31  0.25525
        32  0.26416
        33  0.25745
        34  0.23938
        35  0.24500
        36  0.26770
        37  0.23621
        38  0.25244
        39  0.26550
        40  0.24683
        41  0.24951
        42  0.26099
        43  0.26465
        44  0.26306
        45  0.24402
        46  0.25305
        47  0.24255
        48  0.25696
        49  0.25269
Loop time of 9.57141 on 1 procs for 50 steps with 8192 atoms

Total wall time: 0:00:09
