frame 0 of coexist_920/prod.xyz

8192 atoms
1 atom types

0 32.65711280 xlo xhi
0 32.61630800 ylo yhi
0 134.61522500 zlo zhi

Masses

1 26.982

Atoms # atomic

1 1 32.313431 0.056934 1.822240
2 1 32.616047 2.506509 3.151820
3 1 2.206467 0.365748 3.296524
4 1 2.107785 2.166507 1.337309
5 1 32.483510 0.433069 5.403672
6 1 0.081771 2.546988 7.436187
7 1 2.047855 0.429945 7.222816
8 1 2.177893 2.161559 5.160181
9 1 0.268803 0.686453 9.502415
10 1 0.069964 2.470268 11.539053
11 1 2.132529 0.349314 11.571840
12 1 2.163183 2.470187 9.488105
13 1 0.287866 0.034124 13.496888
14 1 0.240831 2.344852 15.353803
15 1 2.160813 0.394807 15.149474
16 1 2.208336 2.601548 13.365296
17 1 0.274896 0.189079 17.583749
18 1 0.100654 2.317561 19.560324
19 1 2.000686 0.460593 19.384177
20 1 2.126492 2.151991 17.448014
21 1 32.645655 0.086332 21.310200
22 1 0.288521 2.266098 23.401566
23 1 2.317364 0.477463 23.055332
24 1 2.425388 2.807200 21.480261
25 1 32.635117 0.097377 25.143487
26 1 0.117715 2.125965 27.340811
27 1 2.604514 0.089288 27.300233
28 1 2.104464 2.192217 25.503684
29 1 0.165545 0.041735 29.313657
30 1 0.301994 1.878578 31.412721
31 1 2.094246 0.010936 31.068386
32 1 1.918461 2.052019 29.351800
33 1 0.143381 0.221616 33.391425
34 1 0.138487 1.801643 35.457123
35 1 2.248680 0.003114 35.599639
36 1 2.178503 2.123804 33.742547
37 1 0.151504 0.127205 37.575907
38 1 0.555928 2.142960 39.568141
39 1 2.601778 0.524003 39.341927
40 1 2.014271 2.286121 37.276444
41 1 0.356973 0.341885 41.749883
42 1 0.238490 1.840277 43.579585
43 1 2.510977 0.213876 43.536496
44 1 2.449973 2.194682 41.447220
45 1 32.422672 0.161626 46.122691
46 1 0.037143 2.121521 47.661586
47 1 2.564854 0.124869 47.245200
48 1 2.436508 2.341349 45.432237
49 1 0.304768 32.537339 49.567433
50 1 0.321479 1.935941 51.394946
51 1 2.305519 0.599441 51.303167
52 1 2.375866 2.548356 49.237584
53 1 0.048685 32.570844 53.726252
54 1 0.463759 2.304963 55.804999
55 1 2.470912 0.293683 55.445558
56 1 1.763466 2.303769 53.677103
57 1 0.299435 0.060627 57.738162
58 1 0.241811 2.324437 59.754147
59 1 1.992923 0.406821 59.879082
60 1 2.336367 2.274665 57.506775
61 1 32.570525 0.152310 61.973775
62 1 0.122733 2.157511 63.748644
63 1 2.001985 32.517193 63.866038
64 1 2.232668 2.164083 61.828974
65 1 0.284259 0.376302 65.848312
66 1 30.829995 4.727472 68.377525
67 1 4.441919 30.601005 67.945748
68 1 2.244727 2.224291 66.059790
69 1 2.590573 28.734684 68.007014
70 1 26.119796 1.604316 78.717848
71 1 6.637868 2.354387 73.810054
72 1 4.750072 0.149815 69.580182
73 1 28.594670 28.959045 73.699303
74 1 0.262847 5.811417 76.264359
75 1 2.618982 4.089338 71.978655
76 1 0.797138 1.913367 75.969567
77 1 32.548084 28.856387 77.858999
78 1 2.069021 30.705563 77.533326
79 1 8.447442 24.988254 77.908925
80 1 2.290805 0.073408 86.963174
81 1 32.220094 32.373945 90.877281
82 1 1.421564 32.526165 79.937418
83 1 1.534290 28.785235 75.751953
84 1 3.205226 26.213408 94.975126
85 1 5.635983 28.264250 91.209187
86 1 6.300836 18.483943 91.135049
87 1 5.851700 25.814064 91.672178
88 1 1.504805 27.371496 89.162752
89 1 5.229312 29.867160 95.278242
90 1 1.939769 31.217102 84.636274
91 1 32.504133 6.710371 97.450296
92 1 25.507504 4.675498 104.850170
93 1 2.285536 2.562179 106.431724
94 1 32.014872 5.379329 88.455130
95 1 24.179124 30.783723 91.773679
96 1 21.936603 3.226335 101.697139
97 1 0.418953 26.745940 100.410920
98 1 31.832642 4.952192 99.541937
99 1 29.746348 31.010177 102.680461
100 1 9.258008 29.572281 102.831169
101 1 29.962641 29.411688 109.972770
102 1 11.081243 8.750623 103.394983
103 1 10.530649 29.695856 112.248837
104 1 0.675214 12.239744 120.291292
105 1 26.816190 5.006972 115.161067
106 1 30.771967 0.981796 117.585248
107 1 2.545272 6.392313 123.990363
108 1 7.116953 3.378684 115.378649
109 1 6.437372 26.367582 111.285509
110 1 10.427122 30.726783 114.963849
111 1 6.852626 6.405215 123.469292
112 1 3.140145 9.354074 116.850432
113 1 28.542769 4.031944 116.754991
114 1 2.108125 28.928705 125.564423
115 1 24.363120 27.308977 118.163428
116 1 1.930747 30.707464 127.857788
117 1 2.265260 3.964131 129.618232
118 1 4.298511 6.145222 125.757452
119 1 4.196604 1.642179 125.707197
120 1 3.137173 8.715202 121.969130
121 1 28.368605 6.471018 129.762002
122 1 4.041945 12.871935 131.825818
123 1 4.001797 0.480782 131.970976
124 1 4.115612 28.536673 127.656590
125 1 8.185485 2.265738 133.416586
126 1 0.421398 1.981825 133.842095
127 1 1.958218 0.084276 133.961502
128 1 4.327832 4.451477 131.550684
129 1 0.393847 4.314509 1.343960
130 1 0.541758 6.394659 3.216794
131 1 2.185864 4.294627 3.237130
132 1 2.131235 6.314817 0.999462
133 1 0.268539 4.506721 5.469432
134 1 0.003873 6.652860 7.570448
135 1 2.065972 4.602107 7.405775
136 1 2.392966 6.337989 4.961613
137 1 0.095830 4.841993 9.284010
138 1 0.231935 6.553652 11.470805
139 1 1.788773 4.444808 11.210912
140 1 2.162541 6.480873 9.271650
141 1 0.428250 4.320404 13.388991
142 1 0.484636 6.113481 15.428616
143 1 2.556024 4.349153 15.566442
144 1 2.098887 6.188456 13.275201
145 1 0.032642 4.439589 17.256040
146 1 32.473831 6.183332 19.345235
147 1 2.078606 4.175740 19.413069
148 1 2.325749 6.087903 17.810199
149 1 0.109520 4.561837 21.348591
150 1 0.193002 6.745272 23.185108
151 1 2.454437 4.602999 23.747699
152 1 2.333808 6.533672 21.236064
153 1 32.643404 4.577943 25.330931
154 1 32.528068 6.601623 27.504476
155 1 2.335811 4.476869 27.659844
156 1 2.095443 6.362738 25.711262
157 1 0.213290 4.105331 29.232402
158 1 32.472131 6.128137 31.594960
159 1 2.121186 4.173017 31.444324
160 1 2.002065 6.378188 29.665761
161 1 0.382465 4.054370 33.361468
162 1 0.370427 6.328370 35.517459
163 1 2.238087 4.293882 35.518481
164 1 2.240400 6.169952 33.146052
165 1 0.014341 4.388469 37.515965
166 1 0.004825 6.010617 39.686855
167 1 2.200270 4.125461 39.451543
168 1 2.134890 5.954965 37.505692
169 1 0.054312 4.179292 41.772333
170 1 32.605419 6.348421 43.459759
171 1 2.106506 4.215726 43.575790
172 1 2.308054 6.330856 41.738416
173 1 0.117210 4.005328 45.391955
174 1 0.042949 6.920575 47.645840
175 1 1.438947 4.566110 47.555456
176 1 2.082970 6.090727 45.685458
177 1 0.073775 4.643680 49.660807
178 1 0.019452 6.338166 51.881979
179 1 2.129254 4.585933 51.593176
180 1 2.413325 6.210372 49.549652
181 1 32.483068 4.467105 53.920489
182 1 0.074011 6.312354 55.758655
183 1 2.209419 4.269240 55.750898
184 1 2.176400 6.434940 53.599251
185 1 0.166011 4.233396 57.789284
186 1 0.356409 6.435370 59.897953
187 1 2.271263 4.228751 59.974668
188 1 1.983079 6.601155 57.755227
189 1 0.388156 4.860528 61.958312
190 1 32.573653 6.633955 64.035125
191 1 2.041753 4.359447 63.923588
192 1 2.406466 6.275875 61.919970
193 1 28.713027 4.429117 65.856364
194 1 1.921944 6.397166 66.116458
195 1 6.559536 32.531911 67.678185
196 1 4.140797 8.508784 66.125572
197 1 2.314970 4.459816 67.977902
198 1 4.276166 7.778042 74.498527
199 1 0.743195 4.196904 74.333311
200 1 10.544670 8.379838 67.493589
201 1 28.659630 10.562191 68.161930
202 1 30.263213 5.011410 83.354129
203 1 8.732381 2.248691 71.707758
204 1 4.464585 2.687526 67.631324
205 1 3.307680 28.714992 82.345901
206 1 1.743261 29.781212 80.108833
207 1 4.539458 9.889754 88.849394
208 1 28.434319 0.453852 74.314560
209 1 4.436764 26.959840 89.197553
210 1 4.975765 5.548931 93.546182
211 1 1.965377 3.339928 93.562503
212 1 30.605472 29.063403 89.327119
213 1 6.301669 0.032841 95.350022
214 1 30.993536 3.461054 90.208664
215 1 1.640962 27.528216 93.055147
216 1 8.199775 30.478063 87.970246
217 1 0.984970 0.800481 94.022840
218 1 5.548752 13.458740 86.093326
219 1 0.338372 5.189362 95.378550
220 1 29.851441 0.535098 90.685803
221 1 1.502027 11.810997 94.305415
222 1 10.775160 13.086175 96.529431
223 1 2.817812 12.585434 92.311176
224 1 8.227496 15.657148 96.492470
225 1 0.233019 10.670324 100.477235
226 1 15.749871 11.424910 106.103943
227 1 11.756684 0.399337 109.737379
228 1 3.340395 8.674842 86.018992
229 1 15.258541 8.958796 107.155375
230 1 32.222889 12.402379 113.837591
231 1 9.193604 13.535487 118.890271
232 1 8.803433 15.255619 108.973322
233 1 24.529056 2.900624 112.267898
234 1 30.508090 2.728915 115.413447
235 1 29.279577 6.546464 110.991527
236 1 3.808695 13.506688 110.765141
237 1 10.672051 1.996048 116.054629
238 1 6.015116 0.131020 116.700703
239 1 5.064249 4.791073 111.527377
240 1 23.557212 16.304820 110.971809
241 1 4.507629 8.002266 123.910222
242 1 0.812509 6.148840 118.393711
243 1 8.193378 9.855391 114.865672
244 1 8.321260 10.749867 118.749437
245 1 30.528017 6.976520 117.474966
246 1 26.701923 3.934315 125.636660
247 1 2.046001 6.485048 127.191868
248 1 2.375858 10.515646 123.843019
249 1 30.814946 2.231799 131.776379
250 1 6.494750 10.734206 127.869755
251 1 8.023388 4.218083 127.770059
252 1 28.535456 10.339954 129.501089
253 1 30.617848 3.923131 133.843116
254 1 2.263951 6.137156 131.709369
255 1 2.204007 4.007879 133.590391
256 1 6.085409 6.462760 127.633887
257 1 0.518575 8.459101 1.190972
258 1 0.301583 10.648364 3.156349
259 1 2.404015 8.790935 3.215493
260 1 2.454225 10.668534 0.927122
261 1 0.375524 8.353718 5.310487
262 1 0.120940 10.239037 7.258251
263 1 1.969236 8.376955 7.593542
264 1 2.235901 10.357038 5.227705
265 1 0.071023 8.271994 9.534839
266 1 32.630269 10.299263 11.749618
267 1 2.293635 8.714001 11.422686
268 1 1.819223 10.253675 9.286734
269 1 0.092248 8.258464 13.695512
270 1 0.159630 10.114201 15.457187
271 1 2.341791 8.013180 15.406389
272 1 2.239684 10.413011 13.665714
273 1 0.407332 8.231838 17.385221
274 1 0.282968 10.314362 19.295958
275 1 2.498786 8.685617 19.241393
276 1 2.384783 10.252971 17.097529
277 1 0.195512 8.548848 21.433158
278 1 32.574487 10.489391 23.331737
279 1 2.172650 8.326187 23.749222
280 1 2.160622 10.183591 21.756101
281 1 0.160255 8.505510 25.187178
282 1 0.348305 10.897249 27.397518
283 1 2.104066 8.624258 27.061650
284 1 2.343313 10.598128 25.192295
285 1 0.393980 8.612700 29.380805
286 1 0.417698 10.459412 31.570828
287 1 2.106227 8.507357 31.160620
288 1 2.449903 10.594123 29.143472
289 1 0.083981 8.277623 33.674481
290 1 0.244345 10.157920 35.449792
291 1 2.430537 8.068484 35.243776
292 1 2.051594 10.318038 33.602980
293 1 0.150368 8.171311 37.530670
294 1 0.506334 10.506691 39.161924
295 1 2.161799 8.362391 39.675259
296 1 2.478541 10.259251 37.349255
297 1 0.211680 8.155915 41.509145
298 1 0.237766 10.223881 43.196338
299 1 1.991404 8.307432 43.825866
300 1 2.241124 10.366720 41.557825
301 1 0.048305 8.437090 45.670287
302 1 32.652124 10.110878 47.688757
303 1 2.174645 8.428487 47.458014
304 1 2.122095 10.167114 45.645894
305 1 32.648937 8.607171 50.046074
306 1 0.137161 10.517699 51.630751
307 1 2.157476 8.500041 51.438663
308 1 2.145258 10.597008 49.688216
309 1 32.605742 8.462392 53.709702
310 1 0.370816 10.436405 55.502371
311 1 2.110047 8.619298 55.506745
312 1 2.226241 10.341901 53.432711
313 1 0.366241 8.410814 57.822861
314 1 0.224291 10.289634 59.697039
315 1 2.481336 8.575616 59.662376
316 1 2.274449 10.507506 57.538777
317 1 0.258271 8.265804 62.018122
318 1 0.595494 10.558899 64.154804
319 1 2.245441 8.602688 64.239859
320 1 1.840927 10.431064 61.874665
321 1 4.136906 8.159671 70.295127
322 1 2.301318 10.564208 66.324991
323 1 5.940207 10.647616 65.925455
324 1 3.997644 12.595811 66.004279
325 1 0.356790 6.443624 68.204273
326 1 0.576170 12.073758 70.535730
327 1 6.269170 7.386737 76.400464
328 1 1.962532 12.424383 68.172926
329 1 2.124256 8.409636 68.368825
330 1 30.728458 6.817891 70.146107
331 1 32.259720 30.881075 75.942976
332 1 4.272234 1.802751 71.633700
333 1 6.194877 2.890000 87.031304
334 1 4.564129 11.996731 81.388805
335 1 15.093426 3.830783 86.513739
336 1 29.864049 0.129491 85.733808
337 1 29.960871 6.733348 91.951939
338 1 2.019560 2.654482 88.027801
339 1 27.667334 4.965024 87.071349
340 1 26.561506 9.680857 85.841230
341 1 12.914503 14.807122 89.846018
342 1 0.887069 8.709980 95.437593
343 1 26.962095 10.626652 88.406455
344 1 3.529034 15.365728 90.594077
345 1 29.919373 9.535858 91.773579
346 1 4.512058 15.742084 86.594582
347 1 14.148179 11.320204 93.165361
348 1 10.316319 15.273988 94.875146
349 1 31.581498 0.705217 96.215307
350 1 2.551177 23.003813 93.232811
351 1 13.068368 14.672015 100.686742
352 1 11.548054 15.184395 109.081905
353 1 0.957810 4.663338 98.099474
354 1 30.764495 14.236922 112.010486
355 1 7.295099 13.973661 103.539117
356 1 2.250647 24.424439 100.777483
357 1 30.732310 8.146676 89.548583
358 1 31.100776 14.253977 107.003052
359 1 31.731314 3.155534 94.096786
360 1 0.059970 22.733315 114.395967
361 1 5.890537 14.897936 109.126654
362 1 22.836803 4.966669 104.116989
363 1 3.379240 16.985703 113.465402
364 1 28.037895 11.691653 108.692319
365 1 31.951587 7.993215 119.784489
366 1 5.852664 22.336755 115.134341
367 1 2.726290 14.937764 108.684989
368 1 4.145066 15.299270 117.758878
369 1 19.773004 8.094982 119.366875
370 1 6.336680 9.858822 116.705069
371 1 4.323934 3.802691 127.034766
372 1 3.663766 6.376738 113.900548
373 1 0.255769 6.096862 125.063643
374 1 31.954421 16.616558 116.907066
375 1 3.663904 30.854052 121.290126
376 1 31.155331 5.001343 112.932664
377 1 30.771576 6.359229 127.489308
378 1 4.335462 14.805259 133.878096
379 1 30.530894 8.125249 129.437716
380 1 32.621635 4.049538 123.299949
381 1 0.221919 8.026546 131.373802
382 1 30.438899 6.738580 131.495087
383 1 2.405013 8.391378 133.579732
384 1 10.438698 14.710446 131.450246
385 1 0.283438 12.303928 0.801037
386 1 0.083438 14.287101 2.981757
387 1 2.005508 12.583397 2.750309
388 1 2.087838 14.699291 0.928786
389 1 0.259669 12.461561 5.351717
390 1 32.653093 14.311920 7.426361
391 1 2.098683 12.161477 7.312217
392 1 2.241420 14.213832 4.982316
393 1 0.010026 12.321287 9.517315
394 1 0.285235 14.544854 11.591904
395 1 2.281326 12.449832 11.331542
396 1 2.357957 14.420332 9.144199
397 1 0.217981 12.345437 13.057208
398 1 0.078526 14.613116 15.294042
399 1 2.468037 12.579135 15.306280
400 1 2.391492 14.640772 13.158105
401 1 0.259627 12.286237 17.209615
402 1 0.236046 14.529405 19.540905
403 1 2.158750 12.197489 18.968791
404 1 2.021798 14.466065 17.557782
405 1 0.338442 12.256256 21.390353
406 1 32.611999 14.514639 23.521304
407 1 2.314264 12.533659 23.422154
408 1 2.435193 14.360275 21.621944
409 1 0.273033 12.659808 25.477794
410 1 0.335568 14.842926 27.440350
411 1 2.415826 12.491922 27.302721
412 1 2.328217 14.515035 25.369771
413 1 0.169172 12.870305 29.204448
414 1 0.336333 14.466000 31.505395
415 1 2.333489 12.530238 31.015462
416 1 2.335957 14.426741 29.405761
417 1 0.164080 12.375855 33.227856
418 1 0.263386 14.428269 35.465368
419 1 2.163767 12.680839 34.965491
420 1 2.332227 15.006388 33.463449
421 1 0.359934 12.773734 37.426067
422 1 32.497542 14.291780 39.622256
423 1 2.424715 12.622239 39.139983
424 1 2.366222 14.935169 36.956498
425 1 0.422740 12.335209 41.640959
426 1 0.271825 14.576470 43.316265
427 1 2.586681 12.379203 43.698691
428 1 2.589114 14.375017 41.345897
429 1 0.335540 12.660006 45.547353
430 1 0.005289 14.683866 47.482904
431 1 2.324363 12.668053 47.399111
432 1 2.500611 14.459381 45.583650
433 1 0.314833 12.665317 49.562945
434 1 0.120052 14.803656 51.441729
435 1 2.032015 12.710871 51.615495
436 1 2.311269 14.748839 49.676807
437 1 0.170633 12.364233 53.803112
438 1 0.161016 14.304911 55.728596
439 1 2.307697 12.546271 55.586963
440 1 2.312056 14.603246 53.771431
441 1 0.335270 12.273067 57.644956
442 1 32.616652 14.274995 59.849677
443 1 2.354985 12.530854 59.724734
444 1 1.963298 14.514462 57.626586
445 1 0.130077 12.228892 61.758272
446 1 32.569597 14.289606 64.024175
447 1 1.979982 12.870062 63.695185
448 1 2.138693 14.524427 61.676965
449 1 0.157347 12.545891 66.065442
450 1 31.170817 8.275864 72.530798
451 1 5.965549 12.183185 68.203496
452 1 3.864123 16.467795 65.967011
453 1 0.750488 0.440067 73.984897
454 1 1.968185 6.553131 78.197771
455 1 4.257606 14.326634 72.133506
456 1 8.288120 16.606948 69.977904
457 1 2.388730 5.991683 74.770091
458 1 4.941392 4.539344 81.292539
459 1 2.579503 6.245506 70.184916
460 1 28.937760 8.647304 70.526409
461 1 30.440471 30.595748 77.729034
462 1 30.480548 9.944649 77.665412
463 1 8.510064 4.953756 77.499057
464 1 32.477504 12.443519 74.412130
465 1 8.026378 14.450634 77.047437
466 1 28.211006 12.421785 80.439366
467 1 0.499639 8.259837 81.990055
468 1 2.690874 22.977681 74.607360
469 1 5.055671 5.194481 87.632861
470 1 0.232904 12.429174 91.865614
471 1 29.600876 12.746752 95.890644
472 1 6.601648 19.094226 79.065736
473 1 31.086443 16.176747 95.510038
474 1 5.177102 12.641000 103.274564
475 1 5.813505 18.237143 107.357740
476 1 4.950800 17.837918 93.452185
477 1 8.363637 16.202481 89.637624
478 1 8.394852 11.817624 97.956346
479 1 10.851128 19.621367 97.506978
480 1 6.747250 22.790836 99.985759
481 1 2.506613 19.805289 105.743431
482 1 7.542498 26.073182 106.218784
483 1 0.106199 21.617974 101.463009
484 1 0.883914 20.082207 108.279585
485 1 0.985529 17.534675 109.028727
486 1 27.640254 5.791998 106.470773
487 1 27.796716 16.567167 108.355516
488 1 3.317565 19.432949 108.562952
489 1 26.320965 12.100242 105.804127
490 1 24.839486 20.452179 105.981466
491 1 1.570935 11.946721 110.144711
492 1 30.192861 22.716204 123.347928
493 1 2.218063 20.803490 114.703394
494 1 5.365647 15.296173 111.794271
495 1 2.503439 16.083375 111.119795
496 1 32.155211 21.804079 116.625670
497 1 26.818355 9.563989 112.466295
498 1 9.094317 16.240855 119.332344
499 1 4.990736 10.142292 118.838779
500 1 1.223627 21.115592 121.203632
501 1 28.981017 9.371453 115.449241
502 1 30.842728 19.046725 116.638189
503 1 31.882547 19.122098 111.388484
504 1 28.714710 12.327442 127.416097
505 1 8.272378 8.223381 118.274970
506 1 30.836782 12.294869 125.983554
507 1 3.940365 12.420445 127.732912
508 1 4.384869 16.765533 127.145929
509 1 30.514847 10.783776 131.596544
510 1 0.029140 14.511284 133.685266
511 1 2.070948 12.641649 133.927000
512 1 2.046915 12.758190 129.596897
513 1 0.014722 16.704903 1.151707
514 1 0.187393 18.651368 2.976458
515 1 2.088751 16.844754 3.341602
516 1 2.141905 18.747862 0.961657
517 1 0.004090 16.173416 5.275618
518 1 32.448269 18.497109 7.058807
519 1 2.147068 16.272903 7.195355
520 1 1.983289 18.572466 5.675076
521 1 0.215990 16.217092 9.243251
522 1 32.636500 18.423162 11.125410
523 1 2.332938 16.809426 11.308401
524 1 1.995445 18.698002 9.041848
525 1 0.278064 16.674032 13.346959
526 1 32.609030 18.496321 15.487374
527 1 2.070502 16.385063 15.269738
528 1 2.159197 18.627205 13.558902
529 1 0.528745 16.436366 17.467852
530 1 0.076582 18.476485 19.553892
531 1 2.069857 16.646289 19.630795
532 1 2.472798 18.260006 17.149062
533 1 0.506549 16.563827 21.997177
534 1 0.221690 18.420369 23.753045
535 1 2.158538 16.420350 23.771971
536 1 2.156546 18.659822 21.709672
537 1 0.152266 16.416926 25.502763
538 1 32.593865 18.407380 27.421443
539 1 2.051007 16.657334 27.569631
540 1 2.206419 18.474259 25.646188
541 1 32.551390 16.393771 29.524551
542 1 32.461171 18.285538 31.569438
543 1 2.281397 16.551300 31.522410
544 1 1.683719 18.330667 29.612936
545 1 0.035690 16.699366 33.614523
546 1 0.234811 18.662793 35.612174
547 1 2.059608 16.815620 35.345468
548 1 1.959679 18.412944 33.291220
549 1 0.066617 16.584872 37.097750
550 1 0.018256 18.607116 39.685744
551 1 1.910799 16.398218 39.483216
552 1 2.214309 18.859040 37.971275
553 1 32.451635 16.537497 41.489991
554 1 0.123671 18.930226 43.538108
555 1 2.181662 16.405516 43.462623
556 1 2.093038 18.389217 41.309454
557 1 0.388885 16.597466 45.381478
558 1 0.533843 18.464060 47.412002
559 1 2.250233 16.492342 47.272773
560 1 2.196446 18.455847 45.469448
561 1 0.047607 16.417469 49.325474
562 1 32.619615 18.327582 51.497099
563 1 1.875033 16.671350 51.925995
564 1 2.306813 18.177466 49.380151
565 1 0.063812 16.370670 53.980035
566 1 0.092073 18.607858 55.664823
567 1 2.241252 16.763995 55.675932
568 1 2.431344 18.945112 53.724435
569 1 0.425318 16.296172 57.866229
570 1 0.237722 18.661780 60.067152
571 1 1.868612 16.207571 59.869850
572 1 1.719929 18.541983 57.630046
573 1 32.499775 16.469355 62.081667
574 1 0.167577 18.745363 63.722363
575 1 1.980655 16.266741 64.234105
576 1 2.637154 18.090556 62.010455
577 1 32.587620 14.528566 68.026522
578 1 0.135283 16.723515 66.094473
579 1 0.279956 10.517727 68.252753
580 1 1.647321 14.443517 70.123503
581 1 0.314801 10.963907 79.193780
582 1 0.129533 18.234312 72.066890
583 1 4.104635 16.718924 74.322456
584 1 10.032696 14.508217 69.876148
585 1 22.816945 12.221279 71.554170
586 1 6.035247 18.714480 74.480377
587 1 28.902644 10.326617 72.809632
588 1 29.142755 20.717525 70.096180
589 1 31.213701 13.177323 76.625414
590 1 4.352946 23.051011 79.595371
591 1 0.334906 8.457098 70.592077
592 1 8.375398 18.372644 75.598669
593 1 0.785098 17.559100 83.598951
594 1 30.283375 11.112642 84.151396
595 1 4.611648 18.411735 76.723330
596 1 31.748772 14.892533 78.355441
597 1 0.152155 9.667529 84.153384
598 1 21.413579 7.506641 95.435764
599 1 31.665315 8.719072 79.768428
600 1 0.303823 21.155609 89.658035
601 1 7.075423 13.166995 90.611739
602 1 1.805407 18.870815 88.420379
603 1 6.473172 13.055632 82.840432
604 1 2.434689 17.870535 92.211173
605 1 30.358247 22.444869 101.461963
606 1 26.035387 7.085475 94.461498
607 1 28.011125 23.906534 95.359679
608 1 30.845388 17.193059 98.181365
609 1 29.942081 19.249934 104.677512
610 1 2.806719 27.902934 104.584168
611 1 4.867150 29.540927 105.233476
612 1 3.971655 21.095873 110.407993
613 1 1.113685 16.160720 106.817073
614 1 24.815579 25.224228 105.160965
615 1 31.783813 21.888866 109.768960
616 1 8.744437 18.480752 112.523544
617 1 27.916636 29.530502 105.406380
618 1 26.939850 19.373212 114.676252
619 1 10.530596 18.783683 116.106053
620 1 27.488132 27.167304 112.624774
621 1 31.716307 24.739377 115.923371
622 1 1.069731 18.595141 113.359879
623 1 27.652676 18.955532 109.645663
624 1 14.290742 22.801485 109.499001
625 1 13.145937 13.509702 118.556167
626 1 0.765863 15.385961 120.927740
627 1 8.766230 20.405802 123.684269
628 1 6.638252 19.068392 122.438800
629 1 28.438530 14.653674 125.731512
630 1 2.187903 16.150996 116.230226
631 1 30.548134 16.475375 129.476367
632 1 5.831576 17.661153 115.892905
633 1 0.147704 14.302454 125.655492
634 1 30.747416 14.672939 131.188230
635 1 0.872480 15.890556 113.595538
636 1 26.829162 16.858252 129.572755
637 1 32.292486 17.531605 123.157046
638 1 2.052888 14.486308 131.991721
639 1 2.198819 20.745523 129.677744
640 1 0.231393 18.901020 133.517239
641 1 0.256013 20.783094 1.105845
642 1 32.600025 22.507444 3.412912
643 1 2.084552 20.509933 3.225509
644 1 2.360130 22.492856 1.567856
645 1 0.045746 20.805799 5.659807
646 1 0.313283 22.860354 7.488299
647 1 2.236643 20.696692 7.164872
648 1 2.358413 22.734641 4.996236
649 1 0.262224 20.797884 9.136614
650 1 0.335632 22.690345 10.985654
651 1 1.788045 20.392226 11.129338
652 1 2.597329 22.574383 9.169736
653 1 32.619245 20.701143 13.379239
654 1 0.283048 22.489349 15.461295
655 1 2.273440 20.664396 15.045220
656 1 2.386856 22.711500 13.146907
657 1 0.068100 20.407774 17.251306
658 1 0.007988 22.609023 19.617917
659 1 1.848199 20.465407 19.580634
660 1 2.163476 22.511224 17.642085
661 1 0.108734 20.524837 21.708854
662 1 0.017101 22.557604 23.646566
663 1 2.211235 20.420955 23.629386
664 1 2.064268 22.473750 21.410577
665 1 32.429566 20.508292 25.343258
666 1 0.374993 22.589483 27.244676
667 1 1.872034 20.462087 27.415473
668 1 2.017507 22.381246 25.443160
669 1 0.105590 20.569181 29.465462
670 1 0.184187 22.568293 31.614252
671 1 2.327204 20.736337 31.784689
672 1 2.092511 22.488601 29.515353
673 1 32.491714 20.625100 33.442745
674 1 0.059870 22.647397 35.677632
675 1 2.486840 20.905546 35.878046
676 1 1.897819 22.615387 33.685735
677 1 0.360232 20.730453 37.761496
678 1 0.408640 22.653323 39.792791
679 1 2.459421 20.624679 39.669816
680 1 1.925880 22.692527 37.669718
681 1 0.350314 20.643195 41.636617
682 1 32.619428 22.185940 43.911733
683 1 2.167022 20.538757 43.759437
684 1 2.477994 22.610726 41.483514
685 1 0.268767 20.596987 46.033623
686 1 32.520443 22.565297 47.816383
687 1 2.342045 20.507136 47.323078
688 1 2.188841 22.691079 45.811661
689 1 0.232228 20.214047 49.514721
690 1 32.419838 22.472502 51.474595
691 1 2.155939 20.711911 51.572300
692 1 1.905150 22.568997 49.534386
693 1 32.617136 20.796744 53.839196
694 1 0.149810 22.868928 56.054573
695 1 2.052222 20.662242 56.135281
696 1 2.086631 22.648206 54.012280
697 1 32.393419 20.632460 57.819362
698 1 0.305305 22.917576 59.742052
699 1 2.125284 20.691355 59.968799
700 1 2.414816 23.106040 57.547553
701 1 0.094212 20.719072 61.825648
702 1 0.053168 22.329399 64.087278
703 1 2.326315 20.339224 63.794931
704 1 2.003738 22.661894 61.909742
705 1 0.105942 20.503974 65.985183
706 1 30.980629 18.703316 70.232503
707 1 0.031304 18.817919 68.294297
708 1 2.239666 22.559225 66.459315
709 1 3.999196 20.971218 78.054204
710 1 6.846232 22.776734 76.703736
711 1 10.642057 18.643990 69.957837
712 1 0.313772 24.708601 70.155729
713 1 3.770699 15.625371 79.131160
714 1 26.766728 20.277878 76.873382
715 1 2.077120 18.779005 69.798736
716 1 4.186397 18.473641 68.440299
717 1 3.065115 19.175372 82.322155
718 1 1.948340 25.169566 76.364334
719 1 5.200917 17.671989 80.754419
720 1 1.152717 17.492581 76.233848
721 1 3.731808 26.871014 84.302225
722 1 30.862518 16.652398 76.555963
723 1 1.149197 14.903916 83.324743
724 1 9.281030 16.781856 77.682986
725 1 11.263752 15.193576 83.912206
726 1 4.801840 22.600190 91.715012
727 1 11.355146 21.164596 86.107743
728 1 5.117530 20.631683 84.061691
729 1 32.031810 18.628879 88.954055
730 1 22.436574 21.030405 96.494732
731 1 2.579716 17.444737 97.770347
732 1 0.281029 21.575384 86.427889
733 1 32.436219 25.605270 87.693919
734 1 5.053683 20.812873 107.265843
735 1 28.727676 14.330543 107.538765
736 1 10.497723 24.292625 99.631151
737 1 1.955704 20.646683 102.998866
738 1 6.227463 26.110934 94.462766
739 1 4.815967 18.901831 104.720459
740 1 4.747591 20.360631 102.444133
741 1 7.380188 29.895422 99.779699
742 1 26.135357 12.193519 110.627052
743 1 2.995066 22.451887 107.511825
744 1 30.970941 24.866777 103.622354
745 1 5.666203 28.281598 112.610551
746 1 24.070511 25.100996 101.122804
747 1 32.409154 25.961721 121.317120
748 1 31.842212 20.168698 114.204988
749 1 2.570986 27.286940 117.567045
750 1 1.720315 21.209146 125.610819
751 1 24.833824 25.487276 122.935323
752 1 31.518419 24.478601 118.684954
753 1 32.594575 17.712053 119.032840
754 1 28.918150 29.434805 114.628008
755 1 30.541956 20.579608 125.554172
756 1 22.652967 1.949330 114.411987
757 1 26.106306 18.435421 123.732829
758 1 26.607541 18.591241 127.423873
759 1 26.932279 18.618039 132.250108
760 1 0.674249 26.648874 129.926390
761 1 28.701540 20.822286 127.876539
762 1 30.709680 24.553848 125.691423
763 1 2.264632 22.693786 131.479556
764 1 0.078277 24.857781 127.830483
765 1 0.147927 16.516163 131.583170
766 1 0.064059 22.579707 133.843358
767 1 2.093464 21.075521 133.824207
768 1 0.060901 20.822281 131.596082
769 1 0.418809 24.477377 1.291046
770 1 0.413524 26.811481 3.319743
771 1 2.316292 24.678462 3.388456
772 1 2.196882 26.824311 1.258759
773 1 0.076623 24.774381 5.438499
774 1 0.285274 26.803170 7.532546
775 1 2.447959 24.451611 7.299166
776 1 2.370378 26.915255 5.729411
777 1 0.437092 24.818440 9.494822
778 1 0.297331 27.169992 11.396989
779 1 2.183871 24.480562 11.286612
780 1 2.288441 26.811502 9.225839
781 1 32.638213 24.447880 13.639022
782 1 0.385173 26.687935 15.549749
783 1 2.073710 24.410538 15.517642
784 1 1.940014 26.312667 13.439172
785 1 0.374382 24.661118 17.654483
786 1 0.331792 26.835371 19.289154
787 1 2.194878 24.496725 19.657610
788 1 2.500303 26.816009 17.387771
789 1 32.602039 24.667865 21.392380
790 1 32.595492 26.614890 23.398998
791 1 1.967418 24.744125 23.397343
792 1 1.941923 26.716694 21.489557
793 1 0.171571 24.812383 25.471019
794 1 0.060340 26.989974 27.405386
795 1 2.299981 24.713300 27.661651
796 1 1.927682 26.789159 25.511965
797 1 0.019340 24.726882 29.477426
798 1 0.123783 26.790012 31.523435
799 1 2.121601 24.623531 31.516024
800 1 2.094386 26.558038 29.647089
801 1 0.016783 24.831917 33.304186
802 1 0.068054 26.692860 35.423184
803 1 2.173070 24.757087 35.577621
804 1 1.959189 26.947527 33.558864
805 1 0.092461 24.497837 37.579341
806 1 0.180233 26.830321 39.413256
807 1 2.148348 24.628862 39.676685
808 1 2.291014 26.480884 37.623208
809 1 0.369403 25.050444 41.807219
810 1 0.418839 26.865224 43.729363
811 1 2.028301 24.501269 43.814539
812 1 2.303313 26.848387 41.419470
813 1 0.102826 24.263248 45.645004
814 1 0.302230 26.976331 47.689806
815 1 2.228152 24.857160 47.807769
816 1 2.233847 26.792025 45.743117
817 1 0.197693 24.601991 49.579477
818 1 32.622208 26.137522 51.740888
819 1 1.936357 24.129575 51.629805
820 1 2.232788 26.902259 49.850150
821 1 32.402115 24.243332 53.811868
822 1 0.325092 26.843822 55.839372
823 1 2.083848 24.645505 55.704666
824 1 2.154490 26.813622 53.727843
825 1 0.429457 24.955482 58.089211
826 1 0.177180 27.014080 59.953741
827 1 2.099298 24.858329 60.014038
828 1 2.045862 27.277564 58.207705
829 1 0.044723 24.567712 62.141334
830 1 0.344976 27.122946 64.147828
831 1 2.319077 24.671974 64.005800
832 1 2.139564 26.729593 62.031008
833 1 30.833633 26.799322 65.862129
834 1 0.359679 26.875410 67.992436
835 1 4.759956 24.918905 70.394102
836 1 0.473276 28.763178 70.027590
837 1 4.189293 20.578016 70.134144
838 1 28.932234 13.956746 71.787745
839 1 0.286738 19.839199 74.206028
840 1 6.305539 30.671209 70.166143
841 1 28.634688 22.370427 76.342744
842 1 10.988711 24.531427 75.936604
843 1 30.754920 18.240589 74.296752
844 1 4.665220 21.121900 75.253376
845 1 30.952064 22.582801 70.122074
846 1 4.927139 28.851033 78.355517
847 1 10.232256 28.614208 76.272813
848 1 5.403052 18.190654 83.654982
849 1 24.681595 27.415533 89.049171
850 1 3.825483 21.942841 82.236866
851 1 10.925865 27.452143 82.409871
852 1 9.537497 25.917163 84.507050
853 1 27.758765 21.482063 87.923080
854 1 24.216451 21.423487 86.240025
855 1 31.736718 19.686397 99.988255
856 1 4.108261 18.881716 96.177072
857 1 27.537596 19.099057 85.857731
858 1 28.356694 26.542329 99.801174
859 1 27.349675 16.628459 98.482418
860 1 9.502404 27.943740 95.795511
861 1 30.071772 14.741641 97.636279
862 1 6.731205 18.850380 102.923839
863 1 0.106382 25.009499 109.551106
864 1 26.271457 26.134576 95.315207
865 1 21.712108 23.688288 100.558384
866 1 12.304751 2.657007 114.230443
867 1 5.072296 22.928614 98.095126
868 1 9.963345 28.888872 107.972684
869 1 3.968765 28.093512 96.852121
870 1 23.126579 31.976773 104.846667
871 1 5.465246 23.920988 105.917364
872 1 3.708998 29.704488 111.487058
873 1 32.196576 26.381809 111.984938
874 1 31.908658 31.553287 120.683241
875 1 31.048765 1.799788 123.273178
876 1 9.119720 25.951039 115.378840
877 1 7.757792 21.716700 112.656537
878 1 5.135790 20.444579 118.758374
879 1 0.492633 20.317216 127.516545
880 1 6.971346 21.248310 109.747632
881 1 32.228024 28.824590 118.972169
882 1 31.086991 18.339905 127.667633
883 1 23.150097 23.013639 123.715976
884 1 26.981676 26.687831 117.997173
885 1 31.014035 20.576771 129.479699
886 1 0.348893 28.439246 127.657205
887 1 30.706411 26.704833 127.800617
888 1 2.337350 24.655718 125.470884
889 1 29.084776 24.576965 128.144196
890 1 28.666094 24.508408 131.794596
891 1 24.844006 26.589092 129.741697
892 1 31.091930 28.870718 121.285655
893 1 30.904539 22.559756 127.833792
894 1 0.044306 26.758451 133.876418
895 1 1.995146 24.589743 133.576652
896 1 2.397929 26.497400 127.423693
897 1 0.163716 28.866033 1.413126
898 1 0.153357 30.746778 3.810511
899 1 2.315714 28.817240 3.697817
900 1 1.801360 31.060766 1.404488
901 1 32.513105 28.492576 5.519346
902 1 0.082319 31.455998 7.467395
903 1 1.653740 29.235999 7.534295
904 1 1.964872 31.079054 5.432305
905 1 0.036022 28.911652 9.570735
906 1 0.087530 30.650002 11.781591
907 1 2.353568 28.588025 11.365251
908 1 1.786030 31.078698 9.547121
909 1 0.431191 28.674257 13.869443
910 1 0.266641 30.534962 15.703063
911 1 2.506744 28.905223 15.470871
912 1 2.432337 30.855078 13.282481
913 1 0.227182 28.712454 17.464554
914 1 32.539035 30.743161 19.598583
915 1 2.106921 28.643978 19.433300
916 1 2.091049 30.654463 17.591715
917 1 32.584891 28.731768 21.421414
918 1 0.396162 31.100131 23.399309
919 1 2.276997 28.503110 23.376354
920 1 1.985283 30.942856 21.153935
921 1 0.141787 28.817579 25.232420
922 1 0.421437 30.849600 27.067060
923 1 2.523172 28.919877 27.426467
924 1 2.221309 30.908738 25.130743
925 1 0.231794 28.698290 29.632821
926 1 32.569419 30.741306 31.481966
927 1 2.365951 28.609233 31.375739
928 1 2.057197 30.828438 29.328964
929 1 32.492126 28.966052 33.709377
930 1 0.040213 30.917908 35.718221
931 1 1.989440 28.501409 35.725497
932 1 2.092013 30.604492 33.636607
933 1 0.251499 28.805087 37.755938
934 1 0.439538 31.096541 39.531897
935 1 2.381912 28.896954 39.631637
936 1 2.307735 30.857383 37.545069
937 1 0.438323 28.951930 41.461664
938 1 0.352611 30.984525 43.777317
939 1 2.313879 29.078655 43.684084
940 1 2.313445 31.172628 41.552413
941 1 0.051479 29.198197 45.482066
942 1 0.621199 30.516933 47.848908
943 1 2.305298 28.670001 47.565720
944 1 2.142283 30.728177 45.494095
945 1 32.573487 28.559752 49.830811
946 1 32.537743 30.677386 51.510195
947 1 2.014740 28.937292 51.795787
948 1 2.341546 30.971678 49.659938
949 1 0.108219 28.925814 53.778709
950 1 0.490692 30.826504 55.771454
951 1 2.238565 28.958545 55.636047
952 1 2.249820 31.348230 53.301829
953 1 0.372999 28.982258 57.653973
954 1 0.044192 30.788292 59.836339
955 1 2.215409 28.987784 60.032332
956 1 2.232385 30.950806 57.883025
957 1 0.269199 28.832533 61.888696
958 1 0.058175 30.882401 64.170079
959 1 2.261045 29.248735 63.950198
960 1 2.253294 30.923864 61.763110
961 1 2.076279 30.797916 65.967209
962 1 2.529052 30.959739 69.807677
963 1 0.140786 28.631651 66.269858
964 1 4.108889 28.624087 66.109298
965 1 2.348443 24.758225 72.256450
966 1 2.307527 28.722620 72.269878
967 1 4.524334 26.771899 72.177695
968 1 4.324477 25.057422 74.085466
969 1 0.255005 24.616527 73.968487
970 1 2.345246 27.836355 78.205719
971 1 0.529569 0.134433 69.595898
972 1 6.194965 29.290478 80.463029
973 1 2.222235 26.803733 70.235867
974 1 30.471498 29.581554 83.223063
975 1 30.572786 26.631621 74.113228
976 1 6.080061 25.323038 76.235678
977 1 0.921112 19.228297 78.090767
978 1 8.794892 21.135075 86.916312
979 1 9.552918 32.221641 83.885154
980 1 29.124405 23.849244 79.530134
981 1 22.446642 27.370685 95.762542
982 1 30.090432 3.307205 87.601038
983 1 9.346663 25.099752 95.405509
984 1 3.913114 24.646275 85.831344
985 1 1.076814 1.725887 103.547799
986 1 26.113798 0.909022 100.606868
987 1 30.739173 9.131510 101.788016
988 1 28.302142 23.583551 83.142431
989 1 29.116455 5.359063 99.933873
990 1 7.070089 1.685529 107.884742
991 1 7.437525 6.893417 97.826256
992 1 10.056119 30.309860 100.144858
993 1 17.918629 27.265999 97.925710
994 1 9.994998 25.142176 104.818013
995 1 27.698671 1.117083 108.309882
996 1 10.012516 0.812766 113.871134
997 1 29.842211 24.770776 121.400101
998 1 1.439719 30.330330 119.045792
999 1 3.929011 25.165962 103.880415
1000 1 31.451749 8.339766 108.305002
1001 1 7.951052 31.024673 104.552477
1002 1 6.177742 7.997924 114.639223
1003 1 24.470080 23.309317 121.492748
1004 1 31.561528 31.127401 117.853793
1005 1 32.325157 27.409143 116.687368
1006 1 3.422885 7.777684 119.369429
1007 1 8.823752 32.575444 118.556789
1008 1 2.197762 10.136848 119.391471
1009 1 8.862837 26.078771 120.496621
1010 1 1.788050 32.139427 109.325389
1011 1 28.932541 32.156195 123.014428
1012 1 0.821357 26.118526 118.917308
1013 1 21.136135 22.802916 121.661141
1014 1 31.448728 31.078612 123.028296
1015 1 30.906530 28.680697 125.837157
1016 1 26.653343 31.544905 115.375777
1017 1 0.180772 24.969399 131.673716
1018 1 4.048613 30.670153 133.939868
1019 1 1.935510 30.658307 132.008618
1020 1 0.113790 28.795526 132.075059
1021 1 28.871888 26.397651 133.993140
1022 1 32.586401 30.940214 133.957934
1023 1 2.064371 28.484547 133.995483
1024 1 26.793600 20.776799 125.927118
1025 1 4.072178 32.472689 1.281942
1026 1 4.667665 2.260814 3.102205
1027 1 6.069453 0.047568 3.122951
1028 1 6.287554 2.431324 1.103949
1029 1 3.964570 0.261878 5.447121
1030 1 4.221595 2.362387 7.211399
1031 1 6.128623 0.317873 7.453239
1032 1 6.292013 2.401283 5.285936
1033 1 3.834310 0.172496 9.502188
1034 1 4.216519 2.412592 11.275400
1035 1 6.449238 0.366835 11.226253
1036 1 6.316531 2.749563 9.264665
1037 1 4.762118 0.179327 13.129986
1038 1 4.428328 2.246730 15.106528
1039 1 6.350465 0.345496 15.262633
1040 1 6.079767 2.120687 13.245437
1041 1 3.974620 0.118633 17.500777
1042 1 4.194195 2.289452 19.303305
1043 1 6.265578 0.399444 19.435620
1044 1 6.500031 2.357968 17.068287
1045 1 4.000870 32.610191 21.180377
1046 1 4.103585 2.366113 23.630546
1047 1 6.295761 0.294857 23.520018
1048 1 5.772552 2.253855 21.456120
1049 1 4.237963 0.128427 25.157935
1050 1 4.231175 2.396129 27.810881
1051 1 6.573529 0.028150 27.631252
1052 1 6.043507 2.051874 25.887211
1053 1 4.606000 32.478183 29.423039
1054 1 4.033731 2.161250 31.523409
1055 1 6.164922 0.169785 31.547805
1056 1 6.294071 2.218804 29.593314
1057 1 3.979605 0.101624 33.663074
1058 1 4.573749 2.167646 35.402305
1059 1 6.378733 0.089101 35.332648
1060 1 6.151356 1.992009 33.498506
1061 1 4.583355 0.100775 37.410809
1062 1 4.583612 2.444197 39.505389
1063 1 6.376743 0.610645 39.610015
1064 1 6.294816 2.320708 37.282946
1065 1 4.362713 0.574852 41.371260
1066 1 4.330519 2.358247 43.513446
1067 1 6.192331 0.509657 43.317236
1068 1 6.338574 2.475903 41.674411
1069 1 4.352757 0.217500 45.400416
1070 1 4.227135 2.298186 47.564792
1071 1 6.306453 0.182914 47.513487
1072 1 6.177271 2.236631 45.275426
1073 1 4.356318 0.260876 49.827117
1074 1 4.113920 2.526112 51.848819
1075 1 6.324700 0.541167 51.509376
1076 1 6.016918 2.291895 49.542167
1077 1 4.438060 0.287484 53.776982
1078 1 4.507282 2.396852 55.886095
1079 1 6.216984 0.270655 55.969548
1080 1 6.354535 2.307303 53.418317
1081 1 4.373512 0.236050 57.903180
1082 1 4.086149 2.393007 59.477257
1083 1 6.253210 0.267612 59.878259
1084 1 6.619556 2.275462 57.802480
1085 1 4.437612 0.134140 61.746960
1086 1 4.089239 2.199079 63.809469
1087 1 6.430636 0.294125 63.861401
1088 1 6.379719 2.218834 61.722116
1089 1 4.164488 0.051122 65.365949
1090 1 6.359812 0.212517 72.170851
1091 1 10.506732 0.259865 71.194507
1092 1 6.350493 2.524532 65.805750
1093 1 28.914655 6.666639 68.252979
1094 1 12.628800 4.426847 69.721059
1095 1 0.288605 26.958386 79.754212
1096 1 4.364614 0.281729 73.741952
1097 1 12.846042 4.943570 85.648025
1098 1 0.424801 30.782091 72.165165
1099 1 4.092128 31.770712 79.235772
1100 1 2.929182 0.193935 67.646133
1101 1 4.439198 25.992401 78.395618
1102 1 6.292830 31.990801 80.614675
1103 1 12.663026 2.967522 82.370267
1104 1 12.951753 2.366327 76.410184
1105 1 31.818206 2.831928 80.071423
1106 1 3.453180 22.066067 85.827957
1107 1 9.560662 27.215536 78.897802
1108 1 10.022229 2.699317 82.805375
1109 1 10.312816 20.895173 89.376550
1110 1 3.674522 3.782199 86.293844
1111 1 32.213592 2.351127 99.188589
1112 1 32.501920 31.593289 86.646438
1113 1 7.449858 28.562648 93.055942
1114 1 9.214530 10.255485 95.904963
1115 1 7.802027 4.489716 100.707494
1116 1 4.096581 0.866832 93.889038
1117 1 1.212008 5.563143 104.869098
1118 1 8.507537 1.822156 101.491461
1119 1 4.431262 30.482862 99.401037
1120 1 23.190559 32.141215 85.439291
1121 1 14.335728 8.442626 109.500613
1122 1 16.925065 8.122597 109.353836
1123 1 2.872624 5.182101 109.811684
1124 1 3.803024 29.065671 102.052190
1125 1 8.238198 4.142529 107.993990
1126 1 4.012704 10.390235 108.936521
1127 1 7.048373 28.933950 116.886902
1128 1 16.893150 6.766600 107.129317
1129 1 13.063546 2.148771 111.266791
1130 1 6.186768 4.030093 118.827754
1131 1 5.786921 0.258089 114.105161
1132 1 11.436062 4.000080 111.696913
1133 1 7.954320 0.749267 115.248247
1134 1 11.151751 10.568168 111.943731
1135 1 0.212245 29.219081 112.054533
1136 1 2.405810 8.923338 114.308101
1137 1 9.376842 4.878551 115.802771
1138 1 5.514804 30.223806 114.364062
1139 1 7.409682 4.930198 121.007053
1140 1 1.951070 0.211493 129.407070
1141 1 1.719561 30.689632 123.006910
1142 1 6.076170 4.084834 129.433454
1143 1 3.683542 27.014597 121.500751
1144 1 16.083674 6.276813 125.494159
1145 1 1.913584 4.261473 125.786576
1146 1 2.225537 8.173019 129.182699
1147 1 3.709561 30.947180 129.884711
1148 1 10.088964 4.382726 129.730466
1149 1 8.033543 4.481772 132.298544
1150 1 4.193964 2.236903 134.050415
1151 1 4.365236 10.370518 129.516814
1152 1 5.918110 0.113205 130.263206
1153 1 4.171991 4.217496 1.287340
1154 1 4.204638 6.258580 3.178543
1155 1 6.412776 4.604830 3.014789
1156 1 6.123459 6.577270 1.244389
1157 1 4.150847 4.482392 5.208446
1158 1 3.904761 6.575209 7.239012
1159 1 6.490406 4.510782 7.194969
1160 1 6.435147 6.587079 5.140654
1161 1 4.083753 4.434094 9.282113
1162 1 4.094895 6.503750 11.185787
1163 1 6.390496 4.420015 11.314961
1164 1 6.064585 6.703502 9.096095
1165 1 4.280628 4.498893 13.138508
1166 1 4.435999 6.654113 15.492412
1167 1 6.354879 4.203487 15.307420
1168 1 6.385579 6.527770 13.517944
1169 1 4.211369 4.131140 17.274080
1170 1 4.299223 6.662551 19.395025
1171 1 6.573659 4.849442 19.430789
1172 1 6.563537 7.015579 17.267710
1173 1 4.256927 4.645590 21.107321
1174 1 4.120171 6.676462 23.056804
1175 1 6.285343 4.725419 23.279786
1176 1 6.342550 6.830519 21.626005
1177 1 4.188490 4.257454 25.375355
1178 1 4.294822 6.669029 27.514215
1179 1 6.195028 4.259688 27.750902
1180 1 6.255965 6.292938 25.918948
1181 1 4.012882 4.427932 29.865839
1182 1 4.362000 6.551903 31.373365
1183 1 6.160196 4.373499 31.710981
1184 1 6.321460 6.334919 29.656640
1185 1 4.081544 4.085397 33.460034
1186 1 4.038498 6.064606 35.186139
1187 1 6.500443 4.325762 35.505359
1188 1 6.134092 6.398461 33.668634
1189 1 4.056796 3.925526 37.448731
1190 1 3.967693 6.301384 39.519607
1191 1 6.228514 4.323384 39.324179
1192 1 6.475198 6.231421 37.209460
1193 1 4.240194 4.278693 41.606287
1194 1 4.099767 6.136558 43.460266
1195 1 6.270633 4.520233 43.591655
1196 1 6.493594 6.171411 41.184370
1197 1 4.441457 4.344339 45.392830
1198 1 4.170845 6.379565 47.519740
1199 1 6.267342 4.381455 47.145261
1200 1 6.449692 6.442014 45.435120
1201 1 4.374583 4.236402 49.573023
1202 1 4.354971 6.394659 51.633495
1203 1 6.326619 4.405456 51.509303
1204 1 6.150012 6.462340 49.315472
1205 1 4.300927 4.315744 53.811323
1206 1 4.226140 6.428021 55.701066
1207 1 6.438073 4.655897 56.146881
1208 1 6.596070 6.367666 53.517186
1209 1 4.159234 4.440993 57.759297
1210 1 4.094345 6.675311 59.804259
1211 1 6.269227 4.252717 59.682764
1212 1 6.350785 6.749644 57.749251
1213 1 4.197669 4.551655 61.505425
1214 1 3.927052 6.496914 63.962099
1215 1 5.867434 4.173664 63.588838
1216 1 5.928792 6.577812 61.957323
1217 1 6.467643 4.440198 67.792054
1218 1 6.314399 8.461307 68.090329
1219 1 9.506673 5.427391 80.758113
1220 1 4.008057 4.135301 65.664984
1221 1 6.372921 2.052732 69.683967
1222 1 6.385785 30.837338 74.211985
1223 1 4.342713 30.794326 72.075845
1224 1 14.277805 2.016723 65.565656
1225 1 6.239183 3.443241 76.678611
1226 1 4.542591 4.066095 69.965176
1227 1 12.613133 32.594564 69.816497
1228 1 2.581153 2.165346 74.171366
1229 1 5.178248 27.105348 81.686808
1230 1 28.021993 4.664257 94.604184
1231 1 4.294841 24.712641 81.466585
1232 1 11.704380 30.751125 76.674770
1233 1 0.382455 1.955058 91.796870
1234 1 4.974628 1.867676 80.200584
1235 1 7.994648 2.536026 78.904442
1236 1 8.460036 5.633037 83.504986
1237 1 13.004154 10.365970 83.242709
1238 1 32.140794 1.662022 86.036374
1239 1 8.636162 18.683718 95.870561
1240 1 17.151744 7.257001 84.927736
1241 1 9.355357 3.954409 98.362271
1242 1 5.422338 11.734472 100.557084
1243 1 10.907563 8.933569 89.396392
1244 1 11.023520 11.834554 99.087305
1245 1 26.980888 5.176549 102.383546
1246 1 8.802055 26.441731 102.985691
1247 1 7.279140 13.654888 100.050995
1248 1 4.976789 24.901917 99.624128
1249 1 7.937567 9.447164 102.730879
1250 1 8.772762 7.124560 102.628092
1251 1 20.448479 9.547959 105.275251
1252 1 4.390221 16.084443 95.549076
1253 1 4.436728 27.799693 99.737032
1254 1 4.547976 7.423480 104.495123
1255 1 8.793331 12.226973 116.487320
1256 1 6.628444 21.518358 104.995393
1257 1 15.560928 2.249387 110.567335
1258 1 3.949503 29.816642 116.908453
1259 1 7.243048 13.253327 107.682307
1260 1 11.669038 21.273907 115.072135
1261 1 10.615631 8.688747 109.027136
1262 1 3.188198 0.867975 121.280141
1263 1 12.455805 13.566486 105.474905
1264 1 5.750463 23.708977 117.617294
1265 1 3.093735 1.882429 116.630681
1266 1 6.642039 12.463713 121.050917
1267 1 9.738345 3.394422 113.480190
1268 1 6.301900 4.021870 125.626289
1269 1 3.758142 31.985846 123.846700
1270 1 6.359362 6.596771 131.609274
1271 1 3.548150 1.806685 114.185493
1272 1 0.189496 8.193710 127.418419
1273 1 0.110424 4.237931 132.032277
1274 1 6.268020 8.770214 129.620328
1275 1 10.299316 6.143368 131.845865
1276 1 0.059153 2.497717 125.541674
1277 1 8.325377 8.600400 131.661274
1278 1 4.464999 6.718053 133.499678
1279 1 5.826630 4.692111 133.956738
1280 1 10.829286 10.570801 131.272601
1281 1 4.190895 8.526084 0.989899
1282 1 4.443824 10.730235 2.867043
1283 1 6.133648 8.624666 3.190990
1284 1 6.289999 10.554380 0.835842
1285 1 4.342907 8.465220 5.177032
1286 1 4.295316 10.486631 7.043098
1287 1 6.239740 8.485266 7.207091
1288 1 6.303293 10.687402 5.142315
1289 1 4.069625 8.579039 9.299340
1290 1 4.072052 10.649386 11.130736
1291 1 6.277024 8.770324 11.248381
1292 1 6.196782 10.486746 8.975468
1293 1 4.081116 8.376397 13.201844
1294 1 4.567614 10.455734 15.370807
1295 1 6.340834 8.642480 15.398965
1296 1 6.289989 10.445190 13.226234
1297 1 4.540064 8.533382 17.649690
1298 1 4.126126 10.579086 19.857490
1299 1 6.278378 8.629729 19.753315
1300 1 6.248404 10.539309 17.450607
1301 1 4.357574 8.750197 21.485333
1302 1 4.534128 10.613002 23.516044
1303 1 6.421636 8.743339 23.483857
1304 1 6.351093 10.630261 21.575714
1305 1 4.380760 8.311263 25.480960
1306 1 4.342356 10.465829 27.211376
1307 1 6.604187 8.433330 27.774269
1308 1 6.485826 10.374966 25.674315
1309 1 4.077811 8.509214 29.513288
1310 1 3.991179 10.471408 31.679312
1311 1 6.190001 8.937035 31.433275
1312 1 6.840028 10.469229 29.394413
1313 1 4.228647 8.172469 33.122653
1314 1 4.244799 10.480076 35.420298
1315 1 6.085739 8.592784 35.362522
1316 1 6.195192 10.866537 33.409883
1317 1 4.242208 7.860800 37.158761
1318 1 4.564121 10.024702 39.278122
1319 1 6.342675 8.072458 39.084119
1320 1 6.242614 10.554754 37.193530
1321 1 3.898759 8.301594 41.933968
1322 1 4.373580 10.417257 43.359073
1323 1 6.339766 8.557904 43.512691
1324 1 6.110688 10.286949 41.396304
1325 1 4.072714 8.695247 45.480780
1326 1 4.091089 10.589044 47.624873
1327 1 6.241942 8.630456 47.023323
1328 1 6.639630 10.574285 45.522460
1329 1 4.268230 8.538316 49.355972
1330 1 4.165235 10.502053 51.645416
1331 1 6.336189 7.992056 51.309668
1332 1 6.500397 10.259490 49.551994
1333 1 4.198923 8.108209 53.540345
1334 1 4.351403 10.619657 55.500371
1335 1 6.119717 8.488449 55.328489
1336 1 6.030115 10.216699 53.295657
1337 1 4.128494 8.491820 57.812076
1338 1 4.084173 10.538761 59.968826
1339 1 5.955720 8.610963 59.521275
1340 1 6.372567 10.560807 57.530207
1341 1 3.813927 8.608200 61.658195
1342 1 4.006280 10.443825 63.889584
1343 1 5.782125 8.521917 63.739271
1344 1 6.175056 10.170472 61.635972
1345 1 8.327773 8.630176 65.927785
1346 1 8.459830 5.509999 72.381143
1347 1 4.363721 6.314515 67.628199
1348 1 8.393538 6.454891 67.664114
1349 1 6.347189 7.749552 72.377057
1350 1 4.087627 10.125301 68.524368
1351 1 16.186246 4.160651 73.993886
1352 1 16.354685 12.258194 74.964037
1353 1 6.357426 6.210299 70.043802
1354 1 7.817651 0.030541 86.039338
1355 1 0.063131 3.728587 82.587660
1356 1 1.627134 0.563846 82.584653
1357 1 3.748592 11.403710 86.983428
1358 1 27.224912 14.400332 74.034744
1359 1 9.226773 8.237477 82.086508
1360 1 2.851133 1.680216 78.567347
1361 1 4.288550 5.521287 76.688724
1362 1 2.357880 10.415277 90.414732
1363 1 6.834426 12.257462 79.978449
1364 1 31.876514 4.837027 85.758794
1365 1 7.532729 15.338670 87.147736
1366 1 30.655132 12.260231 79.387277
1367 1 0.090504 6.793502 90.891595
1368 1 5.554155 7.772316 87.500186
1369 1 31.779800 9.134965 86.577221
1370 1 6.233617 13.649542 97.167781
1371 1 7.461346 26.787358 96.717769
1372 1 6.797568 2.566333 92.440297
1373 1 1.772014 5.610779 86.898091
1374 1 22.020769 13.059275 94.887746
1375 1 2.069808 27.417163 107.078428
1376 1 6.280486 11.919780 109.812480
1377 1 4.635886 14.802629 114.893948
1378 1 8.804005 12.274922 102.676086
1379 1 32.429663 13.406282 104.424678
1380 1 4.601408 32.304280 110.852474
1381 1 0.855634 15.258211 103.088653
1382 1 4.520236 10.476746 111.537088
1383 1 10.104094 20.983607 103.654984
1384 1 2.391397 18.720385 111.252876
1385 1 9.234465 15.783214 112.185281
1386 1 5.047370 12.600461 112.798537
1387 1 3.475369 12.212762 116.934653
1388 1 10.333442 13.025402 108.340597
1389 1 16.247115 12.240679 123.402188
1390 1 30.068666 10.161172 107.061532
1391 1 10.100103 11.329800 114.556900
1392 1 10.130785 14.188511 114.016814
1393 1 1.909487 20.297752 117.986979
1394 1 4.150059 20.771025 122.498753
1395 1 31.846880 11.879542 111.237503
1396 1 6.426101 21.090387 120.768011
1397 1 7.102074 16.800878 110.810486
1398 1 10.720045 9.190687 116.447970
1399 1 2.021582 10.610148 127.788072
1400 1 8.812089 7.533420 115.561695
1401 1 4.328971 5.980707 121.245713
1402 1 6.788173 15.211522 116.820138
1403 1 6.532771 16.725408 120.842275
1404 1 1.806002 14.354707 118.601509
1405 1 6.343283 10.975505 131.127360
1406 1 4.239026 10.541155 133.459190
1407 1 6.448445 9.068346 133.548048
1408 1 8.545698 10.565493 129.580974
1409 1 4.181588 12.663025 0.880566
1410 1 4.337653 14.569493 3.100167
1411 1 6.388800 12.477500 3.118598
1412 1 6.286224 14.320039 1.245882
1413 1 3.994170 12.363387 5.032418
1414 1 4.180200 14.533013 6.861267
1415 1 6.292492 12.470712 7.120710
1416 1 6.323296 14.430303 5.144515
1417 1 4.101651 12.507981 9.100013
1418 1 4.078388 14.263853 11.420496
1419 1 6.067324 12.327729 10.980563
1420 1 6.260594 14.261328 9.129116
1421 1 4.382906 12.450127 13.377299
1422 1 4.101654 14.591664 15.349927
1423 1 6.614064 12.667754 15.842956
1424 1 6.203774 14.742941 13.161102
1425 1 4.374082 12.501322 17.213766
1426 1 4.058649 14.375605 19.507287
1427 1 6.404858 12.859096 19.619570
1428 1 6.180428 14.797515 17.557235
1429 1 4.465936 12.901983 21.557525
1430 1 4.513145 14.747188 23.562524
1431 1 6.513254 12.404384 23.692565
1432 1 6.647075 14.869206 21.527221
1433 1 4.328545 12.578393 25.622048
1434 1 4.119506 14.159204 27.648367
1435 1 6.840271 12.750744 27.386691
1436 1 6.383120 14.532684 25.571494
1437 1 4.568837 12.228168 29.397835
1438 1 4.241161 14.561427 31.430955
1439 1 6.505420 12.319279 31.076709
1440 1 6.336725 14.418112 29.384265
1441 1 4.042795 12.694878 33.581587
1442 1 4.490522 14.761922 35.315373
1443 1 6.662658 12.774596 35.484761
1444 1 6.721760 14.621227 33.317994
1445 1 4.204853 12.683071 37.339020
1446 1 4.433927 14.664210 39.512341
1447 1 6.384399 12.407343 39.250915
1448 1 6.445108 14.500266 37.181342
1449 1 4.460338 12.488982 41.421947
1450 1 4.563962 14.652904 43.309949
1451 1 6.568661 12.352267 43.614709
1452 1 6.923784 14.132870 41.383254
1453 1 4.688466 12.518868 45.473991
1454 1 4.560239 14.972983 47.679430
1455 1 6.260670 12.506211 47.738281
1456 1 6.598215 14.803973 45.570054
1457 1 4.120698 12.498769 49.664244
1458 1 3.993406 14.662490 51.538574
1459 1 6.453020 12.508123 51.565991
1460 1 6.078200 14.412580 49.811416
1461 1 4.321269 12.683699 53.201116
1462 1 4.102916 14.396889 56.067822
1463 1 6.281112 12.691937 55.912015
1464 1 5.935978 14.699574 53.879858
1465 1 4.402231 12.646567 58.011086
1466 1 4.243212 14.873166 59.722522
1467 1 6.398388 12.338708 59.849811
1468 1 6.278887 14.602748 57.977073
1469 1 4.038584 12.165339 62.017000
1470 1 4.066714 14.376540 64.038372
1471 1 5.994149 12.486266 63.849232
1472 1 6.030308 14.355300 61.832312
1473 1 2.238523 14.306366 66.094814
1474 1 6.412059 18.571783 66.216034
1475 1 9.805492 7.718011 71.760987
1476 1 6.088940 14.520486 65.965004
1477 1 10.188297 12.436108 71.739007
1478 1 8.765867 14.507988 72.305784
1479 1 0.418964 10.508068 72.723097
1480 1 8.120891 7.686417 74.256867
1481 1 0.477959 4.638875 70.077809
1482 1 8.212678 0.613756 81.879349
1483 1 13.599938 8.539555 75.832475
1484 1 0.395047 6.095558 72.107776
1485 1 4.114527 32.115700 83.931492
1486 1 4.908767 11.980767 74.410270
1487 1 11.016902 4.785936 83.428738
1488 1 6.286958 9.641042 74.751871
1489 1 31.431354 10.819527 81.675909
1490 1 3.063090 16.656097 82.080996
1491 1 4.961692 0.360497 91.307487
1492 1 5.905822 12.212502 71.954447
1493 1 28.891738 16.167355 78.629830
1494 1 2.498723 14.163305 80.893548
1495 1 1.434252 15.890369 87.178712
1496 1 1.223071 10.202195 87.847226
1497 1 4.308697 14.185536 83.391693
1498 1 4.192884 19.285355 90.113499
1499 1 8.686233 18.700003 88.630607
1500 1 22.830716 12.888094 88.072928
1501 1 12.933352 7.728912 87.306295
1502 1 8.091701 21.380015 101.898732
1503 1 9.534144 13.920541 98.544356
1504 1 32.183720 14.970314 99.583653
1505 1 4.303660 7.679782 101.910647
1506 1 10.771835 17.006775 100.963478
1507 1 5.589203 15.079596 101.530727
1508 1 14.268330 20.119589 104.731682
1509 1 7.580423 23.752068 111.109131
1510 1 27.997105 19.861990 102.872358
1511 1 6.393390 11.956325 105.352124
1512 1 3.614353 17.183133 106.985923
1513 1 8.526706 19.267915 105.330634
1514 1 27.358606 27.144676 106.056856
1515 1 10.343683 14.806503 123.510381
1516 1 15.598883 17.318720 111.977170
1517 1 16.389695 13.831323 109.133463
1518 1 6.541534 22.748624 123.336981
1519 1 10.950049 8.625622 119.905067
1520 1 3.728654 25.171278 119.363210
1521 1 11.691078 13.175839 116.242160
1522 1 2.631609 3.674578 112.581592
1523 1 6.227983 14.596931 127.193697
1524 1 10.505077 23.050344 123.240407
1525 1 4.918379 10.744244 121.342514
1526 1 2.069263 16.311724 125.658012
1527 1 5.380821 3.057182 121.235912
1528 1 4.414927 18.723510 120.731338
1529 1 8.307669 12.672364 127.420114
1530 1 32.464704 10.211082 129.622878
1531 1 3.987203 19.377534 125.395222
1532 1 28.753889 16.602425 127.583961
1533 1 6.326858 20.869867 129.619458
1534 1 4.362224 16.738732 131.813410
1535 1 6.561526 12.946681 133.361577
1536 1 2.189674 14.307616 127.505035
1537 1 4.374771 17.150107 0.828009
1538 1 4.356852 18.737178 2.888904
1539 1 6.261732 16.697076 2.710202
1540 1 6.440579 19.112712 0.980072
1541 1 4.292684 16.619334 4.950919
1542 1 4.303181 18.330610 7.040008
1543 1 6.285949 16.133563 7.569662
1544 1 6.209099 18.329824 4.915778
1545 1 4.179340 16.422622 9.248583
1546 1 4.141730 18.641672 11.450746
1547 1 5.935087 16.521650 11.082324
1548 1 6.280659 18.367699 9.461596
1549 1 4.321782 16.436004 13.483096
1550 1 4.433482 18.570079 15.078583
1551 1 6.423154 16.473605 15.306292
1552 1 6.387233 18.618288 13.460281
1553 1 4.167008 16.575269 17.720106
1554 1 4.004483 18.609431 19.607605
1555 1 6.229209 16.598133 19.522606
1556 1 6.415170 18.818287 17.584909
1557 1 4.231667 16.663557 21.546574
1558 1 4.494647 18.638287 23.755466
1559 1 6.398173 16.652873 23.514377
1560 1 6.535534 18.794876 21.176423
1561 1 4.372725 16.554418 25.767557
1562 1 3.883096 18.515391 27.800852
1563 1 6.464429 16.724233 27.895911
1564 1 6.260978 18.685419 25.908541
1565 1 4.105090 16.480258 29.505336
1566 1 4.296271 18.705637 31.470802
1567 1 6.298783 16.479898 31.203685
1568 1 6.106909 18.825626 29.498191
1569 1 4.274500 16.828158 33.184732
1570 1 4.083335 18.744372 35.386704
1571 1 6.345242 16.608297 35.329246
1572 1 6.193443 18.450025 33.434388
1573 1 4.708859 16.654710 37.422958
1574 1 4.494194 18.598064 39.422381
1575 1 6.299201 16.352632 39.754625
1576 1 6.439336 18.692755 37.361517
1577 1 4.325025 16.552320 41.338767
1578 1 3.883109 18.503830 43.582194
1579 1 6.500721 16.526760 43.264101
1580 1 6.310375 18.726546 41.484612
1581 1 4.298109 16.346492 45.141339
1582 1 4.301678 18.195201 47.446125
1583 1 6.653114 16.685930 47.385191
1584 1 6.456911 18.453815 45.281629
1585 1 4.548857 16.615009 49.880013
1586 1 3.918584 18.873852 51.350886
1587 1 5.930005 16.539813 51.984881
1588 1 6.056397 18.881131 49.639831
1589 1 4.223340 16.673479 54.028998
1590 1 4.254274 18.719781 56.028686
1591 1 6.285834 16.292071 55.875016
1592 1 5.905209 18.546278 53.906213
1593 1 4.103525 16.604030 57.896486
1594 1 4.215502 18.554973 59.814159
1595 1 6.144773 16.753606 59.875364
1596 1 6.257327 18.984295 58.045543
1597 1 4.419480 16.086727 62.269905
1598 1 4.416909 18.586276 64.325818
1599 1 6.341927 16.468962 64.091481
1600 1 6.065071 18.553692 61.764256
1601 1 6.319078 16.664587 68.091140
1602 1 6.552700 28.360233 67.993999
1603 1 10.328873 19.784883 72.207471
1604 1 4.418764 24.620373 65.891002
1605 1 2.264356 18.770599 66.483796
1606 1 6.232213 23.029771 74.210199
1607 1 8.260973 20.633677 70.210355
1608 1 2.391410 20.920624 72.520808
1609 1 0.708309 14.226689 72.449238
1610 1 2.885819 15.356708 76.506694
1611 1 5.172278 11.196912 77.087427
1612 1 4.044375 18.935903 72.199322
1613 1 1.457725 13.601305 78.300196
1614 1 3.825628 12.646874 70.049088
1615 1 7.139541 7.072866 80.617657
1616 1 6.265391 18.592766 70.076070
1617 1 6.386955 16.680327 72.464063
1618 1 32.421768 15.988096 81.145799
1619 1 11.049309 10.113270 81.280663
1620 1 7.097733 27.156530 78.455052
1621 1 9.445552 25.929538 89.003955
1622 1 6.529083 17.540245 96.356673
1623 1 16.484902 17.935182 90.325109
1624 1 3.072290 16.597318 84.610907
1625 1 5.719933 14.557791 88.796638
1626 1 9.823459 18.544522 82.570555
1627 1 3.482045 17.234125 88.837241
1628 1 8.661944 19.324883 99.276409
1629 1 20.100663 25.676599 102.071499
1630 1 30.903037 22.848548 90.800890
1631 1 1.724384 23.141842 98.445402
1632 1 26.437798 17.204982 88.418305
1633 1 10.081295 17.620888 110.409070
1634 1 11.952226 18.106137 105.925467
1635 1 8.356758 21.128615 96.921662
1636 1 9.024945 23.269247 93.194304
1637 1 30.507790 29.739669 107.376658
1638 1 31.018551 19.249661 109.143718
1639 1 18.223907 16.282989 103.533887
1640 1 6.035689 25.857683 101.854673
1641 1 29.294227 21.355118 109.794863
1642 1 24.055897 28.320525 110.880445
1643 1 31.865339 24.590742 101.203154
1644 1 5.315765 22.027491 112.628642
1645 1 28.368290 16.660110 120.111252
1646 1 31.964746 19.270192 121.174868
1647 1 2.082085 13.632970 114.860452
1648 1 24.313105 24.262269 108.080987
1649 1 1.913394 22.580132 123.193681
1650 1 1.826276 24.812095 121.205543
1651 1 0.344922 18.592350 125.412441
1652 1 4.310146 25.247114 116.446571
1653 1 0.127412 14.663564 129.538250
1654 1 2.084233 16.762686 133.797927
1655 1 32.255484 22.725051 125.660860
1656 1 29.054809 18.485447 129.430424
1657 1 2.387878 18.438134 127.414989
1658 1 2.369609 24.518098 129.442342
1659 1 1.581937 18.586843 120.717435
1660 1 10.789434 18.350979 123.148148
1661 1 8.201797 23.024018 129.537537
1662 1 4.680414 19.025808 133.592105
1663 1 6.244887 16.465246 133.758399
1664 1 0.212794 18.498649 129.504733
1665 1 4.126390 20.593834 1.069234
1666 1 4.570172 22.565364 3.030623
1667 1 6.241263 20.629947 3.290667
1668 1 6.491697 22.857177 1.168217
1669 1 4.311935 20.475536 5.328572
1670 1 4.197130 22.772082 7.125951
1671 1 6.094553 20.458878 7.360265
1672 1 6.443483 22.434636 5.370546
1673 1 4.263380 20.408580 9.197254
1674 1 4.316185 22.803227 11.260846
1675 1 6.174749 20.479608 11.194422
1676 1 6.289400 22.478561 9.474722
1677 1 4.157600 20.553463 13.094397
1678 1 3.961040 22.568317 15.281177
1679 1 6.271809 20.591068 15.393587
1680 1 6.217261 22.348195 13.213121
1681 1 4.287243 20.481191 17.342912
1682 1 4.018273 22.648662 19.541287
1683 1 6.633336 20.740663 19.313681
1684 1 6.142176 22.462050 17.275966
1685 1 4.139093 20.395168 21.451793
1686 1 4.339457 22.465886 23.422386
1687 1 6.238989 20.643671 23.510749
1688 1 6.561268 22.731777 21.297444
1689 1 4.228610 20.526313 25.782121
1690 1 4.073463 22.467440 27.595276
1691 1 6.192439 20.652080 27.788296
1692 1 6.159918 22.545696 25.578419
1693 1 4.019108 20.646285 29.612115
1694 1 4.223065 22.704642 31.366997
1695 1 6.222117 20.721580 31.477163
1696 1 6.437935 23.093667 29.336638
1697 1 4.535636 20.469096 33.465401
1698 1 4.629429 22.651392 35.914427
1699 1 6.457225 20.795911 35.475111
1700 1 6.254528 22.715270 33.285522
1701 1 4.516547 20.947350 37.868705
1702 1 4.281698 23.006946 39.558399
1703 1 6.521607 21.010426 39.340440
1704 1 6.716233 22.903842 37.341867
1705 1 4.155097 20.300656 41.794334
1706 1 3.978095 22.830372 43.827263
1707 1 6.442104 20.959933 43.709530
1708 1 6.139442 22.755850 41.754679
1709 1 4.475282 20.294511 45.476447
1710 1 3.859721 23.060019 47.919431
1711 1 6.080146 20.621137 47.498551
1712 1 6.078046 22.771457 45.702521
1713 1 4.096855 20.689023 49.246035
1714 1 3.984936 22.637526 51.718974
1715 1 5.844205 20.719147 51.637072
1716 1 6.183482 22.781220 49.459583
1717 1 4.187891 20.690501 53.817268
1718 1 4.368723 22.995980 55.881529
1719 1 6.173999 20.561862 55.929269
1720 1 6.083069 22.655254 53.784982
1721 1 3.925970 20.539457 57.929851
1722 1 4.582054 22.540433 59.817332
1723 1 6.380440 20.606480 59.980134
1724 1 6.053653 22.618157 57.797307
1725 1 4.410817 20.679557 61.924821
1726 1 4.364931 22.496035 64.137002
1727 1 6.425746 20.339406 63.877094
1728 1 6.176801 22.812928 61.868385
1729 1 2.199488 20.769962 68.244322
1730 1 4.104502 20.852944 66.026401
1731 1 10.446767 28.818777 67.930545
1732 1 6.337160 22.698214 65.986458
1733 1 8.274717 14.439187 67.909540
1734 1 6.432054 22.434986 70.221312
1735 1 8.591843 29.044332 73.945671
1736 1 2.366362 22.750684 70.319598
1737 1 26.900543 16.191840 80.288076
1738 1 13.124414 27.298009 74.875036
1739 1 6.683974 20.222062 76.785044
1740 1 8.666492 27.096863 72.138008
1741 1 31.044457 10.188206 70.274425
1742 1 3.154872 18.266362 79.050814
1743 1 4.023306 23.708285 77.031759
1744 1 9.604514 24.864479 72.908613
1745 1 32.331298 21.231129 82.081207
1746 1 7.048544 11.273682 84.904775
1747 1 8.767673 14.552773 82.510199
1748 1 4.536781 23.013533 68.407139
1749 1 15.589225 19.233100 76.612486
1750 1 6.214760 17.488773 88.302520
1751 1 11.884420 17.164092 85.387623
1752 1 15.298795 24.064153 85.717980
1753 1 7.346055 21.102877 89.617618
1754 1 12.583685 19.549774 91.639434
1755 1 16.639808 21.690618 86.290623
1756 1 0.240563 12.879955 87.759834
1757 1 29.256571 20.725162 99.878662
1758 1 32.174927 26.799077 91.041691
1759 1 29.353509 23.758016 99.610603
1760 1 6.591545 15.629158 91.553007
1761 1 5.729056 16.269446 104.273121
1762 1 12.331174 28.108871 96.770637
1763 1 7.731829 24.884023 99.235273
1764 1 30.578414 17.845830 91.447323
1765 1 2.628768 24.553972 114.148362
1766 1 7.131654 0.818856 104.206939
1767 1 3.490618 28.749002 119.625259
1768 1 27.837371 28.794656 108.149083
1769 1 28.378191 21.313037 118.816110
1770 1 3.842028 21.971862 120.320879
1771 1 4.036369 21.846825 104.644658
1772 1 4.668646 24.533733 110.959557
1773 1 30.075013 18.722418 123.188137
1774 1 5.683219 23.753035 121.051001
1775 1 26.702201 29.120416 116.912645
1776 1 1.406504 24.751193 116.622041
1777 1 32.262227 20.769720 123.231059
1778 1 28.226199 21.088450 123.972117
1779 1 11.053398 18.722568 119.136779
1780 1 18.902810 18.336884 118.959730
1781 1 8.405718 25.096868 123.054942
1782 1 28.814252 22.969211 126.034432
1783 1 12.615961 22.911828 125.374598
1784 1 4.039583 29.142606 123.397038
1785 1 2.061718 19.367374 123.429105
1786 1 2.180973 18.488714 131.662480
1787 1 4.518230 18.657176 129.913725
1788 1 14.000838 17.339489 114.751253
1789 1 0.300483 16.162016 127.431133
1790 1 4.159515 22.667287 133.630168
1791 1 6.351444 20.903095 133.504472
1792 1 6.265583 22.665602 131.781765
1793 1 4.199609 24.602106 1.142609
1794 1 4.334676 27.004040 3.211708
1795 1 6.312913 24.838717 3.434536
1796 1 6.258086 26.938950 1.286231
1797 1 4.134597 24.840831 5.083199
1798 1 4.380481 26.707891 7.414910
1799 1 6.114325 24.488003 7.262417
1800 1 6.459807 26.660886 5.460040
1801 1 4.621496 24.793554 9.448513
1802 1 4.300647 26.703100 11.402121
1803 1 6.334386 24.747792 11.616114
1804 1 6.693541 26.712601 9.102578
1805 1 4.297787 24.724055 13.300867
1806 1 4.383056 26.791981 15.289903
1807 1 6.008993 24.549320 15.426761
1808 1 6.066243 26.527790 13.462305
1809 1 4.241803 24.480326 17.709681
1810 1 4.271553 26.441883 19.940556
1811 1 6.287064 24.932204 19.476927
1812 1 6.363231 26.963050 17.162447
1813 1 4.125940 24.424212 21.392512
1814 1 4.148231 26.559732 23.122622
1815 1 6.347382 24.808798 23.610015
1816 1 6.319214 26.783345 21.574785
1817 1 3.834107 24.799234 25.128686
1818 1 4.311719 26.695650 27.430729
1819 1 5.838776 24.644858 27.202281
1820 1 6.215261 26.711706 25.511764
1821 1 4.016322 24.817591 29.755860
1822 1 4.041335 26.725820 31.516963
1823 1 6.022781 24.769702 31.783668
1824 1 6.234285 26.682459 29.456519
1825 1 3.961056 24.570667 33.876600
1826 1 4.345453 26.650744 35.627811
1827 1 6.357503 24.686215 35.525306
1828 1 6.110563 26.869713 33.660422
1829 1 4.098346 24.619774 37.640205
1830 1 4.277553 26.605735 39.584509
1831 1 6.677739 24.923044 39.873504
1832 1 6.262082 26.713325 37.648471
1833 1 4.082455 24.675118 41.683779
1834 1 4.244556 26.716590 43.971707
1835 1 6.031621 24.629893 43.855814
1836 1 6.070568 26.660259 41.664577
1837 1 4.183430 24.897271 45.862150
1838 1 4.246756 26.666115 47.954112
1839 1 6.461112 24.834207 47.686636
1840 1 6.341844 26.826681 45.751324
1841 1 4.403589 24.747791 49.944789
1842 1 3.994016 27.116978 51.903185
1843 1 6.086021 24.723593 51.702558
1844 1 6.116652 26.766421 50.107497
1845 1 4.165964 25.063134 53.683808
1846 1 4.031578 26.679407 55.806519
1847 1 6.195452 24.889574 55.890586
1848 1 6.242967 26.587218 53.626515
1849 1 3.925602 25.122957 57.778875
1850 1 4.412115 26.809986 59.943742
1851 1 6.409791 24.640766 59.687350
1852 1 6.161312 26.636236 57.813265
1853 1 4.291259 24.765436 61.813738
1854 1 4.409418 26.898494 63.859999
1855 1 6.270861 24.699243 63.912850
1856 1 6.212355 26.624698 61.984861
1857 1 32.505189 22.664481 68.061819
1858 1 2.447514 26.585924 66.100061
1859 1 6.880663 24.591610 68.374842
1860 1 4.690399 26.229870 68.278164
1861 1 4.202821 28.738896 69.997038
1862 1 11.599020 29.856166 82.260194
1863 1 4.025801 27.300259 75.919827
1864 1 1.904354 26.748857 74.041815
1865 1 6.552340 26.739757 70.098311
1866 1 5.095801 20.316777 87.944237
1867 1 16.660183 23.901546 74.801390
1868 1 8.549208 24.334175 75.146747
1869 1 6.783656 27.065085 73.819776
1870 1 2.601313 20.048262 93.797744
1871 1 8.378456 21.237825 74.625761
1872 1 9.229673 27.878450 86.670946
1873 1 6.149838 22.285894 86.395938
1874 1 13.485461 24.811457 77.604563
1875 1 13.870160 22.081677 85.125874
1876 1 9.021631 29.793388 78.348698
1877 1 9.686180 16.157829 92.124180
1878 1 31.750286 22.742271 98.988538
1879 1 9.895278 31.929466 94.634375
1880 1 7.640230 18.151999 93.468789
1881 1 4.761014 18.167411 98.505527
1882 1 0.083905 18.345319 96.608170
1883 1 9.847000 12.027694 93.307470
1884 1 11.249757 4.435489 100.265804
1885 1 32.161319 15.445718 85.564954
1886 1 10.287027 26.663199 100.722825
1887 1 3.993200 32.029942 97.397062
1888 1 13.063520 26.652636 92.022915
1889 1 4.926245 26.773208 106.229703
1890 1 18.446948 32.442510 101.717478
1891 1 2.247020 17.235779 104.704074
1892 1 2.176705 24.410448 105.712732
1893 1 30.218345 28.347624 112.473148
1894 1 5.217986 1.827937 111.875012
1895 1 12.231634 30.326811 110.185614
1896 1 11.754843 24.452840 106.735040
1897 1 1.028783 27.329528 114.212566
1898 1 3.765823 27.974527 115.447187
1899 1 7.545851 28.520907 109.408908
1900 1 3.932207 26.621213 112.990133
1901 1 3.125076 25.627456 108.424459
1902 1 2.577935 23.213664 110.046743
1903 1 9.912827 30.396936 118.459139
1904 1 13.770875 6.028340 112.895726
1905 1 4.977024 27.542072 118.212887
1906 1 12.465315 24.864124 123.496344
1907 1 10.957496 24.768114 121.506064
1908 1 7.663256 26.293813 117.736903
1909 1 4.373183 23.043922 129.414866
1910 1 28.863634 18.368930 133.882602
1911 1 6.052296 2.045063 127.766997
1912 1 28.429057 24.801022 124.153748
1913 1 1.714911 26.726503 123.493273
1914 1 6.099130 26.731102 128.020756
1915 1 5.923368 0.409968 120.521797
1916 1 8.396873 30.937074 125.195762
1917 1 2.180234 26.816675 131.875545
1918 1 3.985561 26.514053 133.729761
1919 1 5.922701 28.833737 133.935180
1920 1 4.329544 24.692218 131.590151
1921 1 4.286155 28.838126 1.330439
1922 1 4.278960 30.761086 3.520247
1923 1 6.335824 28.910273 3.627817
1924 1 6.447764 30.776124 1.467137
1925 1 4.392586 28.800330 5.554078
1926 1 3.987623 30.683800 7.629975
1927 1 6.373007 28.745472 7.479642
1928 1 6.185553 30.892384 5.556286
1929 1 4.333478 28.718783 9.239029
1930 1 4.572587 30.529485 11.253293
1931 1 6.414650 28.588919 11.270015
1932 1 6.241576 30.772238 9.171027
1933 1 4.199144 28.873757 13.277668
1934 1 4.117164 31.055960 15.571341
1935 1 6.265407 28.861975 15.409187
1936 1 6.265296 30.686806 13.233014
1937 1 4.425896 28.910735 17.360390
1938 1 4.340912 30.899825 19.205828
1939 1 6.196669 28.729463 19.599189
1940 1 6.198569 31.064906 17.157563
1941 1 3.831016 28.749169 21.306438
1942 1 4.254221 30.653018 23.469670
1943 1 6.547106 28.878181 23.485664
1944 1 6.009280 30.558498 21.505451
1945 1 4.476100 28.345176 25.201384
1946 1 4.327333 30.776142 27.053407
1947 1 6.259439 28.826023 27.521297
1948 1 6.449428 30.849778 25.496626
1949 1 4.205496 28.569486 29.357041
1950 1 4.005799 30.781838 31.308100
1951 1 5.906646 28.947566 31.608060
1952 1 6.667946 30.543381 29.606181
1953 1 3.953240 28.727643 33.892150
1954 1 4.091845 30.674481 35.659897
1955 1 6.273562 28.558860 36.068109
1956 1 6.479163 30.467917 33.616747
1957 1 4.045490 28.717491 37.463287
1958 1 4.083259 31.190718 39.345319
1959 1 5.996942 28.486334 39.722454
1960 1 6.415311 30.635433 37.596601
1961 1 4.289911 28.548315 41.859143
1962 1 4.301590 30.662295 43.489138
1963 1 6.276293 29.017311 43.690193
1964 1 6.300349 30.753197 41.342324
1965 1 4.371464 29.008782 45.468132
1966 1 4.078277 30.772595 47.533222
1967 1 6.148547 28.663473 47.618863
1968 1 6.487921 31.044843 45.648111
1969 1 4.229875 28.894026 49.799450
1970 1 4.436786 30.926115 51.815344
1971 1 6.617637 28.931902 51.842214
1972 1 6.215921 30.563292 49.740563
1973 1 4.356915 29.008094 53.711892
1974 1 4.391749 30.653992 55.704992
1975 1 6.424451 28.710547 55.858987
1976 1 6.244157 30.761423 53.828349
1977 1 4.368144 28.727764 57.979315
1978 1 4.304502 30.705135 59.852182
1979 1 6.676077 28.708419 59.588283
1980 1 6.408112 30.621406 57.761621
1981 1 4.262467 28.689963 61.836743
1982 1 4.422931 31.069091 63.605942
1983 1 6.230493 28.661259 63.912486
1984 1 6.167697 30.805390 61.543571
1985 1 4.309377 29.107220 73.887738
1986 1 0.090098 26.492216 71.947911
1987 1 6.419249 26.322606 65.974628
1988 1 8.375827 28.485321 65.825526
1989 1 28.346256 26.972780 67.880216
1990 1 2.888074 0.428996 76.120961
1991 1 4.245225 22.722449 72.081368
1992 1 8.724583 0.499178 73.763020
1993 1 32.389084 26.638383 76.266560
1994 1 8.613774 31.077035 72.068914
1995 1 10.552311 26.783275 74.446041
1996 1 0.158888 2.217490 67.787670
1997 1 6.372993 20.934653 72.408018
1998 1 4.233270 2.982519 83.246324
1999 1 11.947903 28.920635 78.418541
2000 1 8.893533 32.514768 79.195790
2001 1 9.161863 25.439280 80.878016
2002 1 12.514022 22.282407 82.764144
2003 1 5.574202 31.687561 87.354544
2004 1 7.826100 30.485183 96.091202
2005 1 30.436231 18.323213 94.047291
2006 1 27.635673 27.663710 93.109862
2007 1 10.490090 29.724778 93.655649
2008 1 10.334313 29.141792 88.669533
2009 1 0.509230 26.496846 84.982234
2010 1 4.084707 3.676310 95.224050
2011 1 0.811039 28.245960 102.572164
2012 1 3.092812 28.505119 91.312943
2013 1 2.859043 25.530720 98.207461
2014 1 7.329694 32.148049 101.548473
2015 1 5.222679 2.043295 103.329422
2016 1 11.748122 23.348177 103.872641
2017 1 10.211885 19.721238 108.556681
2018 1 9.761086 6.384392 99.356130
2019 1 12.060233 26.001230 109.326684
2020 1 31.842190 31.654047 105.893722
2021 1 6.549900 29.035389 102.248884
2022 1 11.812224 5.174425 114.907133
2023 1 6.433004 30.606469 111.566010
2024 1 14.075265 22.432959 102.933733
2025 1 2.177636 29.756558 113.919996
2026 1 12.749006 7.449860 116.210206
2027 1 2.177007 6.426377 116.367107
2028 1 14.154028 0.119917 110.189555
2029 1 10.926068 22.914608 119.589747
2030 1 13.037133 1.866156 117.260095
2031 1 14.518873 1.870672 113.958151
2032 1 15.024045 29.545928 116.353875
2033 1 0.226953 26.514992 125.808766
2034 1 4.248093 30.746109 126.248929
2035 1 4.057580 6.346503 129.471387
2036 1 6.151374 30.683484 118.906298
2037 1 10.223287 27.130696 127.346059
2038 1 3.801223 31.959457 118.433598
2039 1 2.175906 2.324448 127.530285
2040 1 32.484535 24.597165 123.641295
2041 1 8.501461 22.737635 121.403602
2042 1 2.200671 28.904877 130.024367
2043 1 6.185672 26.445339 131.568158
2044 1 6.631112 30.923106 127.418322
2045 1 3.965865 26.790131 129.966589
2046 1 5.805177 0.235694 133.622789
2047 1 4.037539 28.855051 132.005500
2048 1 10.103621 0.263840 129.537907
2049 1 8.012050 0.493827 1.011470
2050 1 8.094796 2.344566 3.309827
2051 1 10.216184 0.233175 3.325688
2052 1 10.153692 1.961500 0.858459
2053 1 8.239173 0.339760 5.369191
2054 1 8.328496 2.301969 7.411307
2055 1 9.944509 32.549946 7.244538
2056 1 10.146768 2.001391 5.427451
2057 1 8.341344 0.214858 9.511019
2058 1 8.495359 2.679388 10.867236
2059 1 10.598470 0.101476 11.335781
2060 1 10.581890 2.213367 9.134863
2061 1 8.521656 0.346895 13.311570
2062 1 8.204243 2.372944 15.066795
2063 1 10.527713 0.200095 15.487718
2064 1 10.278158 2.312089 13.388675
2065 1 8.343838 0.029682 17.237645
2066 1 8.298642 2.530025 19.442590
2067 1 10.241402 0.325599 19.468928
2068 1 10.376453 2.289388 17.355486
2069 1 8.119933 0.291680 21.599147
2070 1 8.434197 2.482267 23.318302
2071 1 10.329570 0.560327 23.548016
2072 1 10.608220 2.353438 21.373830
2073 1 8.498174 0.368460 25.573563
2074 1 8.404383 2.383466 27.397352
2075 1 10.508764 0.299021 27.546247
2076 1 10.299513 2.265890 25.378054
2077 1 8.465091 0.081393 29.388938
2078 1 8.042949 2.459645 31.361850
2079 1 10.211173 0.298448 31.381760
2080 1 10.386326 2.383316 29.431037
2081 1 8.239510 32.467259 33.127467
2082 1 8.415682 2.138547 35.192013
2083 1 10.457514 0.036039 35.454322
2084 1 10.010226 1.904724 33.470284
2085 1 8.406494 0.419407 37.449352
2086 1 8.272755 2.530536 39.614495
2087 1 10.406312 0.050924 39.453129
2088 1 10.165764 2.229118 37.664506
2089 1 8.350571 0.060327 41.171348
2090 1 8.387461 2.221412 43.533273
2091 1 10.418259 0.378292 43.525440
2092 1 10.480517 2.147152 41.482051
2093 1 8.339306 0.228767 45.754077
2094 1 7.939434 2.149889 47.741490
2095 1 10.247408 0.224097 47.625952
2096 1 10.379820 2.164755 45.723106
2097 1 7.942605 0.143077 49.468975
2098 1 8.705155 2.324043 51.849372
2099 1 10.370483 0.112619 52.097270
2100 1 10.189529 2.123257 49.594409
2101 1 8.181220 0.003898 53.689903
2102 1 8.253366 2.244389 55.614984
2103 1 10.312201 0.085134 55.676859
2104 1 10.413526 2.282140 53.929611
2105 1 8.339172 0.088071 57.695598
2106 1 8.384050 2.217510 59.882673
2107 1 10.155730 0.138706 60.210739
2108 1 10.013479 1.966590 57.909931
2109 1 8.535432 0.251429 62.098862
2110 1 8.245233 2.645712 63.509350
2111 1 10.412221 0.194370 63.656769
2112 1 10.288914 2.242070 61.844001
2113 1 10.466189 2.053687 69.555472
2114 1 6.501476 4.189135 71.686094
2115 1 15.623520 1.074645 78.442947
2116 1 8.098531 0.320291 65.596358
2117 1 8.888725 3.726020 74.326024
2118 1 20.989787 2.391081 76.113664
2119 1 10.990638 3.539326 77.955028
2120 1 10.459774 6.207718 69.523309
2121 1 4.416779 3.941774 74.215835
2122 1 15.690608 6.272341 79.180344
2123 1 12.882378 5.302302 77.207167
2124 1 17.860089 1.269239 76.728953
2125 1 9.899347 5.893762 85.617318
2126 1 4.251979 1.274129 88.021100
2127 1 14.469131 1.702911 87.491883
2128 1 14.616718 5.969007 74.905689
2129 1 17.422993 4.032698 79.543741
2130 1 4.443474 28.236673 93.696657
2131 1 4.022651 30.732648 89.799704
2132 1 9.931553 30.808942 86.263181
2133 1 8.562435 25.972080 92.763257
2134 1 7.922705 2.201266 84.592945
2135 1 11.920589 29.226563 86.666837
2136 1 5.520443 9.092520 84.406711
2137 1 0.646438 2.650300 96.141909
2138 1 6.907222 0.662269 88.635796
2139 1 3.769438 4.054388 97.881089
2140 1 2.023132 28.657754 98.925365
2141 1 7.538427 3.526844 103.388826
2142 1 7.860269 23.754686 108.133982
2143 1 14.979615 28.996071 97.073541
2144 1 17.831823 7.478634 103.236684
2145 1 9.621786 0.403758 105.830485
2146 1 10.812834 3.557276 106.547883
2147 1 19.827389 13.733038 102.451253
2148 1 16.246259 12.512831 97.459636
2149 1 3.438488 27.977594 109.813159
2150 1 9.909749 1.640817 108.346832
2151 1 17.309356 7.245753 112.182861
2152 1 16.253799 4.344934 108.138860
2153 1 15.144761 29.933357 113.404822
2154 1 14.168424 3.089446 105.649836
2155 1 17.519831 2.492333 112.687245
2156 1 10.111538 27.619987 110.269289
2157 1 12.434187 31.681457 102.273852
2158 1 12.786974 32.351414 115.503366
2159 1 10.897586 11.184509 118.845958
2160 1 16.351094 9.406346 111.565373
2161 1 7.919696 1.734849 125.549328
2162 1 8.743776 7.374077 120.751997
2163 1 4.756288 4.569472 123.551199
2164 1 10.004445 3.928260 125.722673
2165 1 12.915849 9.564915 117.781374
2166 1 13.952192 8.455830 125.398191
2167 1 13.958452 6.162896 123.883735
2168 1 7.808992 10.080153 121.543173
2169 1 0.238926 4.134520 127.722414
2170 1 6.077004 2.326993 132.070832
2171 1 14.580910 0.184196 129.884798
2172 1 8.200603 0.088712 132.003375
2173 1 8.321884 30.719534 129.665329
2174 1 10.595375 2.013225 131.505901
2175 1 10.227927 4.077653 133.696299
2176 1 10.413048 2.182922 127.662631
2177 1 7.988199 4.885526 0.710439
2178 1 8.290744 6.880822 2.808942
2179 1 9.829055 4.239762 2.660646
2180 1 10.071071 6.477836 0.893181
2181 1 8.505314 4.225105 5.082705
2182 1 8.517047 6.154983 6.834050
2183 1 10.566188 3.960159 6.817435
2184 1 10.072069 6.332767 4.744497
2185 1 8.351880 4.926056 9.238723
2186 1 8.213306 6.805952 11.394795
2187 1 10.385496 4.501141 11.371734
2188 1 10.320741 6.645325 8.960847
2189 1 8.261850 4.326586 13.356776
2190 1 8.431760 6.626579 15.443910
2191 1 10.419321 4.326925 15.350965
2192 1 10.623413 6.446079 13.387386
2193 1 8.344768 4.404447 17.107976
2194 1 8.231540 6.785303 19.607971
2195 1 10.341891 4.375088 19.419602
2196 1 10.367189 6.382676 17.351339
2197 1 8.477028 4.545374 21.288930
2198 1 8.421459 6.695111 23.182683
2199 1 10.352869 4.247110 23.524175
2200 1 10.488514 6.273064 21.681574
2201 1 7.938416 4.272511 25.376648
2202 1 8.382901 6.229805 27.637350
2203 1 10.223548 4.247406 27.424638
2204 1 10.290075 6.534455 25.552381
2205 1 8.344018 4.272731 29.585361
2206 1 8.305525 6.533320 31.455062
2207 1 10.178546 4.551481 31.508643
2208 1 10.676097 6.058488 29.587226
2209 1 8.228971 4.268489 33.420338
2210 1 8.479067 6.377617 35.384793
2211 1 10.560069 4.150676 35.519036
2212 1 10.630234 6.304829 33.310501
2213 1 8.359384 4.334331 37.218062
2214 1 8.562491 6.387498 39.299573
2215 1 10.250346 4.247046 39.750691
2216 1 10.376423 6.332788 37.270716
2217 1 8.321875 4.230197 41.699094
2218 1 8.360111 6.326286 43.480145
2219 1 10.506436 4.121652 43.578048
2220 1 10.146101 6.289128 41.570227
2221 1 8.495864 4.374701 45.306841
2222 1 8.373707 6.214345 47.327718
2223 1 10.287922 4.298553 47.422396
2224 1 10.457954 6.373785 45.168615
2225 1 8.415171 4.226968 49.362556
2226 1 8.465897 6.211031 51.336341
2227 1 10.756585 4.545029 51.616845
2228 1 10.534501 6.264394 49.305903
2229 1 8.445154 4.160912 53.591077
2230 1 8.163008 6.476948 55.720333
2231 1 10.267188 4.133395 55.750948
2232 1 9.911070 6.488227 53.665227
2233 1 8.581142 4.383916 57.773516
2234 1 8.155600 7.229299 59.875512
2235 1 10.327320 4.307053 59.642314
2236 1 10.294729 6.226020 57.837104
2237 1 8.272456 4.788716 61.625925
2238 1 8.030611 6.443624 63.860529
2239 1 10.375164 4.337780 63.548216
2240 1 10.473024 6.397865 61.623102
2241 1 10.170489 1.932043 66.025115
2242 1 8.194247 2.109391 67.978792
2243 1 12.323748 30.761265 72.116144
2244 1 10.387380 5.736059 65.661666
2245 1 10.659669 30.516534 69.838973
2246 1 11.450123 0.405014 82.103058
2247 1 12.317381 30.667890 67.743036
2248 1 14.504010 2.425903 70.682888
2249 1 12.371702 2.199610 67.876474
2250 1 1.663555 2.790447 84.675785
2251 1 17.989530 6.163327 77.894597
2252 1 10.600673 3.990795 71.749696
2253 1 14.296626 7.706687 84.133084
2254 1 6.437172 5.098231 79.215240
2255 1 10.687636 6.308007 78.415028
2256 1 31.773753 7.318429 84.414319
2257 1 11.508040 27.074450 94.384244
2258 1 7.738607 7.858046 95.308463
2259 1 13.105132 31.668631 87.553193
2260 1 18.042469 12.083824 83.134654
2261 1 10.210296 6.364981 93.407032
2262 1 6.628346 3.009449 95.240713
2263 1 6.407854 4.166380 98.246857
2264 1 16.068435 5.362908 76.680319
2265 1 7.227029 23.494914 95.734912
2266 1 8.646439 3.900840 89.844015
2267 1 8.176303 27.953024 90.182818
2268 1 7.873150 32.087967 98.222248
2269 1 9.330267 28.275330 98.913343
2270 1 9.506626 8.886750 98.865040
2271 1 16.701767 5.555816 104.853425
2272 1 5.582469 0.465852 99.776886
2273 1 12.611382 8.800296 107.247672
2274 1 6.695667 4.314941 105.893000
2275 1 20.265041 16.212750 101.314731
2276 1 5.382091 31.283003 103.132486
2277 1 13.921920 8.487581 104.987792
2278 1 14.827220 27.749523 106.115070
2279 1 17.268446 9.689789 101.824538
2280 1 12.172052 12.247414 101.740329
2281 1 14.218311 0.170352 105.106576
2282 1 7.157410 11.197692 112.132464
2283 1 10.317110 6.110054 112.999401
2284 1 21.776434 5.020564 109.299596
2285 1 12.548792 10.660731 109.217237
2286 1 3.614706 31.703482 113.051155
2287 1 14.670885 3.379602 121.256367
2288 1 10.245691 6.351339 110.438171
2289 1 31.853294 7.067506 111.162283
2290 1 11.985502 8.013658 123.716358
2291 1 15.570075 8.623169 119.425981
2292 1 14.694404 13.842575 111.515118
2293 1 11.658234 4.674240 123.544190
2294 1 17.678013 8.482403 117.690232
2295 1 14.122484 10.405328 123.486609
2296 1 4.914660 3.823004 114.057136
2297 1 13.733527 6.240554 127.420971
2298 1 8.211696 8.487241 127.865608
2299 1 8.156283 6.395177 130.045193
2300 1 12.654784 12.501033 127.623724
2301 1 8.292426 6.963942 133.606329
2302 1 10.229533 8.502449 133.569876
2303 1 12.332953 2.176503 133.980943
2304 1 12.248839 2.718101 129.806673
2305 1 8.017274 8.635835 0.805144
2306 1 8.231726 10.468742 2.955398
2307 1 10.350477 8.655209 2.928121
2308 1 10.403083 10.823782 0.752101
2309 1 8.566441 8.510351 5.034841
2310 1 8.206847 10.432290 7.009799
2311 1 10.142630 8.264086 6.863806
2312 1 10.441029 10.451201 5.020619
2313 1 8.339668 8.397377 8.961604
2314 1 8.274285 10.555477 11.423227
2315 1 10.392465 8.117619 11.406226
2316 1 9.782358 10.335032 9.166409
2317 1 8.505652 8.679102 13.406156
2318 1 8.569015 10.363701 15.158927
2319 1 10.294838 8.382446 15.506942
2320 1 10.632505 10.522037 13.554451
2321 1 8.346647 8.895638 17.292798
2322 1 8.051158 10.718289 19.190015
2323 1 10.543729 8.249963 19.684340
2324 1 10.413378 10.480078 17.769130
2325 1 8.478228 8.961211 21.251485
2326 1 8.571263 10.590879 23.476451
2327 1 10.462757 8.541156 23.539621
2328 1 10.994015 10.445260 21.466954
2329 1 8.261310 8.404079 25.583012
2330 1 8.671873 10.286229 27.464626
2331 1 10.384115 8.475833 27.527992
2332 1 10.548011 10.759925 25.280042
2333 1 8.861353 8.676410 29.597769
2334 1 8.709526 10.513588 31.476751
2335 1 10.454734 8.103847 31.875029
2336 1 10.397933 10.714063 29.375922
2337 1 8.241779 8.766624 33.623309
2338 1 8.537075 10.903778 35.359958
2339 1 10.396922 8.194410 35.243217
2340 1 10.358695 10.421511 33.561323
2341 1 8.159237 8.586308 36.871291
2342 1 8.237604 10.165432 39.804969
2343 1 10.136930 8.633111 39.418474
2344 1 10.074355 10.535946 37.479958
2345 1 8.250042 8.342970 41.630727
2346 1 8.583802 10.396844 43.507149
2347 1 10.487726 8.353496 43.420521
2348 1 10.401219 10.765178 41.461307
2349 1 8.438106 8.383876 45.347672
2350 1 8.210656 10.236053 47.587447
2351 1 10.177252 8.394853 47.555607
2352 1 10.525736 10.202728 45.777852
2353 1 8.347360 8.313436 49.787162
2354 1 7.998770 10.445791 51.648707
2355 1 10.197851 8.339989 51.662499
2356 1 10.056538 10.414531 49.617001
2357 1 8.328660 8.626552 53.687912
2358 1 8.100905 10.446314 55.315123
2359 1 10.373726 8.120697 55.911518
2360 1 10.362121 10.287608 53.843271
2361 1 8.386215 8.794371 57.710289
2362 1 8.372452 10.587684 59.822256
2363 1 10.289915 8.545171 59.982739
2364 1 10.515226 10.198253 57.744003
2365 1 8.789974 8.486883 62.190661
2366 1 8.091747 10.172709 63.967388
2367 1 10.561381 8.170776 64.060401
2368 1 10.362611 10.510123 61.978128
2369 1 6.250796 6.316035 65.872638
2370 1 12.498098 12.098327 69.932900
2371 1 14.474552 3.687526 68.043719
2372 1 12.540404 8.468265 65.887657
2373 1 8.427072 4.155809 65.626074
2374 1 12.146685 10.401911 76.140238
2375 1 10.996380 2.392161 74.731884
2376 1 10.600559 5.919425 75.304482
2377 1 13.400598 5.858993 82.465029
2378 1 4.213013 15.034068 93.338333
2379 1 14.076245 4.471909 72.264065
2380 1 10.591213 8.275511 76.613363
2381 1 11.927356 14.430593 75.924061
2382 1 6.155299 5.612768 74.216719
2383 1 16.589302 16.045340 78.680722
2384 1 6.968535 10.018361 82.248157
2385 1 23.297443 11.739376 82.013322
2386 1 11.138974 11.740799 85.969204
2387 1 7.286775 12.254578 87.976947
2388 1 9.650699 10.449587 87.949245
2389 1 4.892925 5.810066 99.612428
2390 1 13.070349 9.655954 85.877523
2391 1 32.436400 4.825180 92.503124
2392 1 11.268847 31.692330 79.590770
2393 1 6.866781 10.691047 90.700013
2394 1 4.169119 3.230412 91.028353
2395 1 7.615602 8.941543 88.899080
2396 1 7.817548 10.311757 93.518558
2397 1 17.136815 8.771521 97.345706
2398 1 5.375277 10.150107 102.614197
2399 1 20.387080 15.164515 104.706374
2400 1 20.202587 14.709053 91.306233
2401 1 1.465557 8.594516 104.470728
2402 1 10.038708 6.354213 96.425514
2403 1 2.828923 3.333047 103.994640
2404 1 15.782079 14.014430 99.727327
2405 1 11.520936 11.231184 104.047128
2406 1 9.106172 13.332251 111.702201
2407 1 7.425782 10.170154 99.951512
2408 1 7.938694 8.497664 107.457085
2409 1 1.011440 9.183918 111.339787
2410 1 6.316929 12.279382 115.307490
2411 1 10.753610 10.464563 106.655805
2412 1 8.238875 14.349374 121.649612
2413 1 6.328733 16.994024 113.619850
2414 1 13.792196 15.339499 116.671393
2415 1 7.520760 2.251846 112.929776
2416 1 11.374822 17.727335 113.111265
2417 1 0.814282 6.378385 114.078782
2418 1 12.451646 15.131182 125.407413
2419 1 1.452703 11.094304 115.680314
2420 1 9.282310 14.754173 116.339462
2421 1 8.747023 8.480952 123.235754
2422 1 5.754791 17.467383 124.766289
2423 1 14.290701 11.163378 119.413076
2424 1 8.391654 10.526143 125.351729
2425 1 1.108396 3.497746 119.511295
2426 1 12.453633 10.490710 129.209194
2427 1 10.393244 8.375314 130.102275
2428 1 8.050042 6.906223 125.591983
2429 1 4.291547 8.652474 131.709713
2430 1 8.734252 10.827121 133.381336
2431 1 12.344148 10.669758 133.313675
2432 1 8.289467 13.230431 131.203137
2433 1 8.398399 12.575119 0.859473
2434 1 8.008904 14.598152 3.124691
2435 1 10.263391 12.476872 3.057354
2436 1 10.131752 14.408903 1.308710
2437 1 8.263277 12.365669 5.221279
2438 1 8.407656 14.220440 7.252080
2439 1 10.482340 12.399524 7.200261
2440 1 10.399332 14.334637 5.115821
2441 1 8.608441 12.496208 9.446773
2442 1 8.435478 14.635575 11.363982
2443 1 10.273386 12.283200 11.329958
2444 1 10.409908 14.255833 9.479290
2445 1 8.057563 12.599280 13.416175
2446 1 8.530481 14.602650 15.406573
2447 1 10.284621 12.566560 15.478438
2448 1 10.178834 14.344926 13.516836
2449 1 8.485390 12.957489 17.425517
2450 1 8.449415 14.730037 19.529417
2451 1 10.288222 12.638973 19.474926
2452 1 10.759682 14.564478 17.529407
2453 1 8.541737 12.467585 21.670607
2454 1 8.419895 14.588958 23.766430
2455 1 10.602717 12.441714 23.350345
2456 1 10.444374 14.649380 21.550455
2457 1 8.592142 12.404240 25.249427
2458 1 8.377189 15.049207 27.657764
2459 1 10.789071 12.480223 27.346799
2460 1 10.227366 14.441803 25.547151
2461 1 8.502660 12.619744 29.306685
2462 1 8.401320 14.286958 31.270662
2463 1 10.689280 12.385305 31.408804
2464 1 10.466684 14.206235 29.244681
2465 1 8.264642 12.322719 33.444571
2466 1 8.511615 14.799335 35.436450
2467 1 10.600970 12.644482 35.336641
2468 1 10.368260 14.482935 33.447256
2469 1 8.442580 12.714936 37.623710
2470 1 8.386254 14.909708 39.338771
2471 1 10.669056 12.714835 39.547821
2472 1 10.548046 14.422434 37.625628
2473 1 8.543197 12.457467 41.594955
2474 1 8.477700 14.579249 43.434198
2475 1 10.318910 12.447025 43.564941
2476 1 10.494345 14.863680 41.272182
2477 1 8.298646 12.594618 45.751229
2478 1 8.257895 14.539372 47.745119
2479 1 10.317820 12.638611 47.481943
2480 1 10.287808 14.831265 45.626443
2481 1 8.260743 12.553430 49.562881
2482 1 8.078397 14.734652 51.757460
2483 1 9.868252 12.604384 51.896115
2484 1 10.350775 14.779954 49.818965
2485 1 7.977699 12.674838 53.810815
2486 1 8.267769 14.691884 55.739531
2487 1 10.144724 12.473871 55.949407
2488 1 10.287172 14.215813 54.041136
2489 1 8.416835 12.644847 58.088398
2490 1 8.213442 14.641536 60.013833
2491 1 10.341367 12.655071 59.891376
2492 1 10.459333 14.318223 57.899311
2493 1 8.270365 12.469667 62.169232
2494 1 8.251562 14.518857 64.132079
2495 1 10.199526 12.479314 64.056453
2496 1 10.228203 14.234757 61.865600
2497 1 12.425052 12.323034 65.979242
2498 1 8.093765 12.489255 65.858410
2499 1 6.504571 14.166452 73.768463
2500 1 10.187594 14.297673 65.964590
2501 1 11.916713 8.023213 73.903745
2502 1 6.403733 10.135953 70.247157
2503 1 10.154174 9.936382 74.122648
2504 1 10.304596 10.464223 65.734893
2505 1 4.202477 6.046177 72.396814
2506 1 2.800605 18.710827 74.535575
2507 1 3.435552 8.815147 76.868517
2508 1 17.356562 8.461504 80.170300
2509 1 5.885903 1.137891 82.661095
2510 1 29.151633 18.501017 80.526017
2511 1 8.344520 10.261129 80.190377
2512 1 11.812811 14.273021 72.289547
2513 1 3.236224 13.844992 87.971268
2514 1 5.226045 13.970439 76.778402
2515 1 16.336961 13.386487 85.616641
2516 1 2.952810 9.641100 83.435130
2517 1 6.274248 4.497815 84.006701
2518 1 10.447337 13.722087 90.326127
2519 1 18.209025 16.369946 92.430234
2520 1 15.015698 17.418977 87.393533
2521 1 14.286295 12.262375 86.529928
2522 1 11.003209 22.808669 95.199536
2523 1 22.970007 14.011072 112.313664
2524 1 15.019629 19.274668 93.315794
2525 1 9.536294 16.769115 98.364061
2526 1 0.560167 15.738458 97.434175
2527 1 15.524097 8.191834 99.978702
2528 1 15.483281 11.837497 82.520796
2529 1 9.489538 11.398821 90.372613
2530 1 25.286056 21.238470 99.943774
2531 1 5.806525 10.700163 95.865032
2532 1 15.384650 16.510419 92.354445
2533 1 11.615036 16.433700 115.543270
2534 1 23.780536 14.263310 109.223181
2535 1 13.787022 12.353382 98.973392
2536 1 10.939095 18.427863 103.484571
2537 1 8.636360 17.114869 114.716524
2538 1 1.547103 23.046213 118.897414
2539 1 13.398175 8.647275 121.611336
2540 1 8.859846 13.513731 105.548314
2541 1 15.300602 18.615740 109.723804
2542 1 14.197386 28.273480 111.655542
2543 1 11.009336 20.195294 112.591505
2544 1 15.494501 10.744653 108.931145
2545 1 20.189801 11.683929 123.165583
2546 1 12.998762 15.972466 120.267786
2547 1 8.208550 14.809326 125.539546
2548 1 10.582497 16.308858 121.358249
2549 1 14.687136 19.950233 115.204055
2550 1 13.027192 18.437420 121.503702
2551 1 10.350618 10.798215 127.515969
2552 1 6.075934 14.837262 123.169574
2553 1 10.390943 10.277454 123.376850
2554 1 4.665528 12.781995 123.169264
2555 1 9.746292 12.143524 121.265614
2556 1 30.595142 14.322686 127.658878
2557 1 8.067002 18.736698 129.654324
2558 1 8.463392 14.918792 133.804736
2559 1 6.149252 12.842379 129.462069
2560 1 6.276199 15.028436 131.532614
2561 1 8.434949 16.408135 1.276703
2562 1 8.390204 18.855708 3.007535
2563 1 10.148904 16.677760 3.519347
2564 1 10.392272 18.577293 1.329291
2565 1 8.150176 16.309677 5.370983
2566 1 7.855370 18.258647 7.345793
2567 1 9.927511 16.498453 7.369712
2568 1 10.081696 18.627281 5.689209
2569 1 8.380522 16.452913 9.531295
2570 1 8.467756 18.370835 11.391219
2571 1 10.309878 16.680533 11.636518
2572 1 10.260806 18.307735 9.453107
2573 1 8.340475 16.647417 13.314063
2574 1 8.527981 18.601575 15.456622
2575 1 10.665301 16.647399 15.457042
2576 1 10.561091 18.697233 13.574760
2577 1 8.529730 16.378874 17.253224
2578 1 8.559447 18.765368 19.406358
2579 1 10.579505 16.320604 19.412933
2580 1 10.491939 18.509872 17.644972
2581 1 8.445266 16.652520 21.331551
2582 1 8.513709 18.735061 23.666061
2583 1 10.270212 16.773082 23.555357
2584 1 10.189165 18.621933 21.697641
2585 1 8.226388 16.818442 25.502536
2586 1 8.194840 19.051154 27.647605
2587 1 10.244255 16.761133 27.679709
2588 1 10.209116 18.752054 25.622415
2589 1 8.550895 16.678980 29.598709
2590 1 8.316454 18.708741 31.535053
2591 1 10.617601 16.326985 31.167745
2592 1 10.089691 19.116046 29.487526
2593 1 8.548351 16.569405 33.007789
2594 1 8.231031 18.454902 35.197208
2595 1 10.369590 16.468913 35.445243
2596 1 10.596514 18.369582 33.534989
2597 1 8.102391 16.666674 37.199297
2598 1 8.186578 18.917713 39.252071
2599 1 10.282705 16.637241 39.304230
2600 1 10.286915 18.818772 37.320318
2601 1 8.329718 16.994601 41.488079
2602 1 8.434096 19.303382 43.504191
2603 1 10.347165 16.701792 43.249675
2604 1 10.382843 18.814213 41.343444
2605 1 8.454029 16.844651 45.333395
2606 1 8.110306 18.770018 47.567163
2607 1 10.330371 16.492027 47.843453
2608 1 10.592334 18.543067 45.436264
2609 1 7.918860 16.748607 49.707004
2610 1 7.800653 18.727721 51.594043
2611 1 10.150069 16.364517 51.929060
2612 1 9.946354 18.607364 49.734363
2613 1 8.162572 16.837188 53.511748
2614 1 8.060268 18.546801 55.794141
2615 1 10.577030 16.702210 55.785830
2616 1 10.195493 18.963732 53.590251
2617 1 8.079018 16.611054 58.042834
2618 1 8.401256 18.552751 60.116637
2619 1 10.166446 16.400164 59.842113
2620 1 10.411908 18.522856 57.920837
2621 1 8.573447 16.377332 62.145594
2622 1 8.341603 18.335117 64.009573
2623 1 10.729292 16.510227 64.112329
2624 1 10.576459 18.506941 61.848227
2625 1 8.330070 16.369575 66.120913
2626 1 10.045252 16.411323 68.031080
2627 1 8.096272 8.238304 70.005742
2628 1 10.301417 18.760488 65.908837
2629 1 3.784231 16.307391 70.180691
2630 1 8.228671 30.611906 68.223008
2631 1 7.648720 10.018561 72.542328
2632 1 10.630375 18.264180 74.231192
2633 1 11.931593 12.173914 74.187446
2634 1 4.032191 14.465243 68.359114
2635 1 8.077855 12.701825 69.882735
2636 1 10.322390 12.217219 76.562015
2637 1 2.449708 24.670140 67.924293
2638 1 12.642916 17.977563 72.254535
2639 1 6.304290 9.070347 79.005884
2640 1 12.789287 20.410514 70.207045
2641 1 26.317496 10.115117 81.244861
2642 1 17.976539 24.376311 86.418534
2643 1 14.996655 17.552178 81.433672
2644 1 8.544763 17.447133 80.162776
2645 1 11.292702 12.651532 82.893453
2646 1 15.746992 14.989523 88.089762
2647 1 4.624588 9.129349 81.362835
2648 1 12.855815 24.547434 84.670259
2649 1 8.962444 13.518407 84.765672
2650 1 12.644055 14.787739 94.979180
2651 1 13.829902 17.076444 90.633151
2652 1 11.218194 17.750599 89.943779
2653 1 13.933554 28.634435 93.700512
2654 1 10.841051 23.130748 88.225145
2655 1 14.926157 26.744425 84.508376
2656 1 15.253867 18.745266 98.022029
2657 1 5.078926 14.999918 106.550149
2658 1 11.396838 27.251686 103.772284
2659 1 32.619201 13.830585 109.313943
2660 1 13.384417 23.491840 100.400620
2661 1 10.694896 15.640950 104.671969
2662 1 19.304926 16.268219 108.592160
2663 1 15.963518 23.127416 107.648216
2664 1 12.745568 15.903770 106.934194
2665 1 5.052153 23.176054 108.554808
2666 1 4.567697 17.413217 102.133143
2667 1 8.069477 18.670717 108.975885
2668 1 14.196878 25.468362 110.914908
2669 1 8.335849 18.858262 125.553793
2670 1 17.589787 3.227567 106.230503
2671 1 8.550475 20.611558 119.315967
2672 1 9.082635 24.112087 102.512608
2673 1 19.464871 19.916200 112.624425
2674 1 6.614768 18.271285 118.881470
2675 1 14.523315 12.496312 125.683162
2676 1 16.465802 16.055550 114.191733
2677 1 10.247768 18.850158 131.543669
2678 1 4.089974 24.872384 123.128185
2679 1 3.976991 20.879197 127.705039
2680 1 8.243212 14.604470 129.145819
2681 1 6.268705 16.615770 129.332812
2682 1 8.426420 24.987215 131.731085
2683 1 6.457277 12.335703 125.221834
2684 1 12.764000 12.881169 123.466099
2685 1 10.244910 16.706410 133.484332
2686 1 8.428074 19.048589 133.543051
2687 1 8.348562 16.566155 131.500351
2688 1 8.226729 22.834095 133.622517
2689 1 8.272187 20.890142 0.859111
2690 1 8.147204 22.690537 3.197041
2691 1 10.154752 20.661450 3.058187
2692 1 10.257694 22.719154 1.084974
2693 1 8.183501 20.245737 5.420669
2694 1 8.357213 22.637188 7.368406
2695 1 10.237351 20.408729 7.385825
2696 1 10.134380 22.172292 5.169832
2697 1 8.418583 20.117942 9.294615
2698 1 8.402834 22.460496 11.144439
2699 1 10.321686 20.503633 11.558125
2700 1 10.592565 22.652746 9.236129
2701 1 8.523711 20.901321 13.637446
2702 1 8.254078 22.805176 15.485361
2703 1 10.474414 20.422552 15.707504
2704 1 10.650614 22.516026 13.589536
2705 1 8.327575 20.591814 17.362617
2706 1 8.232460 22.794754 19.095577
2707 1 10.169552 20.690869 19.614053
2708 1 10.308083 22.579922 17.142273
2709 1 8.338611 20.631519 21.694895
2710 1 8.296440 22.934147 23.445342
2711 1 10.421351 20.766960 24.268481
2712 1 10.415682 22.658732 21.525612
2713 1 8.191656 20.749192 25.338745
2714 1 8.344687 22.512110 27.404493
2715 1 10.392017 20.811695 27.278495
2716 1 10.524059 23.060696 25.681036
2717 1 8.346381 20.859298 29.749552
2718 1 8.245687 22.832222 31.312999
2719 1 10.436248 20.687334 31.868558
2720 1 10.214306 22.694084 29.372518
2721 1 8.150625 20.511959 33.359028
2722 1 8.404885 22.648923 35.316703
2723 1 10.264150 20.388753 35.106425
2724 1 10.670345 23.027711 33.528155
2725 1 8.591179 20.753559 37.345427
2726 1 8.432661 22.958797 39.442529
2727 1 10.628914 21.156618 39.477709
2728 1 10.666837 22.592815 37.417880
2729 1 8.552566 20.710925 41.335253
2730 1 8.339657 22.858306 43.600238
2731 1 10.520354 20.592259 43.591369
2732 1 10.404543 22.824988 41.695974
2733 1 8.719224 20.864186 45.541210
2734 1 8.168122 22.566703 47.291056
2735 1 10.375200 20.529496 47.416498
2736 1 10.349243 22.794486 45.529500
2737 1 8.212123 20.630741 49.761664
2738 1 7.783748 22.498066 51.622066
2739 1 9.977430 20.645447 51.476090
2740 1 10.262577 22.592318 49.185944
2741 1 8.032862 20.436253 53.621109
2742 1 7.942236 22.696159 55.889058
2743 1 10.608267 20.481462 55.762123
2744 1 9.879097 22.467990 53.870801
2745 1 8.243817 20.610416 57.855031
2746 1 8.320688 22.474698 59.745961
2747 1 10.379610 20.726307 59.570347
2748 1 10.235803 22.363215 57.434325
2749 1 8.391321 20.708985 61.972515
2750 1 8.295031 22.656368 64.206148
2751 1 10.116845 20.554151 63.944212
2752 1 10.343366 22.627661 61.749364
2753 1 10.351596 20.911025 67.835075
2754 1 11.165379 24.608123 79.033201
2755 1 6.679162 24.701619 72.228011
2756 1 10.453335 22.451566 65.881880
2757 1 8.116401 20.805439 66.084525
2758 1 0.410694 25.056010 65.808617
2759 1 11.762431 10.093673 72.170389
2760 1 21.409200 13.963227 76.821554
2761 1 10.290436 22.029808 70.120890
2762 1 15.913831 26.672398 76.378620
2763 1 9.987722 12.332940 79.963204
2764 1 8.662239 1.840706 76.376512
2765 1 8.870981 22.147715 72.155531
2766 1 12.155613 26.732203 80.064309
2767 1 12.930981 19.875438 76.411134
2768 1 2.405375 10.287474 74.656700
2769 1 8.284252 14.533976 79.685169
2770 1 13.813384 20.935673 78.632765
2771 1 7.434549 9.285380 86.416333
2772 1 11.856156 31.162421 84.701889
2773 1 9.378115 22.850735 81.502763
2774 1 15.604822 20.716096 90.637272
2775 1 19.839385 23.117840 93.963937
2776 1 1.923158 12.135128 82.851428
2777 1 3.483702 11.594489 98.732480
2778 1 7.319495 18.993364 86.115187
2779 1 13.024383 21.597008 90.210866
2780 1 29.894587 21.756969 84.699930
2781 1 21.657120 13.531654 83.553961
2782 1 19.905214 27.381683 108.908124
2783 1 13.463066 9.189154 102.514915
2784 1 8.738179 15.306050 101.099369
2785 1 12.391119 15.888697 92.661895
2786 1 17.960717 15.350249 106.179840
2787 1 5.958229 20.194701 100.205620
2788 1 17.638055 0.665931 110.523505
2789 1 8.819612 11.045600 110.112172
2790 1 12.403751 20.588561 109.769779
2791 1 14.212524 25.261296 107.785748
2792 1 16.044390 21.970717 104.528815
2793 1 10.246441 16.961555 107.540222
2794 1 28.311653 24.222753 119.290064
2795 1 32.238857 23.165253 120.917110
2796 1 16.810490 19.657889 111.565064
2797 1 8.016028 28.851817 114.651368
2798 1 7.346467 24.099544 113.850494
2799 1 8.934942 18.637912 120.984740
2800 1 16.719112 27.022441 121.904875
2801 1 3.162998 16.674225 120.025693
2802 1 13.244473 20.789195 119.886842
2803 1 8.247593 16.921212 127.327912
2804 1 4.441653 24.841407 127.462165
2805 1 7.014888 21.667078 117.547322
2806 1 6.108241 27.094674 123.370921
2807 1 5.911965 18.986498 127.179410
2808 1 14.725493 27.642019 123.883973
2809 1 10.539280 25.093928 129.551614
2810 1 2.104883 22.622891 127.743076
2811 1 8.438247 20.604014 131.826830
2812 1 8.083274 26.840985 129.597704
2813 1 2.514924 16.738155 129.784261
2814 1 6.089442 24.989539 133.869193
2815 1 6.418259 24.908219 125.302989
2816 1 8.924926 24.585180 127.269748
2817 1 8.053610 24.721829 0.847256
2818 1 8.212306 26.714363 2.963881
2819 1 10.189951 24.280809 3.083918
2820 1 10.421682 26.693826 1.138681
2821 1 8.350584 24.384761 5.071435
2822 1 8.390007 26.294356 7.111303
2823 1 10.291260 24.710745 7.223274
2824 1 10.025952 26.435864 5.024561
2825 1 8.224908 24.520383 9.438817
2826 1 8.371830 26.858698 11.514977
2827 1 10.298320 24.443887 11.293956
2828 1 10.277019 26.568980 9.306685
2829 1 8.617345 24.784342 13.623896
2830 1 8.611395 27.140279 15.064226
2831 1 10.676839 24.678535 15.625700
2832 1 10.444421 26.435889 13.243130
2833 1 8.275260 25.267221 17.081129
2834 1 8.131131 27.029841 19.302960
2835 1 10.186579 24.834996 19.272197
2836 1 10.212822 26.788751 17.112254
2837 1 8.402094 24.858244 21.331181
2838 1 8.429126 26.898253 23.501934
2839 1 10.440326 24.649818 23.583534
2840 1 10.261081 26.628206 21.525597
2841 1 8.191093 24.892068 25.346657
2842 1 8.788892 26.789174 27.425691
2843 1 10.574847 24.664191 27.580432
2844 1 10.684735 26.865747 25.211208
2845 1 8.633826 24.919138 29.503817
2846 1 7.903901 26.615478 31.591506
2847 1 10.392039 25.151018 31.570889
2848 1 10.389066 26.857608 29.456255
2849 1 8.378907 24.567375 33.573045
2850 1 8.235770 26.826582 35.693308
2851 1 10.473309 24.643882 35.551899
2852 1 10.344600 26.731004 33.662710
2853 1 8.323649 25.021652 37.502744
2854 1 8.461386 26.698015 39.620515
2855 1 10.556720 24.955706 39.833527
2856 1 10.643707 26.717757 37.421517
2857 1 8.392546 25.065174 41.810713
2858 1 8.366611 27.004136 43.344929
2859 1 10.536658 24.808457 43.236060
2860 1 10.418317 26.945876 41.632423
2861 1 8.546842 25.020711 45.358128
2862 1 8.313457 26.688021 47.913279
2863 1 10.276489 24.472499 47.290258
2864 1 10.445713 26.947803 45.497471
2865 1 8.043848 24.610727 49.691235
2866 1 8.360096 26.473485 51.650782
2867 1 9.896740 24.477130 51.778607
2868 1 10.512732 26.705790 49.651409
2869 1 8.170344 24.570336 53.816310
2870 1 8.192101 26.543620 55.761585
2871 1 10.299682 24.368849 55.759100
2872 1 10.342951 26.718441 53.561399
2873 1 8.592629 24.533369 57.695662
2874 1 8.306313 26.787866 60.080755
2875 1 10.006568 24.320458 59.636772
2876 1 10.338093 26.597264 58.062850
2877 1 8.191192 24.620253 61.929565
2878 1 8.700465 26.571911 63.890059
2879 1 10.386470 24.386989 63.882448
2880 1 10.385262 26.322938 61.890661
2881 1 8.329456 24.709223 65.997973
2882 1 10.805958 28.416644 72.142492
2883 1 8.472584 22.450036 68.119394
2884 1 10.372336 30.700206 65.731207
2885 1 10.891186 22.482060 74.349893
2886 1 12.477787 0.025930 74.810813
2887 1 6.400705 28.871761 72.079775
2888 1 10.466069 30.828109 73.854422
2889 1 5.348027 20.308278 81.024707
2890 1 14.302106 5.240671 88.855781
2891 1 7.979645 22.576752 84.305186
2892 1 11.272705 24.659896 82.675486
2893 1 14.933410 21.443904 72.727489
2894 1 28.621488 31.187496 72.372740
2895 1 15.322027 23.755479 82.764237
2896 1 8.996961 31.785401 76.446476
2897 1 27.137688 23.943294 85.774685
2898 1 1.195755 30.537343 101.331417
2899 1 11.257844 18.942576 87.628109
2900 1 17.042642 31.173429 86.692274
2901 1 6.708673 20.675675 92.528785
2902 1 13.435518 22.002470 92.910614
2903 1 11.105984 25.581514 86.838108
2904 1 3.379024 26.479169 101.603400
2905 1 15.746298 24.892627 88.000430
2906 1 8.894120 20.486889 93.849340
2907 1 6.910253 27.372204 99.848761
2908 1 0.119955 19.608203 92.060333
2909 1 13.551161 29.040445 83.677985
2910 1 12.329863 31.067021 98.593848
2911 1 5.988778 26.489848 108.531183
2912 1 11.995123 0.572016 96.313013
2913 1 15.674032 17.245275 102.245242
2914 1 12.506588 1.314028 106.906009
2915 1 4.946224 1.944243 106.049433
2916 1 17.024978 25.646157 107.769807
2917 1 29.493050 25.985904 108.089239
2918 1 1.576413 27.336056 96.881809
2919 1 17.547049 30.989303 108.706529
2920 1 15.147132 27.185199 109.178541
2921 1 5.950362 26.409369 114.695555
2922 1 12.636278 29.749510 113.911011
2923 1 9.304529 25.640720 112.851263
2924 1 11.802427 23.329675 110.384754
2925 1 12.653204 27.285552 121.069704
2926 1 2.249436 25.663233 111.389102
2927 1 21.055362 2.660949 110.203007
2928 1 11.933586 12.917570 110.796182
2929 1 6.305540 20.781442 124.941266
2930 1 14.319919 26.982804 127.425509
2931 1 14.824167 29.429486 125.742311
2932 1 8.150271 2.220150 120.781998
2933 1 10.209350 32.540101 120.704519
2934 1 10.525110 28.988993 121.602462
2935 1 12.589184 28.500468 131.892415
2936 1 12.427318 20.873796 123.433661
2937 1 12.476300 24.694907 127.398044
2938 1 8.024130 28.554828 127.786818
2939 1 12.471462 27.026779 129.509510
2940 1 10.460396 28.830197 129.551986
2941 1 10.312146 26.811582 131.605824
2942 1 8.411296 26.847635 133.757475
2943 1 10.269144 24.635485 133.766894
2944 1 6.357062 24.589661 129.776584
2945 1 8.393929 28.921663 1.333183
2946 1 8.377206 30.809507 3.578327
2947 1 10.431199 28.703353 3.393143
2948 1 9.933284 31.015061 1.282347
2949 1 8.324242 28.712288 5.468149
2950 1 8.254462 30.734976 7.523429
2951 1 10.249090 28.550700 7.133608
2952 1 10.658960 30.478314 5.224021
2953 1 8.229831 28.661298 9.251958
2954 1 8.239278 30.603267 11.123494
2955 1 10.215344 28.783896 11.060308
2956 1 10.568126 30.722123 8.996038
2957 1 8.554165 29.056162 13.244101
2958 1 8.382040 30.888672 15.185444
2959 1 10.004518 29.007867 15.643035
2960 1 10.237468 30.755032 13.388068
2961 1 8.033360 29.243035 17.656756
2962 1 8.437530 30.967646 19.503694
2963 1 10.624362 28.732288 19.129836
2964 1 10.609916 30.750806 17.480247
2965 1 8.240073 29.137245 21.501137
2966 1 7.975469 31.021288 23.665206
2967 1 10.470879 28.735033 23.238007
2968 1 10.314638 31.031254 21.490042
2969 1 8.526822 28.667012 25.417922
2970 1 8.574180 30.585781 27.331289
2971 1 10.403867 28.831767 27.548816
2972 1 10.203789 31.046579 25.381338
2973 1 8.447633 28.654144 29.539686
2974 1 8.566118 30.497609 31.375689
2975 1 10.071897 28.423428 31.677868
2976 1 10.667962 30.524534 29.692136
2977 1 8.358629 28.562385 33.895872
2978 1 8.383925 30.623891 35.472765
2979 1 10.661441 28.741741 35.351132
2980 1 10.371215 30.866205 33.461343
2981 1 8.773831 28.428378 37.602528
2982 1 8.201482 30.677423 39.611222
2983 1 10.667460 29.054070 39.694011
2984 1 10.541090 30.714134 37.441061
2985 1 8.228246 28.703744 41.381841
2986 1 8.354942 31.146273 43.439825
2987 1 10.466663 29.121035 43.494923
2988 1 10.752495 31.072060 41.595650
2989 1 8.271022 28.770427 45.794784
2990 1 8.515170 30.604649 47.719933
2991 1 10.355882 28.774009 47.661924
2992 1 10.177632 30.922135 45.615411
2993 1 8.342280 28.743970 49.571918
2994 1 8.003928 30.851596 51.561810
2995 1 9.800690 28.614929 51.635844
2996 1 10.236638 30.999786 49.916089
2997 1 8.207833 28.514451 53.935119
2998 1 8.265680 30.727367 55.682174
2999 1 10.135965 28.999474 56.142707
3000 1 10.307922 30.408939 53.543556
3001 1 8.485773 28.683092 57.862805
3002 1 8.298618 30.475955 60.211299
3003 1 10.506324 28.596335 60.035459
3004 1 10.088525 30.980897 58.254699
3005 1 8.296759 28.323403 62.318697
3006 1 8.372055 30.604745 63.916478
3007 1 10.415634 28.538446 63.931920
3008 1 10.374724 30.498524 61.988609
3009 1 8.651459 28.357123 69.879470
3010 1 10.665655 26.167969 70.306128
3011 1 8.724568 26.403929 68.266056
3012 1 6.487048 30.739643 65.595044
3013 1 8.006490 32.589676 69.818112
3014 1 14.271391 27.423524 78.251624
3015 1 6.333175 27.829642 84.151142
3016 1 10.405407 26.521344 66.111899
3017 1 8.351394 27.988458 81.170571
3018 1 6.701604 22.107873 79.175793
3019 1 16.421046 26.620065 82.380708
3020 1 8.368295 4.342646 69.657003
3021 1 22.989915 31.862872 82.618499
3022 1 14.250693 6.604762 97.900129
3023 1 7.098722 29.332016 76.397379
3024 1 17.267976 32.502743 83.248919
3025 1 7.095314 25.583648 82.707479
3026 1 8.109981 27.196862 76.315950
3027 1 13.526998 2.072304 85.125254
3028 1 12.577235 3.230289 87.637861
3029 1 7.203999 30.359872 83.167740
3030 1 9.525834 30.747802 81.317486
3031 1 5.141805 23.826784 94.007691
3032 1 3.051347 24.201789 90.113350
3033 1 5.008231 25.661070 96.683189
3034 1 10.398452 0.398301 98.550392
3035 1 18.426949 21.455927 80.928079
3036 1 30.597204 0.868452 93.807338
3037 1 14.872668 31.234130 94.266949
3038 1 10.933480 30.036296 104.989130
3039 1 2.773291 1.601324 99.101753
3040 1 2.210923 17.372439 95.031518
3041 1 13.815837 20.032025 107.286102
3042 1 23.135137 31.436902 98.890682
3043 1 17.795690 9.775960 106.401736
3044 1 11.404487 2.582163 98.363365
3045 1 14.024604 30.079196 104.052439
3046 1 11.876257 6.966631 105.322464
3047 1 11.824566 26.315470 112.122256
3048 1 8.024803 31.131373 116.436054
3049 1 16.008677 1.799079 103.639115
3050 1 9.640623 0.912769 111.391152
3051 1 11.374145 4.151783 117.454405
3052 1 7.042808 6.018737 110.335069
3053 1 4.450172 7.079855 116.821665
3054 1 1.869999 6.698071 111.673654
3055 1 8.912907 3.657952 110.768792
3056 1 9.035011 30.831023 109.801356
3057 1 20.235328 6.557319 110.946466
3058 1 10.455110 6.495213 117.266392
3059 1 8.520859 30.473215 120.795088
3060 1 14.137459 28.085185 118.696864
3061 1 4.300080 2.145990 129.897036
3062 1 12.224915 2.217861 125.417937
3063 1 6.370992 32.244033 125.358059
3064 1 12.219459 31.193931 125.384746
3065 1 12.338612 31.012888 129.357091
3066 1 5.939095 28.786325 129.980248
3067 1 12.640414 24.871094 131.628519
3068 1 8.368796 2.144250 130.234679
3069 1 8.197426 28.785734 131.704671
3070 1 6.139203 30.721966 131.963995
3071 1 8.320281 30.815492 133.955404
3072 1 16.518225 0.223028 132.092824
3073 1 12.149222 32.530077 1.129993
3074 1 12.293802 2.210677 3.100444
3075 1 14.279724 0.246527 3.079460
3076 1 14.539358 2.106478 1.234845
3077 1 12.090731 0.127188 5.728826
3078 1 12.745814 2.527330 7.430961
3079 1 14.425277 0.342508 7.200366
3080 1 13.911548 2.553762 5.233708
3081 1 12.503316 0.146861 8.847365
3082 1 12.462238 2.296057 11.454551
3083 1 14.395608 0.187697 11.254770
3084 1 14.361472 2.356433 9.275237
3085 1 12.299059 0.298419 13.356212
3086 1 12.583267 2.423716 15.392133
3087 1 14.146536 0.558570 15.716966
3088 1 14.636857 2.036034 13.736842
3089 1 12.302878 0.580495 17.521133
3090 1 12.571388 2.081885 19.746619
3091 1 14.423316 0.114231 19.617020
3092 1 14.447293 2.431192 17.695741
3093 1 12.390112 0.067313 21.659464
3094 1 12.828836 2.426281 23.507099
3095 1 14.515345 0.410557 23.543267
3096 1 14.852536 2.219912 21.365045
3097 1 12.542186 0.453270 25.336305
3098 1 12.513544 2.265930 27.357826
3099 1 14.431469 0.373337 27.471900
3100 1 14.580281 2.656077 25.511853
3101 1 12.411861 0.207587 29.272443
3102 1 12.168986 2.352308 31.418339
3103 1 14.157218 0.249002 31.313652
3104 1 14.464066 2.279659 29.518519
3105 1 12.493419 0.317420 33.376923
3106 1 12.525469 2.123630 35.345802
3107 1 14.352749 32.585123 35.224432
3108 1 14.485809 2.188839 33.086810
3109 1 12.510796 0.046188 37.574704
3110 1 12.348460 2.211285 39.143322
3111 1 14.671367 0.134295 39.710880
3112 1 14.429991 2.048992 37.470831
3113 1 12.611042 0.423406 41.702769
3114 1 12.304578 2.499716 43.379273
3115 1 14.386026 0.050722 43.716171
3116 1 14.370852 2.339122 41.598717
3117 1 12.489693 0.440534 45.740158
3118 1 12.482287 2.502383 47.413648
3119 1 14.701142 0.244475 47.611833
3120 1 14.507582 2.299827 45.385833
3121 1 12.510328 0.218390 49.675388
3122 1 12.148749 2.335149 51.572400
3123 1 14.316829 0.478973 51.569859
3124 1 14.027849 2.451824 49.351734
3125 1 12.323272 32.322076 53.697877
3126 1 12.475592 2.197006 55.989021
3127 1 14.418862 0.142001 55.918934
3128 1 13.977828 2.138434 53.771549
3129 1 12.478596 0.048126 57.821733
3130 1 12.369566 2.320817 59.599407
3131 1 14.317751 0.345881 59.858482
3132 1 14.389425 2.405779 57.682302
3133 1 12.408531 0.058180 61.794992
3134 1 12.430949 1.956056 63.238799
3135 1 14.484311 32.603413 63.846769
3136 1 14.803941 2.252922 61.891212
3137 1 12.427180 0.080502 65.836129
3138 1 14.610737 30.565557 65.718365
3139 1 14.518889 24.634267 67.712306
3140 1 18.802656 28.367993 67.857036
3141 1 12.210111 28.561423 69.973175
3142 1 11.478358 26.474006 77.336900
3143 1 19.128648 16.227404 76.048630
3144 1 14.259856 30.409643 69.899172
3145 1 18.501635 30.691537 70.053237
3146 1 14.687666 32.182166 76.173256
3147 1 20.113446 24.454972 88.408390
3148 1 14.337332 0.432012 67.493470
3149 1 19.335027 6.504332 84.105254
3150 1 13.515714 6.098417 91.820389
3151 1 13.864917 28.774058 80.987810
3152 1 14.379108 1.849719 73.787804
3153 1 6.939686 30.808557 90.149415
3154 1 5.511619 5.678020 91.135987
3155 1 17.952432 21.235397 83.878094
3156 1 10.534596 6.541792 90.678917
3157 1 5.452365 5.865167 96.515053
3158 1 5.369058 1.868234 97.045197
3159 1 19.496131 13.217089 99.938227
3160 1 9.741254 25.958103 97.972527
3161 1 6.165082 2.779199 89.446469
3162 1 14.468319 9.825176 97.324706
3163 1 14.607661 5.258206 94.316402
3164 1 14.248376 1.706326 97.383765
3165 1 20.741829 0.116573 83.918729
3166 1 12.123725 2.495466 103.874078
3167 1 7.949790 0.472474 91.168734
3168 1 3.744267 5.376280 105.563754
3169 1 14.333400 11.979490 103.478357
3170 1 9.498106 5.315838 105.173121
3171 1 22.845509 30.938267 109.579959
3172 1 22.274777 15.113976 102.777899
3173 1 32.629805 6.987127 102.757462
3174 1 15.262122 3.603608 117.265554
3175 1 16.825424 28.455986 115.060523
3176 1 11.518843 7.812526 101.017647
3177 1 11.713807 0.254933 104.816829
3178 1 13.001361 6.821135 103.098421
3179 1 19.006002 30.417158 111.688750
3180 1 13.714132 1.769310 102.163326
3181 1 17.877610 5.163094 113.856744
3182 1 14.444210 5.468535 115.085336
3183 1 22.320601 8.635136 101.798874
3184 1 11.746357 6.300816 125.819530
3185 1 14.045079 4.384095 129.899528
3186 1 8.090507 0.503306 128.001456
3187 1 18.509111 2.102488 127.732927
3188 1 19.711153 3.897772 112.328763
3189 1 9.994176 6.187615 127.760007
3190 1 6.141285 8.887050 125.908874
3191 1 13.992546 2.430103 127.957615
3192 1 18.794217 11.846925 125.606710
3193 1 3.977565 0.211303 127.683867
3194 1 18.610106 6.587857 131.854920
3195 1 14.650968 32.026839 125.891482
3196 1 12.036793 4.433238 127.787800
3197 1 14.316771 4.105863 133.799117
3198 1 12.423013 0.101624 131.877622
3199 1 14.212159 0.101401 133.793026
3200 1 18.595663 4.575597 133.820880
3201 1 12.033162 4.188649 1.217143
3202 1 12.084530 6.514432 2.672322
3203 1 14.406052 4.250962 2.969629
3204 1 14.214668 6.348147 0.889344
3205 1 12.356674 4.652471 4.697286
3206 1 12.337593 6.379741 7.303926
3207 1 14.522394 4.494257 7.398558
3208 1 14.046442 6.277612 4.994741
3209 1 11.870973 4.390064 9.077882
3210 1 12.463323 6.490600 11.305555
3211 1 14.272689 4.299642 11.385424
3212 1 14.281439 6.638150 9.240672
3213 1 12.408277 4.323894 13.523712
3214 1 12.345215 6.320237 15.783638
3215 1 14.342568 4.315212 15.445793
3216 1 14.612825 6.168751 13.626439
3217 1 12.352362 4.238056 17.729267
3218 1 12.358562 6.292701 19.499803
3219 1 14.540361 4.229913 19.561709
3220 1 14.362490 6.029988 17.587035
3221 1 12.428747 4.234378 21.477892
3222 1 12.421290 6.323306 23.847163
3223 1 14.820032 4.198104 23.322997
3224 1 14.790745 6.295035 21.842558
3225 1 12.372291 4.337451 25.636183
3226 1 12.363002 6.257543 27.590988
3227 1 14.639882 4.426843 27.566552
3228 1 14.778137 6.184415 25.659488
3229 1 12.492896 4.209441 29.092333
3230 1 12.440351 6.296846 31.345868
3231 1 14.269003 4.297853 31.336836
3232 1 14.565374 6.353422 29.407209
3233 1 12.035216 3.988189 33.296943
3234 1 12.399776 6.573009 35.497906
3235 1 14.296726 4.211204 35.441015
3236 1 14.198759 6.088977 33.545156
3237 1 12.103131 4.435489 37.812762
3238 1 11.991625 6.764994 39.529654
3239 1 14.462271 4.242545 39.478880
3240 1 13.986218 6.345208 37.557209
3241 1 12.390941 4.355905 41.239767
3242 1 12.573956 6.351573 43.525247
3243 1 14.944721 4.386293 43.511348
3244 1 14.380864 6.434050 41.442387
3245 1 12.547705 4.208473 45.409244
3246 1 12.272071 6.022674 47.398269
3247 1 14.367462 4.351170 47.459997
3248 1 14.601367 7.188526 45.732195
3249 1 12.134131 4.147899 49.540524
3250 1 12.465952 6.355176 52.117475
3251 1 14.482169 4.098570 52.039211
3252 1 14.143336 6.098449 49.840931
3253 1 12.408994 4.354764 54.017156
3254 1 12.112341 6.188215 56.098933
3255 1 14.627884 4.031788 55.628181
3256 1 13.962817 6.261287 54.376338
3257 1 12.284006 4.297756 57.533942
3258 1 12.626461 6.324563 59.782869
3259 1 14.439321 4.423087 59.809019
3260 1 14.536172 5.962511 57.578744
3261 1 12.508998 4.245730 61.840522
3262 1 12.572311 6.335465 63.931457
3263 1 14.358460 4.119358 63.995032
3264 1 14.664990 6.183552 62.014622
3265 1 12.103355 3.897816 65.889406
3266 1 17.491293 6.754106 74.547032
3267 1 18.548539 12.022044 68.446194
3268 1 11.545987 8.598856 70.036040
3269 1 16.364590 6.212206 68.192258
3270 1 13.875960 8.519872 72.160517
3271 1 10.307396 4.332045 67.884378
3272 1 18.867746 6.553548 65.771352
3273 1 12.253606 2.148667 72.177915
3274 1 11.318035 0.528225 77.396070
3275 1 23.756764 4.742261 85.481764
3276 1 12.210952 6.317975 71.756774
3277 1 25.629424 2.611104 84.278317
3278 1 8.407183 8.425438 84.272782
3279 1 15.106302 30.889761 82.613594
3280 1 11.625400 7.257908 81.058534
3281 1 10.815606 3.008800 85.539814
3282 1 18.897757 2.069020 83.602221
3283 1 25.611271 0.065683 83.363886
3284 1 16.872525 1.589548 85.282288
3285 1 17.221053 2.774897 87.982048
3286 1 11.384717 1.598658 100.853388
3287 1 12.534059 8.217955 92.940188
3288 1 18.815931 14.094141 84.536729
3289 1 12.218072 27.144445 106.368993
3290 1 9.048387 6.931645 87.995710
3291 1 15.673000 7.352833 95.533215
3292 1 22.193302 18.192434 86.144938
3293 1 6.312309 27.393227 104.187173
3294 1 5.694818 5.373154 103.087929
3295 1 8.931224 1.175334 96.689523
3296 1 18.999747 4.609230 99.980951
3297 1 12.667205 8.477367 111.324037
3298 1 17.693366 11.719614 107.955677
3299 1 5.880904 9.191460 98.359613
3300 1 12.034898 10.959539 94.820507
3301 1 24.263049 5.236280 111.282434
3302 1 19.320824 0.577126 108.319642
3303 1 23.639892 3.129718 109.489780
3304 1 6.547320 10.628475 107.813282
3305 1 22.546994 0.819042 108.807527
3306 1 19.740749 8.275774 108.220553
3307 1 18.210743 10.909884 99.322533
3308 1 18.472800 1.128271 104.317047
3309 1 5.250861 7.812851 112.111969
3310 1 8.626903 8.942632 112.015611
3311 1 12.625470 4.319625 119.831256
3312 1 21.912025 14.722871 107.706272
3313 1 7.659978 28.380138 119.492079
3314 1 11.914165 15.713525 111.754283
3315 1 13.822032 3.502384 108.694894
3316 1 20.914797 8.788862 116.835232
3317 1 20.166428 3.324644 115.251700
3318 1 7.998969 16.777458 123.655361
3319 1 20.987314 14.244548 121.034133
3320 1 16.609610 14.568680 121.940477
3321 1 5.600514 6.616876 119.080982
3322 1 12.561785 6.412350 129.752184
3323 1 18.055849 10.181261 127.602452
3324 1 12.440404 10.829382 125.283478
3325 1 16.090382 4.077261 123.777191
3326 1 12.378398 6.231372 133.667992
3327 1 16.527370 6.667724 133.528945
3328 1 12.326011 8.176924 131.710487
3329 1 12.134220 8.526738 1.114275
3330 1 12.301186 10.828585 2.948982
3331 1 14.125699 8.387832 3.090880
3332 1 14.365600 10.281687 0.756522
3333 1 12.071701 8.428117 5.031564
3334 1 11.993601 10.343939 7.265927
3335 1 14.066653 8.560504 7.060954
3336 1 14.272728 10.595261 5.372105
3337 1 11.990192 8.492709 9.419154
3338 1 12.184102 10.233642 11.352873
3339 1 14.566411 8.483789 11.375774
3340 1 14.171691 10.434102 9.158372
3341 1 12.330412 8.181722 13.414607
3342 1 12.350155 10.154418 15.646657
3343 1 14.358545 8.269650 15.554236
3344 1 14.299064 10.229261 13.705905
3345 1 12.433153 8.269073 17.443606
3346 1 12.526079 10.392888 19.324972
3347 1 14.516978 8.467071 19.834896
3348 1 14.489297 10.412890 17.373267
3349 1 12.560426 8.195128 21.689403
3350 1 12.638762 10.305402 23.397808
3351 1 14.272834 8.020519 23.699493
3352 1 14.648225 10.334573 21.784332
3353 1 12.599429 8.600581 25.742850
3354 1 12.638870 10.445405 27.727371
3355 1 14.684067 8.403037 27.787336
3356 1 14.870925 10.333951 25.420832
3357 1 12.550808 8.578667 29.569724
3358 1 12.498296 10.426996 31.333239
3359 1 14.526981 8.275951 31.550663
3360 1 14.348717 10.389908 29.650068
3361 1 12.592822 8.406692 33.423690
3362 1 12.381767 10.538230 35.298131
3363 1 14.360074 8.368520 35.363018
3364 1 14.573899 10.298935 33.565989
3365 1 12.351205 8.497931 37.478390
3366 1 12.290917 10.381848 39.378438
3367 1 14.404393 8.309564 39.585752
3368 1 14.369026 10.388692 37.413451
3369 1 12.393309 8.444065 41.714874
3370 1 12.402767 10.495759 43.396463
3371 1 14.584739 8.803183 43.317608
3372 1 14.244722 10.653310 41.464447
3373 1 12.542695 8.323745 45.536562
3374 1 12.238383 10.367493 47.805039
3375 1 14.592279 8.546370 47.773230
3376 1 14.221852 10.403730 45.725112
3377 1 12.249170 8.350562 49.755584
3378 1 11.968287 10.582938 51.535860
3379 1 14.205961 8.657006 51.524259
3380 1 14.275024 10.759226 49.955931
3381 1 12.522116 8.144871 53.850080
3382 1 12.260455 10.689419 55.731950
3383 1 14.191886 9.038173 55.806553
3384 1 14.442459 10.655247 53.756177
3385 1 12.715500 8.293243 57.939707
3386 1 12.378780 10.455719 59.721169
3387 1 14.489078 8.353044 60.094410
3388 1 14.168760 10.880989 57.709867
3389 1 12.337190 8.622890 61.830742
3390 1 12.581266 10.370350 64.028249
3391 1 14.468141 8.246303 63.743628
3392 1 14.326320 10.430655 61.735258
3393 1 14.543810 6.155617 65.831453
3394 1 14.319737 14.618665 70.355262
3395 1 9.597355 10.426390 70.408902
3396 1 16.390308 8.329747 65.819048
3397 1 14.715498 8.351856 68.315443
3398 1 16.603446 10.141165 68.235050
3399 1 18.470960 2.387037 74.201302
3400 1 12.575784 6.351061 67.623607
3401 1 13.945857 29.575622 76.564536
3402 1 2.046688 7.401847 84.057648
3403 1 13.357910 7.844004 89.707774
3404 1 15.894128 0.562503 80.778297
3405 1 20.131643 4.509825 78.414816
3406 1 20.438932 28.201892 84.419705
3407 1 7.766077 11.675603 77.385662
3408 1 13.318590 1.614965 79.908367
3409 1 15.585994 2.470254 83.150311
3410 1 11.134815 14.644072 80.890609
3411 1 17.858587 3.954914 90.750072
3412 1 21.531025 7.632026 80.772017
3413 1 2.379544 4.871128 82.887424
3414 1 18.737739 9.176415 87.904512
3415 1 10.720205 10.133516 83.838291
3416 1 3.375404 6.951750 88.713887
3417 1 3.096073 8.834940 93.411852
3418 1 12.434385 4.086486 90.477827
3419 1 7.125597 5.648441 89.150436
3420 1 8.863765 11.570032 82.681327
3421 1 17.386082 13.643230 104.029555
3422 1 16.323098 22.512458 100.904151
3423 1 16.187392 9.403612 104.048287
3424 1 2.400047 5.921023 91.482393
3425 1 10.483931 22.431879 108.267589
3426 1 9.983282 10.327359 101.211623
3427 1 16.796966 12.062350 111.202580
3428 1 22.675773 15.935458 100.161516
3429 1 14.214208 4.102347 97.199719
3430 1 3.872047 10.204855 105.055564
3431 1 13.331242 11.125435 106.550933
3432 1 18.719443 21.027275 101.557604
3433 1 7.212509 6.693733 104.954264
3434 1 4.459903 12.657655 107.754596
3435 1 25.035110 19.722546 108.950745
3436 1 16.259479 16.284440 108.237639
3437 1 7.223950 5.671025 113.435514
3438 1 8.720211 28.357107 105.215278
3439 1 6.873617 5.934048 116.878860
3440 1 13.152869 13.411038 108.248605
3441 1 18.748888 14.719871 114.379915
3442 1 15.046293 10.906554 114.086171
3443 1 11.550351 13.845046 121.072469
3444 1 17.348791 14.723611 112.161356
3445 1 19.564861 17.447166 113.985330
3446 1 1.579620 15.335141 123.428871
3447 1 14.596859 16.907539 129.684868
3448 1 15.020568 6.055045 121.316272
3449 1 16.264485 10.292306 129.573602
3450 1 10.287944 16.829531 125.381536
3451 1 9.291378 5.676596 123.368217
3452 1 12.122373 8.347420 128.026093
3453 1 14.208768 6.190745 131.953605
3454 1 9.988062 12.927328 133.239317
3455 1 14.056823 8.565705 133.434592
3456 1 12.457328 14.733123 129.570747
3457 1 12.497677 12.492262 0.686360
3458 1 12.467254 14.414638 2.875568
3459 1 14.178282 12.483472 2.896010
3460 1 14.411080 14.579282 1.162670
3461 1 12.410735 12.606754 4.727347
3462 1 12.109782 14.396116 7.599067
3463 1 14.041725 12.790018 7.222707
3464 1 14.088341 14.308734 5.256396
3465 1 12.063409 12.083584 9.212226
3466 1 12.408752 13.990624 11.103292
3467 1 14.150790 11.994580 11.607036
3468 1 14.486235 14.734325 9.114620
3469 1 12.332381 12.525785 13.302904
3470 1 12.522973 14.475296 15.408739
3471 1 14.203991 12.343063 15.401450
3472 1 14.360337 14.600281 13.353163
3473 1 12.583324 12.379689 17.529207
3474 1 12.354686 14.147724 19.695901
3475 1 14.620525 12.372133 19.566103
3476 1 14.357906 14.471193 17.093773
3477 1 12.599080 12.373184 21.520280
3478 1 12.448321 14.360848 23.641188
3479 1 14.581872 12.149731 23.634832
3480 1 14.605623 14.461338 21.454189
3481 1 12.701951 12.372743 25.491421
3482 1 12.299569 14.593008 27.491907
3483 1 14.858609 12.493090 27.297209
3484 1 14.409237 14.392232 25.693284
3485 1 12.673885 12.500826 29.612518
3486 1 12.390077 14.386589 31.620230
3487 1 14.467126 12.547076 31.466096
3488 1 14.379988 14.759225 29.392069
3489 1 12.707725 12.899066 33.590079
3490 1 12.653255 14.808414 35.376799
3491 1 14.675066 12.472112 35.451919
3492 1 14.484044 14.608886 33.446370
3493 1 12.724820 12.487073 37.393922
3494 1 12.950166 14.649750 39.387716
3495 1 14.298917 12.454203 39.472111
3496 1 14.629533 14.566211 37.379404
3497 1 12.376172 12.709916 41.542440
3498 1 12.153359 14.395527 43.747821
3499 1 14.343361 12.340406 43.985320
3500 1 14.239446 14.704423 41.579865
3501 1 12.188227 12.620301 45.777287
3502 1 12.647037 14.577232 47.770002
3503 1 14.423087 12.509483 47.379688
3504 1 14.419630 14.435299 45.668219
3505 1 12.477904 12.830755 49.722291
3506 1 11.976392 14.452993 52.077947
3507 1 14.305675 12.570575 51.838536
3508 1 14.433839 14.548086 49.792500
3509 1 12.232752 12.250238 53.565219
3510 1 12.093195 14.552324 56.036960
3511 1 14.364310 12.553704 55.670517
3512 1 13.890926 14.279771 53.910573
3513 1 12.170930 12.334774 57.879785
3514 1 12.433898 14.565139 60.273868
3515 1 14.297410 12.620947 59.715691
3516 1 14.264540 14.590112 57.534388
3517 1 12.318245 12.549082 62.032077
3518 1 12.218688 14.383382 64.298334
3519 1 14.699670 12.553739 64.008816
3520 1 14.624964 14.478071 61.820998
3521 1 12.203367 10.141430 67.971778
3522 1 8.173725 10.413470 67.902219
3523 1 16.594871 12.046579 66.193322
3524 1 14.689541 14.161798 65.766179
3525 1 16.440150 8.237268 70.381189
3526 1 8.036385 18.931221 72.699865
3527 1 15.819521 10.274003 72.206617
3528 1 14.748056 16.241015 67.612847
3529 1 14.325912 10.990579 74.609595
3530 1 14.320626 14.001991 74.516439
3531 1 17.109599 17.023872 83.271942
3532 1 13.056295 9.788765 79.725326
3533 1 14.609367 13.910032 77.285754
3534 1 7.555320 3.602116 81.743486
3535 1 9.801702 15.567782 74.833937
3536 1 13.788056 12.506572 72.137756
3537 1 13.103010 12.114878 81.281489
3538 1 16.916514 9.374829 94.206454
3539 1 8.160212 9.286116 76.696482
3540 1 10.534499 10.111016 78.495416
3541 1 14.673811 3.471736 78.404263
3542 1 17.318744 12.634663 88.145604
3543 1 13.366656 12.504216 96.162530
3544 1 26.037788 0.092249 86.134230
3545 1 10.654161 14.534649 102.280802
3546 1 15.946542 26.115177 93.350289
3547 1 14.266953 22.089466 87.587811
3548 1 6.654629 6.615470 85.530677
3549 1 10.219385 8.535388 86.194741
3550 1 15.868287 4.752989 100.185486
3551 1 20.777386 22.234768 106.601903
3552 1 11.669221 17.389952 96.297689
3553 1 19.975484 16.130136 89.202933
3554 1 8.539549 13.093979 95.379615
3555 1 17.917982 14.565686 98.499181
3556 1 9.652023 14.066210 87.754315
3557 1 13.029218 15.280073 103.597822
3558 1 21.428806 13.766574 110.098940
3559 1 4.449348 17.232405 109.812139
3560 1 25.188107 17.088790 103.106061
3561 1 18.564065 18.290941 105.609837
3562 1 21.091515 20.544359 110.652408
3563 1 7.633022 16.509747 106.578138
3564 1 12.512781 28.382781 108.924684
3565 1 12.514778 12.432331 113.553661
3566 1 12.934616 18.508058 111.316473
3567 1 7.581682 14.535700 114.027745
3568 1 12.356345 18.118798 108.554897
3569 1 8.420370 12.748497 123.725670
3570 1 7.815063 19.012985 116.681493
3571 1 13.292813 7.108890 119.365438
3572 1 14.280956 14.410256 114.052909
3573 1 8.949119 22.315787 125.634011
3574 1 6.434348 18.608311 131.629217
3575 1 16.048974 10.066172 125.260925
3576 1 10.369166 12.594535 125.641751
3577 1 4.230185 10.595162 125.760951
3578 1 14.358629 14.900197 131.656891
3579 1 10.407383 8.486525 126.000289
3580 1 3.995738 14.631803 125.426198
3581 1 10.582759 12.448865 129.393592
3582 1 12.233186 14.605586 133.561775
3583 1 14.399410 12.632494 133.585688
3584 1 12.251379 20.712325 131.958601
3585 1 12.083966 16.436367 1.387105
3586 1 11.978074 18.712891 3.574667
3587 1 14.159539 16.490286 3.322678
3588 1 14.344451 18.693043 1.144265
3589 1 12.340734 16.494659 5.286154
3590 1 12.113682 18.295396 7.378719
3591 1 14.092438 16.373842 7.065638
3592 1 14.118424 18.504507 5.533686
3593 1 12.136960 16.483296 9.795938
3594 1 12.302368 18.558025 11.585597
3595 1 14.382078 16.402886 11.476472
3596 1 14.292490 18.042444 9.483615
3597 1 12.318971 16.243482 13.280716
3598 1 12.682771 18.767044 15.521068
3599 1 14.240428 16.601323 15.326697
3600 1 14.358233 18.640034 13.316322
3601 1 12.483462 16.568572 17.531486
3602 1 12.281824 18.472962 19.639003
3603 1 14.336230 16.353061 19.723269
3604 1 14.177509 18.824692 17.716105
3605 1 12.251591 16.600790 21.937788
3606 1 12.100898 18.680250 23.645363
3607 1 14.506141 16.415624 23.885777
3608 1 14.382032 18.391513 21.764088
3609 1 12.084098 16.470612 25.453647
3610 1 12.205477 18.748353 27.570262
3611 1 14.525851 16.485996 27.398779
3612 1 14.161472 18.484807 25.590381
3613 1 12.489906 16.743721 29.296443
3614 1 12.230084 18.426515 31.684269
3615 1 14.515204 16.976585 31.319617
3616 1 14.288509 18.764913 29.519294
3617 1 12.403203 16.510107 33.404899
3618 1 12.584031 18.328968 35.459020
3619 1 14.789973 16.739694 35.367099
3620 1 14.419882 18.742733 33.517886
3621 1 12.253670 16.654460 37.372184
3622 1 12.369381 18.950137 39.154245
3623 1 14.537711 17.100829 39.424466
3624 1 14.636717 18.606934 37.316291
3625 1 12.352886 16.823800 41.287795
3626 1 12.404695 18.498471 43.509693
3627 1 14.520698 16.485511 43.569869
3628 1 14.647350 19.003857 41.691917
3629 1 12.575212 16.443176 45.534830
3630 1 12.194321 18.430760 47.923901
3631 1 14.516612 16.559436 47.746876
3632 1 14.269332 18.471297 46.073170
3633 1 12.319775 16.401117 49.981996
3634 1 12.019531 18.697995 51.523098
3635 1 14.415008 16.160639 52.000988
3636 1 14.406798 18.522475 49.521831
3637 1 12.078084 17.014247 53.527978
3638 1 12.241210 18.470766 55.827914
3639 1 14.257297 16.679911 55.558321
3640 1 14.095568 18.668470 53.276176
3641 1 12.556334 16.426814 58.157511
3642 1 12.368798 18.341482 59.983889
3643 1 14.163624 16.351256 59.967352
3644 1 14.366027 18.342690 57.808091
3645 1 12.423683 16.544320 62.210724
3646 1 12.307948 18.676772 63.913800
3647 1 14.215538 16.288256 64.228151
3648 1 14.523618 18.295559 62.016007
3649 1 12.129236 16.191401 66.399877
3650 1 14.294954 18.039639 69.839135
3651 1 18.541822 20.320909 68.097700
3652 1 13.936938 18.482563 65.823011
3653 1 10.292381 12.303154 68.058909
3654 1 12.519248 20.496180 73.229387
3655 1 20.700397 16.418466 70.445565
3656 1 12.487011 18.644349 67.933503
3657 1 15.929662 12.159141 70.105496
3658 1 11.729657 17.138958 76.625268
3659 1 22.776210 9.845844 84.045855
3660 1 16.064686 20.411736 70.042131
3661 1 10.383843 21.444782 83.665956
3662 1 4.343183 18.435516 86.199206
3663 1 16.849610 14.688853 75.975257
3664 1 18.649352 12.386605 76.578840
3665 1 0.024308 13.158194 80.752007
3666 1 6.889407 16.198100 75.257861
3667 1 13.783017 19.545384 86.048275
3668 1 3.418152 25.392699 92.743539
3669 1 20.511547 12.023573 78.415042
3670 1 16.741945 15.875563 85.538610
3671 1 21.338329 13.299444 81.164667
3672 1 12.602740 16.227775 87.785306
3673 1 9.732896 16.783558 87.034923
3674 1 16.263508 20.164247 96.191977
3675 1 17.543055 19.048539 100.124994
3676 1 13.490427 19.904331 96.828415
3677 1 7.291985 17.439032 100.704719
3678 1 13.025191 17.764087 101.787318
3679 1 22.721893 10.761033 90.559023
3680 1 12.245887 10.828213 91.020712
3681 1 10.207709 9.161658 92.078950
3682 1 14.109679 17.741243 104.520442
3683 1 12.033610 14.881241 97.970002
3684 1 9.347571 21.918661 99.115776
3685 1 21.372583 12.278982 104.518976
3686 1 20.159853 22.669004 112.842417
3687 1 19.304263 23.417933 100.442900
3688 1 11.552866 20.860783 106.355409
3689 1 20.562626 18.934730 100.291620
3690 1 19.870818 24.613936 110.976517
3691 1 26.116408 19.225381 119.444957
3692 1 15.885016 18.351882 106.319743
3693 1 16.001059 20.775925 108.883829
3694 1 14.276318 25.179649 116.812602
3695 1 15.344863 16.794892 121.555547
3696 1 15.705721 25.536969 119.351052
3697 1 3.495698 17.076760 122.942747
3698 1 27.003392 24.808910 121.785982
3699 1 14.495551 25.411471 121.886011
3700 1 15.272426 22.773285 119.411351
3701 1 12.024907 10.890760 121.299530
3702 1 14.865668 14.513942 123.812645
3703 1 12.786538 16.463016 127.547134
3704 1 20.163391 12.385542 128.083163
3705 1 10.924765 20.840182 125.657722
3706 1 4.376881 14.714060 129.177309
3707 1 10.356075 18.583297 127.885948
3708 1 10.597231 16.914398 129.602818
3709 1 10.342000 20.639068 134.225686
3710 1 12.243116 18.872617 133.823945
3711 1 14.185761 16.788830 133.738436
3712 1 14.377798 18.792600 131.892002
3713 1 12.253481 20.426123 1.206753
3714 1 12.432972 22.303069 3.328519
3715 1 14.247027 20.351075 3.275631
3716 1 14.487723 22.484977 1.443947
3717 1 12.274000 20.505750 5.508598
3718 1 12.273788 22.554245 7.164343
3719 1 14.289488 20.560731 7.445879
3720 1 14.300846 22.469096 5.004077
3721 1 12.252190 20.316000 9.163429
3722 1 12.433010 22.359355 11.184482
3723 1 14.369426 20.481517 11.218849
3724 1 14.115395 22.715732 9.441291
3725 1 12.504331 20.915452 13.691298
3726 1 12.344823 22.471384 15.868718
3727 1 14.538902 20.572347 15.580071
3728 1 14.561190 22.327999 13.137991
3729 1 12.129518 20.537304 17.761218
3730 1 12.166144 22.486122 19.551654
3731 1 14.277582 20.475003 20.078523
3732 1 14.448739 22.511093 17.434488
3733 1 12.261921 20.868060 21.575733
3734 1 12.417160 22.778024 23.631421
3735 1 14.485569 20.501254 23.734141
3736 1 14.012578 22.884778 21.412247
3737 1 12.741962 21.187737 25.473277
3738 1 12.831888 22.870135 27.608201
3739 1 14.528314 20.863932 27.931959
3740 1 14.810329 23.283716 25.163999
3741 1 12.380970 20.794916 29.355558
3742 1 11.990164 22.832892 31.442435
3743 1 14.272191 20.749416 31.455297
3744 1 14.310415 22.549828 29.739738
3745 1 12.530059 20.849727 33.495858
3746 1 12.352650 22.877605 35.470842
3747 1 14.424874 20.806728 35.412822
3748 1 14.673179 22.771327 33.450454
3749 1 12.499686 20.562325 36.991956
3750 1 12.451486 22.748579 39.585435
3751 1 14.489717 20.623835 39.414592
3752 1 14.423228 22.497136 37.443660
3753 1 12.741989 20.585221 41.495128
3754 1 12.579860 22.979496 43.527571
3755 1 14.061609 20.550297 43.830996
3756 1 14.383183 22.778516 41.553823
3757 1 12.328908 20.805758 45.603726
3758 1 12.876018 22.763896 47.117094
3759 1 14.301960 20.702819 47.623123
3760 1 14.830036 22.717348 45.500580
3761 1 12.257630 20.686525 49.530412
3762 1 12.164723 23.036000 51.711285
3763 1 14.274252 20.605666 51.298851
3764 1 14.542506 22.749049 49.595723
3765 1 11.953574 21.085239 53.415002
3766 1 12.626433 22.692243 55.803464
3767 1 14.502837 20.487259 55.913618
3768 1 14.308900 22.678194 53.477548
3769 1 12.353487 20.376469 57.945486
3770 1 12.576936 22.450067 59.791123
3771 1 14.538175 20.116126 59.965598
3772 1 14.517656 22.231663 57.863345
3773 1 12.375928 20.702375 61.771854
3774 1 12.414947 22.372745 63.816537
3775 1 14.355489 20.452435 63.851336
3776 1 14.508319 22.486346 61.629192
3777 1 12.326422 20.405867 65.862091
3778 1 14.605258 22.441349 69.707930
3779 1 8.577579 18.575744 68.167927
3780 1 14.527268 22.101472 66.000459
3781 1 17.995459 11.795612 72.111677
3782 1 12.155923 16.359396 69.698707
3783 1 8.252358 20.477303 80.936836
3784 1 16.905893 22.718130 71.454540
3785 1 5.988890 20.635551 67.963655
3786 1 16.268947 20.016830 79.139430
3787 1 12.688115 16.145604 74.245245
3788 1 14.349934 24.189680 71.717774
3789 1 12.473783 17.445705 81.867640
3790 1 9.531349 29.000095 84.090470
3791 1 10.487044 20.352067 75.916239
3792 1 12.202193 22.999301 72.361988
3793 1 9.980483 19.159169 85.126468
3794 1 13.033729 24.239479 87.232870
3795 1 15.346645 20.663612 82.867650
3796 1 22.095161 30.670202 77.483758
3797 1 13.948329 26.791753 87.252429
3798 1 16.146746 24.074282 77.357280
3799 1 10.644819 18.486520 93.479382
3800 1 20.182086 17.528461 81.120828
3801 1 13.212365 25.775835 98.908810
3802 1 8.880501 16.772264 84.297514
3803 1 16.061695 14.138252 93.637325
3804 1 18.133197 26.674429 84.396208
3805 1 11.817362 25.443546 96.385674
3806 1 13.442046 24.268604 94.600638
3807 1 16.761210 29.401847 83.841337
3808 1 3.748069 20.526237 98.699996
3809 1 9.649831 24.626459 110.155109
3810 1 20.760965 0.518862 105.813994
3811 1 16.647475 19.416951 103.659775
3812 1 13.211600 20.248048 102.075352
3813 1 17.761782 23.761375 103.044608
3814 1 21.730698 24.948157 107.252460
3815 1 14.076683 27.524369 114.965408
3816 1 14.083853 22.889763 106.020650
3817 1 19.198176 25.841510 106.853129
3818 1 13.370669 17.369325 118.226028
3819 1 17.287841 31.503437 113.467523
3820 1 25.176608 23.304689 110.673423
3821 1 15.113895 29.738392 108.731352
3822 1 3.274330 22.684014 117.041328
3823 1 6.202902 26.580450 120.521454
3824 1 12.910450 25.633263 118.981728
3825 1 9.692245 21.406772 110.666989
3826 1 15.383959 14.660594 119.417231
3827 1 12.899120 23.060477 117.879112
3828 1 9.878370 21.424086 117.276992
3829 1 16.028089 17.933470 116.707403
3830 1 16.864180 23.257717 126.156054
3831 1 17.119809 16.740222 123.400655
3832 1 18.202938 22.020118 117.427565
3833 1 9.813773 20.760283 129.752647
3834 1 4.316260 20.712016 131.593679
3835 1 16.545026 20.669596 131.990693
3836 1 12.543820 26.925947 125.351422
3837 1 6.354722 22.494947 127.181482
3838 1 12.460612 22.765009 133.621700
3839 1 14.375136 20.760518 134.020965
3840 1 12.503561 18.967807 130.063034
3841 1 12.210991 24.352528 1.142549
3842 1 12.389350 26.409245 3.258110
3843 1 14.102877 24.184541 3.021762
3844 1 14.280278 26.613610 1.308294
3845 1 12.382533 24.360982 5.277019
3846 1 12.583824 26.398090 7.120797
3847 1 14.108365 24.484137 7.046080
3848 1 14.603839 26.503534 5.233453
3849 1 12.395912 24.812356 9.209954
3850 1 12.575792 26.709122 11.117227
3851 1 14.585067 24.680302 11.200004
3852 1 14.484494 26.650634 9.463236
3853 1 12.405482 24.514868 13.093709
3854 1 12.520742 26.535965 15.187060
3855 1 14.329037 24.412561 15.577798
3856 1 14.468569 26.435890 13.411051
3857 1 12.218451 24.749454 17.616515
3858 1 12.498004 26.689108 19.147034
3859 1 14.692477 24.858102 19.341280
3860 1 14.328503 26.960184 17.219311
3861 1 12.403265 24.970810 21.158260
3862 1 12.591528 26.746721 23.400063
3863 1 14.430539 24.896039 23.076253
3864 1 14.453611 27.145208 21.390511
3865 1 12.481863 24.673647 25.516763
3866 1 12.377848 26.651235 27.263019
3867 1 14.415094 24.804624 27.275719
3868 1 14.479503 26.727461 24.891800
3869 1 12.499984 24.719553 29.566026
3870 1 12.530661 26.722822 31.310039
3871 1 14.608856 24.876071 31.515915
3872 1 14.721820 26.776759 29.258580
3873 1 12.688302 25.245131 33.459199
3874 1 12.577507 26.903907 35.494099
3875 1 14.452044 24.729200 35.307736
3876 1 14.743104 26.873747 33.295188
3877 1 12.587189 24.698457 37.600520
3878 1 12.571622 26.863698 39.576694
3879 1 14.380555 24.983188 39.592667
3880 1 14.705581 26.713931 37.445429
3881 1 12.604029 24.766565 41.623031
3882 1 12.672903 26.983055 43.376043
3883 1 14.589742 24.919869 43.714319
3884 1 14.555972 26.854657 41.267300
3885 1 12.735133 25.201536 45.441176
3886 1 12.334881 26.931653 47.593142
3887 1 14.595115 24.775657 47.338708
3888 1 14.175056 27.305641 45.547192
3889 1 12.508345 24.692769 49.179720
3890 1 12.022412 26.401868 51.668656
3891 1 14.323590 24.424646 51.533203
3892 1 14.519479 26.315002 49.853952
3893 1 12.147066 24.578730 53.702022
3894 1 12.412661 26.856792 55.669191
3895 1 14.337345 24.324086 55.396186
3896 1 14.217256 26.513604 53.649845
3897 1 12.027635 24.625269 57.870230
3898 1 12.269388 26.337149 60.027265
3899 1 14.768160 24.536393 59.597445
3900 1 14.082036 26.284391 57.583412
3901 1 12.345048 24.277567 61.616884
3902 1 12.407455 26.628737 64.183922
3903 1 14.630993 24.298976 63.653345
3904 1 14.255298 26.160257 61.543323
3905 1 12.404911 24.275804 65.768297
3906 1 12.705365 22.451134 67.773687
3907 1 14.814108 19.156887 74.253740
3908 1 14.578238 26.544136 65.647192
3909 1 12.537770 28.524751 65.756587
3910 1 20.405756 26.678265 71.524851
3911 1 20.719886 24.521377 70.137045
3912 1 16.672527 21.990571 67.554200
3913 1 16.521677 19.206658 85.363145
3914 1 13.455037 31.656326 78.253495
3915 1 13.686291 24.111931 74.497425
3916 1 6.486734 15.798310 84.605952
3917 1 12.037344 27.234070 84.729175
3918 1 14.561003 17.909391 83.869007
3919 1 8.822400 24.293840 70.363294
3920 1 14.795769 25.915339 80.181577
3921 1 11.182399 16.900020 79.442581
3922 1 18.322948 22.101473 91.800711
3923 1 12.077164 14.113066 86.213504
3924 1 20.075829 26.523498 90.675745
3925 1 13.445139 15.033465 79.340682
3926 1 10.848853 21.410339 92.280106
3927 1 12.280638 19.447260 83.918485
3928 1 12.087083 22.359765 77.202907
3929 1 2.165633 20.949372 96.333538
3930 1 5.585260 20.942110 94.780764
3931 1 10.327617 27.589939 91.702054
3932 1 18.427655 25.225056 92.999676
3933 1 13.948751 17.005235 94.642970
3934 1 17.184744 30.861725 103.567491
3935 1 6.072784 20.281012 97.656378
3936 1 19.148622 30.541629 84.313422
3937 1 8.684957 1.592046 93.907326
3938 1 20.875960 21.589680 99.791446
3939 1 30.925533 25.969856 99.042290
3940 1 15.381798 24.953500 102.333349
3941 1 15.314326 23.355487 111.815651
3942 1 14.001112 31.960577 107.856936
3943 1 26.718215 1.433156 113.761067
3944 1 15.513050 6.810591 102.445067
3945 1 9.713940 32.126655 102.932270
3946 1 20.553288 25.227205 113.327538
3947 1 14.332045 32.174873 117.380579
3948 1 13.478332 5.810518 100.436355
3949 1 12.387229 32.253802 112.369250
3950 1 12.090939 26.915110 116.915696
3951 1 26.673837 29.416387 125.319965
3952 1 16.367117 27.105548 117.148368
3953 1 12.954208 16.228271 122.967612
3954 1 12.535471 29.199382 123.291113
3955 1 21.889320 27.605065 119.586879
3956 1 7.957653 23.798585 119.281223
3957 1 3.971057 27.210420 125.015403
3958 1 14.616266 25.088403 125.354183
3959 1 18.783562 23.170139 123.554539
3960 1 8.019494 28.751969 122.766794
3961 1 15.059572 20.948648 125.562000
3962 1 14.512833 18.676385 123.811419
3963 1 16.187984 26.965751 129.902611
3964 1 12.515410 22.323963 129.758996
3965 1 10.398755 22.712539 131.462023
3966 1 12.159120 26.585451 133.705166
3967 1 14.344011 24.853665 133.855622
3968 1 14.735561 30.959621 132.093896
3969 1 12.464015 28.650875 1.774750
3970 1 12.271819 30.955333 3.302841
3971 1 14.740023 28.683991 3.308042
3972 1 14.283128 30.351104 1.662965
3973 1 12.595995 28.429602 5.216156
3974 1 12.686620 30.713834 7.109470
3975 1 14.403888 28.609250 6.836025
3976 1 14.619057 30.893962 5.311734
3977 1 12.468329 28.602048 9.219291
3978 1 12.580140 30.573065 11.223945
3979 1 14.544670 28.508487 11.140327
3980 1 14.596160 30.725740 9.346514
3981 1 12.326933 28.739317 13.277505
3982 1 12.620420 30.881284 15.196218
3983 1 14.218876 28.717864 15.262907
3984 1 14.413282 30.987902 13.208966
3985 1 12.363786 28.812592 16.952725
3986 1 12.507115 30.864147 19.314664
3987 1 14.183601 28.873143 19.403075
3988 1 14.261608 31.021069 17.174639
3989 1 12.104942 28.890261 21.250989
3990 1 12.276261 30.871022 23.582355
3991 1 14.454642 28.824798 23.578942
3992 1 14.725427 30.841634 21.717144
3993 1 12.500431 28.879670 25.300500
3994 1 12.256423 30.677360 27.450524
3995 1 14.035746 28.948486 27.463897
3996 1 14.241234 30.993265 25.575543
3997 1 12.405626 28.728835 29.633632
3998 1 12.428339 31.068657 31.638853
3999 1 14.498495 28.608880 31.201048
4000 1 14.502348 30.771006 29.481984
4001 1 12.459556 28.524357 33.581686
4002 1 12.654322 30.684440 35.319533
4003 1 14.617105 28.499444 35.372466
4004 1 14.751893 30.714329 33.143507
4005 1 12.696563 28.663940 37.478122
4006 1 12.537468 31.071165 39.440831
4007 1 14.697960 28.813610 39.685717
4008 1 14.532783 30.627960 37.155611
4009 1 12.734988 29.049285 41.657504
4010 1 12.454682 31.098635 43.628670
4011 1 14.579251 29.026556 43.545743
4012 1 14.563082 30.872191 41.565135
4013 1 12.092636 29.234058 45.680027
4014 1 12.136539 30.982848 47.703698
4015 1 14.143691 28.885195 47.983417
4016 1 14.461498 30.523555 45.523717
4017 1 12.188932 28.811643 49.742168
4018 1 12.160731 30.591714 51.612908
4019 1 14.226619 28.890605 51.721659
4020 1 14.297289 30.947315 49.738282
4021 1 12.224619 28.630960 53.569761
4022 1 12.730805 30.573669 55.799098
4023 1 14.703505 28.608431 56.013148
4024 1 14.525336 30.553450 53.939396
4025 1 12.527328 28.661111 57.886514
4026 1 12.319293 30.594672 59.937415
4027 1 14.487917 28.442778 59.996942
4028 1 14.511713 30.690884 57.929077
4029 1 12.252628 28.574330 61.907616
4030 1 12.574726 30.648511 63.860966
4031 1 14.236726 28.413233 63.582934
4032 1 14.388717 30.612696 61.776265
4033 1 10.050996 32.525345 67.714504
4034 1 16.322240 0.119688 65.928537
4035 1 22.380555 28.795832 71.877907
4036 1 16.533183 28.436713 65.677447
4037 1 18.620041 24.623197 67.680497
4038 1 18.127713 4.574020 85.470415
4039 1 18.707119 26.443702 69.535098
4040 1 16.305275 1.876240 67.947912
4041 1 5.115382 1.450005 85.302774
4042 1 11.723400 7.375841 84.297545
4043 1 16.405301 30.798927 72.000551
4044 1 16.484165 0.152803 73.887023
4045 1 13.480043 23.860245 80.549458
4046 1 22.626323 26.938936 77.789197
4047 1 15.763810 22.152214 80.146520
4048 1 7.530760 31.477843 93.421660
4049 1 11.118038 0.756268 86.800220
4050 1 9.881044 3.806368 92.348787
4051 1 14.866957 26.301035 90.023939
4052 1 22.808285 29.877743 79.725900
4053 1 10.854620 2.297395 89.310524
4054 1 32.584312 22.733797 95.120179
4055 1 10.326786 23.543443 85.198370
4056 1 22.598853 24.473640 84.825794
4057 1 20.104680 23.221667 84.669062
4058 1 14.139142 27.665824 103.238902
4059 1 9.725253 30.329668 90.900736
4060 1 5.327794 30.545269 92.434487
4061 1 18.470603 18.977194 91.662970
4062 1 11.385859 1.961814 93.739860
4063 1 19.313237 29.784064 92.346871
4064 1 12.066744 7.592814 98.423220
4065 1 13.746663 3.048091 99.936401
4066 1 20.009214 6.589215 98.775339
4067 1 19.957145 30.228074 108.856838
4068 1 14.332542 9.291954 94.877946
4069 1 21.855208 30.386262 101.924300
4070 1 15.721609 29.171281 101.931283
4071 1 23.931711 28.611361 100.542156
4072 1 22.105375 31.047487 106.996098
4073 1 16.548498 0.278513 106.048261
4074 1 15.513705 32.177689 115.096864
4075 1 9.425508 22.626057 105.510309
4076 1 22.177152 28.652826 108.599143
4077 1 8.077502 2.276535 117.880836
4078 1 15.174182 7.676097 117.047104
4079 1 16.656149 12.997915 114.446498
4080 1 17.909462 31.380240 116.224743
4081 1 14.861036 22.737224 123.531249
4082 1 17.699953 4.924520 111.010915
4083 1 17.090570 20.825535 123.478733
4084 1 16.237286 6.044365 119.047788
4085 1 12.410055 30.379953 119.542901
4086 1 8.319847 0.279689 122.915517
4087 1 16.394385 25.190676 127.660864
4088 1 9.938166 28.445191 116.556728
4089 1 10.511525 25.050467 125.430133
4090 1 15.792753 1.617134 125.771815
4091 1 10.149373 28.932035 133.641373
4092 1 5.470716 1.315442 123.421474
4093 1 10.370794 30.760238 131.604649
4094 1 10.450065 0.081192 133.761579
4095 1 14.321382 28.487575 134.227944
4096 1 12.617665 30.506917 133.751974
4097 1 16.307538 0.215750 1.453578
4098 1 16.330567 2.342077 3.418134
4099 1 18.257652 0.238775 3.447069
4100 1 18.524016 2.453572 1.574797
4101 1 16.615003 32.523702 5.723021
4102 1 16.017915 2.295259 7.315736
4103 1 18.625326 0.112669 7.382555
4104 1 18.261744 2.007299 5.373077
4105 1 16.653268 0.250959 9.560204
4106 1 16.659281 2.438066 11.450279
4107 1 18.482323 32.364806 11.734857
4108 1 18.314686 2.701594 9.005915
4109 1 16.388786 0.160357 13.324873
4110 1 16.502109 2.216931 15.742333
4111 1 18.540869 0.339691 15.627004
4112 1 18.491650 2.208941 13.570570
4113 1 16.480284 0.391774 17.691616
4114 1 16.823785 2.289408 19.412536
4115 1 18.516461 0.092474 19.412195
4116 1 18.597953 2.409586 17.462031
4117 1 16.633883 0.100775 21.477093
4118 1 16.751544 2.176088 23.298888
4119 1 18.474408 32.499459 23.294949
4120 1 18.631046 2.290923 21.528150
4121 1 16.687892 0.522310 25.648575
4122 1 16.578269 2.425296 27.674647
4123 1 18.494429 0.229890 27.713517
4124 1 18.721050 2.253889 25.705535
4125 1 16.430390 0.155477 29.318311
4126 1 16.619778 2.349008 31.693266
4127 1 18.448054 0.289757 31.606715
4128 1 18.682657 2.136277 29.765725
4129 1 16.567616 0.269049 33.426585
4130 1 16.347757 2.024239 35.318948
4131 1 18.390663 0.003682 35.485510
4132 1 18.507486 2.494909 33.828445
4133 1 16.618453 32.248854 37.567550
4134 1 16.470724 2.215970 39.084972
4135 1 18.731346 0.195651 39.239191
4136 1 18.277895 2.139321 36.996899
4137 1 16.681175 0.324737 41.267846
4138 1 16.477729 1.962924 43.370956
4139 1 18.589831 0.378381 43.432548
4140 1 18.673620 2.447346 41.513832
4141 1 16.125367 0.223990 45.734384
4142 1 16.610952 2.394479 47.429333
4143 1 18.788527 0.189031 47.802559
4144 1 18.564046 2.233391 45.416973
4145 1 16.208913 0.331980 49.830545
4146 1 16.642571 2.037557 51.622900
4147 1 18.509055 0.085821 51.745503
4148 1 18.369945 2.096305 49.498194
4149 1 15.995761 0.152564 53.871035
4150 1 16.840056 2.165963 55.843871
4151 1 18.618928 0.119291 55.658027
4152 1 18.423450 2.099966 53.831154
4153 1 16.240074 0.379705 57.621341
4154 1 16.630446 2.140803 59.811290
4155 1 18.665816 0.139234 60.074563
4156 1 18.482349 2.043635 57.965492
4157 1 16.788369 0.333366 61.977383
4158 1 16.783726 2.132725 63.863860
4159 1 18.653892 0.101636 63.968530
4160 1 18.614403 2.334145 62.097600
4161 1 16.482690 26.715933 67.965227
4162 1 22.438931 10.153362 69.885803
4163 1 18.423821 0.109175 68.076948
4164 1 20.591457 0.205107 65.989178
4165 1 17.951325 4.890351 72.403051
4166 1 19.578575 2.937676 80.999660
4167 1 17.501880 30.560611 81.347989
4168 1 18.327369 3.820353 76.458577
4169 1 20.257444 28.537919 73.809264
4170 1 13.496744 7.287637 78.336780
4171 1 19.981630 32.195031 77.220721
4172 1 16.939493 31.513473 77.198416
4173 1 12.586267 4.379321 79.881100
4174 1 19.526785 0.278884 81.395106
4175 1 20.539240 31.502480 86.245600
4176 1 20.411865 6.046922 76.340853
4177 1 15.407760 32.340398 88.872896
4178 1 20.014035 29.923275 96.107590
4179 1 14.476336 31.540485 97.099103
4180 1 24.852377 10.691306 79.297833
4181 1 27.583668 2.537680 93.060844
4182 1 22.978389 2.284820 90.417167
4183 1 16.962942 30.445401 90.091696
4184 1 23.432245 5.453377 90.252237
4185 1 14.510942 26.656844 95.480666
4186 1 11.956760 5.004003 97.906518
4187 1 29.727033 30.010845 86.380139
4188 1 18.915134 6.733608 86.870122
4189 1 12.093458 29.089879 102.157349
4190 1 12.973750 9.827078 99.728348
4191 1 21.502246 26.928148 88.466736
4192 1 12.325549 31.826776 93.247051
4193 1 18.516713 2.957602 109.428951
4194 1 23.098067 18.263545 98.520390
4195 1 20.976533 14.437522 98.339303
4196 1 24.685375 3.416098 102.344842
4197 1 19.135278 1.411099 117.693792
4198 1 25.054945 0.916745 110.221516
4199 1 26.737648 24.077244 106.703059
4200 1 0.883532 32.046017 113.149585
4201 1 15.346577 4.139839 112.325020
4202 1 12.648599 10.660741 115.476885
4203 1 7.100171 7.221746 100.413457
4204 1 20.319572 11.007034 115.380936
4205 1 15.378692 10.291833 117.145437
4206 1 19.167057 29.009358 115.953947
4207 1 21.600476 30.698212 116.480531
4208 1 21.938523 10.966252 106.990019
4209 1 14.091777 22.276171 115.236280
4210 1 22.604720 8.375634 125.668419
4211 1 18.914454 5.628081 108.684662
4212 1 30.672857 2.414071 108.988118
4213 1 19.138863 3.924150 117.710962
4214 1 16.144279 1.214357 121.338205
4215 1 10.139433 0.201758 125.665297
4216 1 16.705858 0.248599 127.890018
4217 1 12.289598 4.395829 131.975171
4218 1 16.331059 6.107383 129.771912
4219 1 26.719266 30.696794 131.994531
4220 1 16.299457 2.257625 129.555207
4221 1 22.737226 0.092910 129.760526
4222 1 16.736704 2.208380 134.081822
4223 1 18.504959 0.174619 134.198825
4224 1 22.756757 30.914856 131.819395
4225 1 16.394601 4.390000 1.087432
4226 1 16.340077 6.415395 2.941500
4227 1 18.335132 4.374129 3.261441
4228 1 18.231514 6.544956 0.968704
4229 1 16.225185 4.380286 5.013905
4230 1 16.214101 6.428642 7.186601
4231 1 18.410697 4.289132 7.004021
4232 1 18.238421 6.342316 5.226396
4233 1 16.573161 4.487423 8.977622
4234 1 16.409416 5.875035 11.080372
4235 1 18.469308 4.370624 11.645589
4236 1 18.563976 6.480632 9.087210
4237 1 16.340778 4.134459 13.428615
4238 1 16.618147 6.344682 15.386310
4239 1 18.405532 4.356000 15.481946
4240 1 18.654137 6.519345 13.351153
4241 1 16.572294 4.428052 17.502144
4242 1 16.780497 6.390556 19.371564
4243 1 18.777655 4.298127 19.318257
4244 1 18.309095 6.344855 17.361833
4245 1 16.593519 4.142751 21.265754
4246 1 16.647379 6.132925 23.766563
4247 1 18.609074 4.223001 23.626529
4248 1 18.860621 6.299301 21.539689
4249 1 16.681807 4.116639 25.414796
4250 1 16.589224 6.144295 27.442270
4251 1 18.880276 4.275824 27.594733
4252 1 18.640087 6.243033 25.699577
4253 1 16.696568 4.112482 29.413130
4254 1 16.568600 6.083721 31.326595
4255 1 18.747196 4.385269 31.504127
4256 1 18.529502 6.524937 29.259703
4257 1 16.224762 4.114538 33.632776
4258 1 16.116039 6.201436 35.667331
4259 1 18.502076 4.228593 35.577968
4260 1 18.468271 6.026661 33.626995
4261 1 16.441832 4.246952 37.327656
4262 1 16.524833 6.119567 39.588180
4263 1 18.390515 4.407241 39.773141
4264 1 18.400477 6.440400 37.305589
4265 1 16.445309 3.921563 41.386382
4266 1 16.593471 6.621614 43.488506
4267 1 18.352008 4.152147 43.780688
4268 1 18.626370 6.382302 41.699052
4269 1 16.491362 4.674783 45.521383
4270 1 16.193381 6.296613 47.847526
4271 1 18.436597 4.533748 47.794103
4272 1 18.201414 6.720947 45.611261
4273 1 16.429605 3.905733 49.557275
4274 1 16.208458 6.298297 51.641338
4275 1 18.607604 4.329575 51.451362
4276 1 18.348477 6.373214 49.747514
4277 1 16.822940 4.078987 53.740728
4278 1 16.379108 6.450057 55.366495
4279 1 18.365333 4.292579 55.969763
4280 1 18.624548 6.323608 53.653181
4281 1 16.703131 4.183247 57.839235
4282 1 16.541479 6.387488 59.723718
4283 1 18.764307 4.289372 59.932097
4284 1 18.571723 6.331347 57.614928
4285 1 16.385061 4.482077 61.709696
4286 1 16.761224 6.418779 63.919861
4287 1 18.297220 4.344852 64.060166
4288 1 18.419477 6.322597 62.080360
4289 1 16.354625 4.106993 65.930742
4290 1 18.389691 10.085990 70.381953
4291 1 18.964057 32.558722 72.086839
4292 1 24.035827 6.340092 71.879854
4293 1 18.099110 8.098781 68.112510
4294 1 15.646071 6.659370 72.491822
4295 1 22.485099 2.280880 69.914309
4296 1 24.193161 8.539999 73.930124
4297 1 14.322519 30.756553 73.887635
4298 1 4.202896 10.618676 79.108128
4299 1 22.367243 3.838649 72.013433
4300 1 23.728206 7.095455 76.436043
4301 1 8.807126 7.958478 78.723113
4302 1 16.215910 9.421500 83.046964
4303 1 8.679116 2.082311 87.460853
4304 1 12.590346 12.558889 78.742095
4305 1 20.229789 25.260084 83.181138
4306 1 20.825684 30.260212 82.053936
4307 1 11.021075 5.365421 87.744152
4308 1 19.185885 1.074155 86.418073
4309 1 17.047806 31.915229 93.047837
4310 1 22.592028 8.286780 89.461554
4311 1 19.091135 7.522675 92.449797
4312 1 20.227744 5.398853 80.813660
4313 1 8.367141 13.974409 92.691343
4314 1 19.761708 8.964071 101.020662
4315 1 10.274048 30.144847 97.124988
4316 1 16.066774 6.712601 90.076254
4317 1 7.655064 5.142628 93.852798
4318 1 17.625610 17.014582 98.700603
4319 1 17.147598 26.901457 102.312955
4320 1 16.290113 11.453686 91.151694
4321 1 9.304441 3.619667 95.753002
4322 1 22.222962 13.200152 100.641097
4323 1 0.467184 28.805954 105.804861
4324 1 23.601091 10.857477 100.871114
4325 1 23.035530 12.149352 114.357630
4326 1 20.907967 18.455673 109.182844
4327 1 17.750473 7.312972 100.387656
4328 1 8.145415 20.990957 107.153086
4329 1 25.672770 2.965343 115.802512
4330 1 18.082680 11.812320 116.798995
4331 1 22.143109 9.331438 114.126145
4332 1 23.502864 7.093620 109.494268
4333 1 17.165242 18.594615 114.318746
4334 1 10.669439 8.578844 113.638688
4335 1 22.142194 12.755537 116.884948
4336 1 16.398017 7.472898 114.670150
4337 1 18.178524 2.612656 124.401786
4338 1 14.185987 13.161888 121.415160
4339 1 17.297397 9.731416 115.142896
4340 1 27.074557 16.003723 105.716861
4341 1 18.212610 4.224411 129.623655
4342 1 16.197870 8.313377 127.449484
4343 1 20.592599 4.682555 123.630420
4344 1 14.558852 12.754867 116.324854
4345 1 20.005317 8.803414 122.965870
4346 1 16.792037 5.567940 116.609176
4347 1 8.128763 26.977443 125.287980
4348 1 24.399243 10.467541 129.685164
4349 1 20.334994 8.504942 131.666577
4350 1 18.499265 8.613595 133.459253
4351 1 16.156598 4.434906 131.696218
4352 1 18.021080 4.284512 126.353336
4353 1 16.137558 8.485965 0.968062
4354 1 16.496763 10.232219 3.200186
4355 1 18.340457 8.564933 3.228104
4356 1 18.503759 10.394279 0.952339
4357 1 16.037317 8.270891 5.245931
4358 1 16.480190 10.541231 7.315611
4359 1 18.276082 8.410815 7.112427
4360 1 18.454814 10.577633 5.361497
4361 1 16.008638 8.412209 8.773210
4362 1 16.300262 10.673336 11.229010
4363 1 18.109716 8.278487 10.827141
4364 1 18.398188 10.427649 9.228655
4365 1 16.478476 8.305780 13.245109
4366 1 16.474381 10.002084 15.415932
4367 1 18.382088 8.271492 15.373969
4368 1 18.174294 10.546422 13.162239
4369 1 16.185998 8.324201 17.641548
4370 1 16.800584 10.071936 19.451570
4371 1 18.625561 8.227229 19.503897
4372 1 18.405968 10.285531 17.053475
4373 1 16.684696 8.429503 22.199792
4374 1 16.776563 10.642952 23.547576
4375 1 18.780625 8.534894 23.780108
4376 1 18.678328 10.392696 21.713252
4377 1 16.749800 8.303995 25.461247
4378 1 16.578260 10.303718 27.607589
4379 1 18.681424 8.650598 27.530791
4380 1 18.826422 10.464334 25.531558
4381 1 16.620899 8.385165 29.586130
4382 1 16.437144 10.332057 31.483147
4383 1 18.439239 8.466681 31.812619
4384 1 18.969809 10.723384 30.001138
4385 1 16.512201 8.146845 33.439405
4386 1 16.640054 10.265199 35.567608
4387 1 18.554918 8.169312 35.616709
4388 1 18.454568 10.236752 33.484775
4389 1 16.430701 8.444764 37.636667
4390 1 15.963983 10.443211 39.469975
4391 1 18.661587 8.167501 39.568603
4392 1 18.328992 10.103156 38.085296
4393 1 16.598005 8.436094 41.387085
4394 1 16.358978 10.785442 43.476130
4395 1 18.724738 8.691054 43.640353
4396 1 18.477151 10.427964 41.364179
4397 1 16.679774 8.851465 45.537170
4398 1 16.610834 10.416553 47.885796
4399 1 18.375285 8.451396 47.592243
4400 1 18.824089 10.495958 45.598263
4401 1 16.364082 8.481596 49.823717
4402 1 16.574821 10.775099 51.719058
4403 1 18.364649 8.696960 52.033393
4404 1 18.458714 10.310982 49.849931
4405 1 16.132656 8.427859 53.332580
4406 1 16.743261 10.710767 55.440793
4407 1 18.366963 8.417025 55.329998
4408 1 18.531299 10.905950 53.606450
4409 1 16.145673 8.253652 57.637339
4410 1 16.603275 10.219460 59.522141
4411 1 18.445096 8.486229 59.807638
4412 1 18.313620 10.265601 57.565502
4413 1 16.416403 8.050177 61.847275
4414 1 16.387026 10.374989 63.921941
4415 1 18.407054 8.914999 64.146430
4416 1 18.305774 10.103972 61.814937
4417 1 16.103431 4.404713 70.340692
4418 1 26.669873 10.520019 70.068331
4419 1 14.957887 15.820373 72.381090
4420 1 18.613052 10.395942 66.155695
4421 1 12.028996 12.481457 88.744495
4422 1 27.801099 4.817032 81.748146
4423 1 14.164622 6.436743 69.902883
4424 1 14.564315 10.950201 77.403421
4425 1 20.301321 2.001425 67.831765
4426 1 15.752019 9.402412 89.070032
4427 1 21.158082 27.618968 81.958945
4428 1 15.954856 8.556445 77.650398
4429 1 13.591041 13.087407 84.128108
4430 1 16.321784 18.209670 71.855382
4431 1 15.637267 10.414093 79.980506
4432 1 30.681137 7.830554 76.176667
4433 1 14.250822 8.271565 81.283301
4434 1 15.685996 5.021984 84.120392
4435 1 20.109492 1.956267 78.596989
4436 1 18.642189 9.338388 84.490672
4437 1 13.408300 10.280852 88.461138
4438 1 18.986960 11.421614 90.236191
4439 1 27.900484 11.171986 90.922110
4440 1 23.024105 2.747717 94.758945
4441 1 15.759033 4.498790 92.124360
4442 1 22.159421 8.467530 99.160369
4443 1 25.216783 17.758119 86.128471
4444 1 28.363197 9.453033 97.146958
4445 1 16.991928 3.234877 98.563315
4446 1 20.598281 5.297159 96.784632
4447 1 17.285423 6.235986 97.674553
4448 1 24.654924 8.882610 90.885788
4449 1 14.797362 11.275828 101.032210
4450 1 21.332324 10.942735 112.445690
4451 1 20.264219 11.665330 108.987659
4452 1 14.928617 16.667311 99.747778
4453 1 22.905604 13.036005 97.361854
4454 1 26.485924 18.858491 104.859545
4455 1 19.928884 8.417433 112.373607
4456 1 19.542646 14.360798 94.140198
4457 1 25.349362 13.001658 113.174403
4458 1 20.400452 12.205281 118.898380
4459 1 12.971095 23.740503 113.267958
4460 1 26.267434 18.390801 107.177449
4461 1 19.053986 7.590023 114.906890
4462 1 17.650878 11.204579 119.074408
4463 1 24.628335 4.774632 119.571860
4464 1 21.236668 18.096109 111.818178
4465 1 20.516608 32.504458 110.858965
4466 1 10.861770 20.774299 121.328042
4467 1 24.971293 14.613709 117.418669
4468 1 22.245763 20.868193 112.787676
4469 1 20.544457 10.053438 125.365028
4470 1 20.304819 14.720883 129.743576
4471 1 22.797134 9.875464 123.742207
4472 1 11.063817 15.194665 118.023245
4473 1 22.172045 14.223170 123.636109
4474 1 15.808774 4.187070 127.685055
4475 1 18.019479 10.225134 123.350788
4476 1 22.047524 16.505829 121.816411
4477 1 16.073727 8.193375 131.433611
4478 1 16.226510 10.292159 133.483233
4479 1 14.421838 10.496950 127.342474
4480 1 12.320187 12.773628 131.428179
4481 1 16.356865 12.335313 1.139011
4482 1 16.435091 14.703572 3.255769
4483 1 18.586733 12.479022 3.211912
4484 1 18.187134 14.576904 1.219371
4485 1 16.372445 12.575273 5.287770
4486 1 16.289821 15.063257 7.411187
4487 1 18.841494 12.756075 7.104925
4488 1 18.374242 14.528620 5.271890
4489 1 16.255376 12.508287 9.305473
4490 1 16.384113 14.470503 11.049657
4491 1 18.426250 12.479080 11.350870
4492 1 18.614109 14.724044 9.295757
4493 1 16.273183 12.318023 13.454090
4494 1 16.646650 14.087004 15.594684
4495 1 18.565160 12.466016 15.152854
4496 1 18.336024 14.475775 13.135597
4497 1 16.586928 12.249685 17.585227
4498 1 16.560855 14.458910 19.375364
4499 1 18.858819 12.415783 19.611494
4500 1 18.762036 14.399931 17.462781
4501 1 16.576889 12.211505 21.231287
4502 1 16.441707 14.509605 23.719271
4503 1 18.777071 12.560283 23.307816
4504 1 18.619411 14.534034 21.389979
4505 1 17.118031 12.465044 25.789320
4506 1 16.444010 14.536801 27.595122
4507 1 18.711738 12.183971 27.816153
4508 1 18.611229 14.517414 25.473604
4509 1 16.326951 12.146209 29.488326
4510 1 16.718028 14.669317 30.923841
4511 1 18.590649 12.633011 31.972258
4512 1 18.695231 14.778329 29.272080
4513 1 16.485036 12.131505 33.568843
4514 1 16.664582 14.530027 35.304008
4515 1 18.529992 12.118128 35.646992
4516 1 18.663602 14.679517 33.596256
4517 1 16.451851 12.223923 37.522696
4518 1 16.298867 14.737837 39.514758
4519 1 18.306536 12.543143 39.627026
4520 1 18.278516 14.278660 37.467121
4521 1 16.414797 12.526649 41.287307
4522 1 16.328259 14.524319 43.593475
4523 1 18.471662 12.395570 43.564344
4524 1 18.294198 14.341253 41.480182
4525 1 16.508774 12.377582 45.904410
4526 1 16.550026 14.601384 47.488444
4527 1 18.280478 12.341564 47.816442
4528 1 18.188723 14.239791 45.603698
4529 1 16.010803 12.516286 49.701318
4530 1 16.531719 14.800144 51.233695
4531 1 18.303482 12.529642 51.163962
4532 1 18.603849 14.753441 49.623922
4533 1 16.479383 12.921960 53.334915
4534 1 16.511255 14.565156 55.842130
4535 1 18.691920 12.667253 55.821459
4536 1 18.580973 14.608919 53.533632
4537 1 16.598629 12.259046 57.684843
4538 1 16.450211 14.635909 59.381143
4539 1 18.320436 12.557534 59.616557
4540 1 19.181586 14.653685 57.802287
4541 1 16.320180 12.402077 61.693060
4542 1 16.737252 14.717101 63.754258
4543 1 18.164501 12.445460 63.948812
4544 1 18.546184 14.324328 61.821626
4545 1 16.337484 14.103348 68.066970
4546 1 14.428601 10.526385 66.017455
4547 1 20.347269 14.254702 68.434668
4548 1 20.389955 16.607411 66.248505
4549 1 22.101505 8.479861 72.014400
4550 1 20.480833 8.309382 74.236977
4551 1 22.048128 11.274820 85.882672
4552 1 22.699339 10.729043 73.957748
4553 1 18.567918 8.286637 76.259960
4554 1 8.164074 12.030627 74.623828
4555 1 27.809242 5.067868 78.868772
4556 1 15.953302 13.233855 79.252278
4557 1 24.016893 18.500971 78.559691
4558 1 22.147404 3.661168 80.489910
4559 1 27.360648 10.914562 78.351914
4560 1 27.976324 12.049373 85.273838
4561 1 11.179011 21.827986 79.641707
4562 1 29.319702 10.079751 80.409086
4563 1 25.533725 12.200118 86.953920
4564 1 16.379279 6.575176 81.946695
4565 1 29.384141 13.192415 82.888470
4566 1 20.070589 16.569025 83.781790
4567 1 15.970836 14.986498 80.830992
4568 1 16.828537 16.504148 95.127106
4569 1 4.318706 11.834481 84.492687
4570 1 28.421811 12.594423 87.532889
4571 1 21.287189 6.238356 88.565897
4572 1 26.026881 18.358366 93.420270
4573 1 16.173801 10.385694 86.131293
4574 1 22.814601 15.686455 105.541163
4575 1 26.376040 18.928498 99.198198
4576 1 13.685988 14.893750 82.323590
4577 1 6.403969 15.902713 98.770154
4578 1 23.966416 22.595903 102.001756
4579 1 21.715545 15.759911 95.945028
4580 1 11.124237 19.434410 100.464833
4581 1 17.174413 20.649303 106.691787
4582 1 20.954601 13.680311 114.695638
4583 1 19.359514 12.392166 111.254124
4584 1 9.135094 18.889024 101.829373
4585 1 18.287054 21.264110 99.121826
4586 1 16.517530 30.753656 110.994706
4587 1 17.320247 19.051608 121.573838
4588 1 26.754717 14.819581 115.347223
4589 1 12.814881 5.775652 110.259555
4590 1 6.292355 19.621255 114.105435
4591 1 25.564656 22.773607 104.527499
4592 1 23.675099 18.920240 114.448389
4593 1 10.544625 14.765234 127.336729
4594 1 6.039077 10.022028 123.604777
4595 1 14.079225 16.123900 110.071643
4596 1 13.959279 11.486979 111.353892
4597 1 20.334852 18.654957 121.566382
4598 1 10.699127 22.685709 128.115375
4599 1 24.270050 16.559426 123.410868
4600 1 20.205615 20.986873 115.121903
4601 1 18.361570 14.947484 131.907307
4602 1 14.311231 10.257584 131.221722
4603 1 16.129148 12.954519 131.897408
4604 1 12.334792 16.982922 131.835066
4605 1 18.222936 12.325342 133.612732
4606 1 16.422189 14.804262 133.798602
4607 1 20.534547 10.218615 133.696721
4608 1 16.215608 16.765743 132.079194
4609 1 16.148772 16.511972 1.186465
4610 1 16.262767 18.584738 3.596559
4611 1 18.121978 16.664313 3.355574
4612 1 18.196638 18.588914 1.552320
4613 1 16.149939 16.655871 5.415399
4614 1 16.220793 18.589960 7.790030
4615 1 18.329815 16.517156 7.199112
4616 1 18.202450 18.701432 5.731499
4617 1 16.551625 16.408908 9.444812
4618 1 16.553451 18.278701 11.427721
4619 1 18.505707 16.696617 11.849256
4620 1 18.328151 18.383721 9.378491
4621 1 16.520856 16.644973 13.472355
4622 1 16.520211 18.655283 15.753954
4623 1 18.479689 16.662646 15.761397
4624 1 18.364577 18.483742 13.683103
4625 1 16.514393 16.378489 17.447536
4626 1 16.377288 18.841092 20.003247
4627 1 18.226520 16.775314 19.415317
4628 1 18.506080 18.961463 17.974301
4629 1 16.569537 16.464087 21.670854
4630 1 16.431912 18.606811 23.530018
4631 1 18.240948 16.472276 23.635439
4632 1 18.625000 18.571517 21.690420
4633 1 16.505382 16.266661 25.622824
4634 1 16.554760 18.817893 27.737131
4635 1 18.364608 16.764783 27.496602
4636 1 18.284023 18.555066 25.588921
4637 1 16.608784 16.639047 29.378739
4638 1 16.591826 18.908138 31.648929
4639 1 18.410629 16.938418 31.493254
4640 1 18.491253 18.594920 29.453889
4641 1 16.467797 16.434903 33.278973
4642 1 16.469500 18.920101 35.243300
4643 1 18.429800 16.843814 35.329442
4644 1 18.736809 18.894078 33.464298
4645 1 16.323656 16.578782 37.657874
4646 1 16.749266 18.702897 39.872470
4647 1 18.534351 16.434434 39.359237
4648 1 18.335787 18.271681 37.475366
4649 1 16.427820 16.723601 41.545923
4650 1 16.524402 18.294545 43.751884
4651 1 18.498562 16.131992 43.810518
4652 1 18.600487 18.367063 41.677781
4653 1 16.390368 16.418917 45.564025
4654 1 16.510813 18.878287 47.411678
4655 1 18.571146 16.638177 47.421319
4656 1 18.591898 18.586377 45.620899
4657 1 16.682671 16.683409 49.496068
4658 1 16.270345 18.528397 51.294527
4659 1 18.331120 16.699541 51.672900
4660 1 18.649312 18.807397 49.686209
4661 1 16.507634 16.614300 53.547419
4662 1 16.435975 18.368133 55.665599
4663 1 18.906492 16.514301 55.925855
4664 1 18.592341 18.465054 53.991793
4665 1 16.430212 16.386332 57.671605
4666 1 16.535275 18.410028 59.541307
4667 1 18.292705 16.431707 59.651112
4668 1 18.428563 18.557361 57.900200
4669 1 16.315393 16.614990 61.746056
4670 1 16.753325 18.352666 63.420620
4671 1 18.535033 16.417862 63.640660
4672 1 18.621621 18.265299 61.710847
4673 1 16.461110 16.599079 65.508601
4674 1 20.884691 22.571205 67.729189
4675 1 16.347763 18.582190 67.832753
4676 1 18.363442 18.693186 65.917219
4677 1 16.877237 17.020630 74.723915
4678 1 10.657843 14.515667 78.326216
4679 1 22.240309 10.535865 79.904385
4680 1 14.276942 12.105284 68.011324
4681 1 24.612471 12.310283 69.588083
4682 1 19.841789 21.587384 76.028786
4683 1 21.032525 20.437618 70.107909
4684 1 18.115888 20.509349 71.633501
4685 1 23.994472 16.058904 77.783863
4686 1 20.613991 12.471118 74.340358
4687 1 20.845623 17.367064 92.895996
4688 1 17.241322 20.644880 74.446632
4689 1 9.793139 16.986352 72.123135
4690 1 19.950003 19.026454 87.437742
4691 1 17.956491 10.166462 78.206918
4692 1 12.357560 19.795282 81.189497
4693 1 17.543764 27.202222 91.413022
4694 1 17.071357 21.623499 76.793827
4695 1 30.997791 8.451197 95.755712
4696 1 15.763518 30.865533 79.420648
4697 1 26.043760 6.696819 80.612916
4698 1 17.839346 8.933492 90.699619
4699 1 32.007663 13.935711 93.845348
4700 1 22.820511 23.798534 92.294594
4701 1 7.193252 23.448707 91.152007
4702 1 12.530483 17.529947 98.887247
4703 1 26.157100 17.846506 96.362112
4704 1 11.184935 22.186765 101.325740
4705 1 17.483149 14.086358 95.923528
4706 1 14.857769 14.966456 97.271199
4707 1 22.462262 23.602181 110.424259
4708 1 18.867907 21.449457 104.165457
4709 1 22.723185 22.686512 98.180665
4710 1 0.940064 21.905523 105.868822
4711 1 27.331215 8.682059 102.586540
4712 1 23.376822 17.210378 117.035899
4713 1 21.430988 15.772038 116.421048
4714 1 25.197823 26.264117 113.117970
4715 1 17.536836 24.114229 112.533882
4716 1 20.068524 26.289296 115.746596
4717 1 20.119247 23.914838 117.035274
4718 1 21.107606 28.423030 113.990681
4719 1 22.560120 21.451888 116.990450
4720 1 18.057729 14.320230 119.478079
4721 1 16.498475 23.833539 116.515096
4722 1 16.759145 25.153791 123.788263
4723 1 28.395933 4.320552 109.158709
4724 1 25.169204 20.793342 112.879814
4725 1 19.252163 14.369749 117.313932
4726 1 18.895979 18.925659 124.018619
4727 1 18.902955 14.150048 123.805724
4728 1 12.563555 18.275533 125.523330
4729 1 20.096816 16.900111 127.889519
4730 1 18.681597 18.866700 127.772369
4731 1 28.549376 14.277754 129.609508
4732 1 22.759827 24.854339 129.789068
4733 1 14.691913 20.818609 129.797122
4734 1 16.308280 18.675356 133.922486
4735 1 18.058439 16.947509 133.969952
4736 1 16.472833 23.231710 129.410905
4737 1 16.533168 20.706281 1.220828
4738 1 16.812752 22.878714 3.760739
4739 1 18.219741 20.651990 3.181918
4740 1 18.409036 23.003489 1.694894
4741 1 16.316679 20.552680 5.473363
4742 1 15.946733 22.725993 7.523436
4743 1 18.469060 20.393547 7.553245
4744 1 18.751874 22.529775 5.689043
4745 1 16.575428 20.714997 9.430402
4746 1 16.724824 22.565979 11.208650
4747 1 18.634630 20.094397 11.569872
4748 1 18.545878 22.603878 9.096464
4749 1 16.594515 20.330320 13.384814
4750 1 16.435210 22.463720 15.584937
4751 1 18.771829 20.550222 15.442461
4752 1 18.446056 22.648302 13.356306
4753 1 16.570988 20.626780 17.871570
4754 1 16.478350 22.526088 19.604899
4755 1 18.682991 21.058359 19.749052
4756 1 18.819979 22.789724 17.552007
4757 1 16.583836 20.877065 21.600313
4758 1 16.640687 22.944055 23.202713
4759 1 18.702316 20.847002 23.604436
4760 1 18.994090 22.941692 21.531848
4761 1 16.346499 20.724679 25.587183
4762 1 16.414380 22.770148 27.331673
4763 1 18.435049 20.656204 27.378630
4764 1 18.485608 22.918233 25.222322
4765 1 16.615804 20.735293 29.679320
4766 1 16.681474 22.961626 31.374385
4767 1 18.745438 20.835415 31.261074
4768 1 18.846354 22.788226 29.492238
4769 1 16.682219 21.050215 33.285706
4770 1 16.409628 22.567589 35.678593
4771 1 18.370386 20.441991 35.680345
4772 1 18.605341 22.545182 33.609798
4773 1 16.373618 20.371207 37.583445
4774 1 16.188091 22.671917 39.524741
4775 1 18.280940 20.813308 39.316575
4776 1 18.640035 22.852728 37.333403
4777 1 16.310147 20.731031 41.765439
4778 1 16.377004 22.780522 43.372153
4779 1 18.558365 20.458768 43.167486
4780 1 18.316357 22.767560 41.451056
4781 1 16.337148 20.325325 45.418237
4782 1 16.589462 22.782561 47.593779
4783 1 18.779260 20.712617 47.316817
4784 1 18.525291 22.816175 45.344189
4785 1 16.766198 20.743628 49.495754
4786 1 16.866164 22.682873 51.601681
4787 1 18.678741 20.829247 51.570799
4788 1 18.765247 23.081545 49.420977
4789 1 16.249238 20.221352 53.702759
4790 1 16.293637 22.480998 55.732980
4791 1 18.454907 20.506916 55.906141
4792 1 18.417860 22.144828 53.937293
4793 1 16.426583 20.461726 57.795763
4794 1 16.759701 22.430604 59.961364
4795 1 18.493291 20.561489 59.945822
4796 1 18.527977 22.294998 57.776103
4797 1 16.593752 20.367277 61.765998
4798 1 16.351836 22.491900 63.910575
4799 1 18.949995 20.468361 63.812881
4800 1 18.709155 22.545630 62.068240
4801 1 16.502938 24.336248 66.027069
4802 1 18.832969 22.583211 65.790745
4803 1 18.653405 18.462995 73.774504
4804 1 20.885905 24.487894 65.762832
4805 1 20.537327 12.143846 70.172385
4806 1 28.896426 18.210959 72.161401
4807 1 18.701802 24.555119 71.583794
4808 1 22.230328 24.925903 72.175963
4809 1 18.453346 25.461745 77.892884
4810 1 18.583773 22.489610 69.377886
4811 1 26.230317 12.350569 82.270603
4812 1 14.442378 22.044900 75.840331
4813 1 16.517039 14.398124 83.330714
4814 1 16.505336 26.280886 71.581104
4815 1 20.527825 14.236201 71.826964
4816 1 16.508633 24.259471 69.677787
4817 1 18.984303 14.491116 81.398818
4818 1 9.510809 22.414642 77.382660
4819 1 11.559382 19.386126 78.681044
4820 1 25.261231 20.502941 92.502770
4821 1 13.923287 19.182782 88.870495
4822 1 23.939409 17.000444 94.897170
4823 1 15.779370 28.295932 88.761642
4824 1 11.278705 22.963386 97.746070
4825 1 28.321360 18.943004 88.318025
4826 1 16.912027 22.588703 88.835538
4827 1 28.087595 9.819433 83.722915
4828 1 20.304731 13.211472 89.090948
4829 1 14.911283 9.147650 91.777971
4830 1 11.454819 24.862428 92.838140
4831 1 20.995381 25.513312 93.504233
4832 1 15.742281 25.216680 105.299001
4833 1 22.661036 16.512913 90.968652
4834 1 18.519615 22.962536 114.871476
4835 1 19.360731 20.545391 108.487485
4836 1 18.659908 29.576524 101.773940
4837 1 24.306591 27.072825 107.230286
4838 1 17.407468 30.471896 96.556145
4839 1 24.004431 26.828942 103.089512
4840 1 21.840832 23.292587 114.895866
4841 1 17.540748 20.639043 119.627647
4842 1 20.559022 27.789885 121.804581
4843 1 16.433323 15.135888 116.924462
4844 1 15.257120 30.658631 119.115362
4845 1 17.073529 31.063075 125.592822
4846 1 14.330791 31.368145 123.122619
4847 1 17.729228 27.128707 119.378397
4848 1 23.061671 31.992698 114.560215
4849 1 18.419648 12.634672 121.407098
4850 1 16.752453 26.956930 125.700310
4851 1 20.852218 24.880578 123.857656
4852 1 15.219516 19.027640 119.614768
4853 1 16.406903 18.635066 125.746228
4854 1 20.560714 20.868558 128.227834
4855 1 15.768370 21.068746 117.367408
4856 1 14.394759 28.885969 129.606568
4857 1 8.244419 20.365847 127.394108
4858 1 16.465447 24.821631 132.015185
4859 1 22.622484 22.687283 127.774422
4860 1 22.867837 26.784739 132.019093
4861 1 14.908097 14.115216 127.635978
4862 1 16.531057 22.937835 134.103484
4863 1 14.467855 22.755889 131.687377
4864 1 12.600492 20.553261 127.792362
4865 1 16.605635 24.775363 1.448900
4866 1 16.570622 26.079320 3.521758
4867 1 18.670525 24.640282 3.744697
4868 1 18.785851 26.366502 1.815726
4869 1 16.469506 24.409856 5.727933
4870 1 16.439702 26.601212 7.207804
4871 1 18.689626 24.657104 7.457999
4872 1 18.434904 26.836075 5.463323
4873 1 16.535329 24.649980 9.168542
4874 1 16.659036 26.839262 11.476160
4875 1 18.205410 24.739238 11.441380
4876 1 18.697925 27.289012 9.535888
4877 1 16.195165 24.508216 13.474707
4878 1 16.036760 26.621534 15.515374
4879 1 18.193920 24.748643 15.250659
4880 1 18.609954 26.835077 13.443469
4881 1 16.512286 24.666304 17.681242
4882 1 16.719022 26.804578 19.596709
4883 1 18.868847 24.652614 19.473616
4884 1 18.418792 26.496803 17.528633
4885 1 16.632316 24.617077 21.220987
4886 1 16.644706 26.933169 23.336977
4887 1 18.743705 24.939139 23.421526
4888 1 18.943599 26.444064 21.507889
4889 1 16.603648 25.169893 25.363000
4890 1 16.340800 27.060081 27.303931
4891 1 18.482104 24.642491 27.522469
4892 1 18.781757 26.598380 25.630827
4893 1 16.538031 25.011325 29.134766
4894 1 16.544421 26.559577 31.277130
4895 1 18.802964 24.907291 31.371922
4896 1 18.456120 26.959633 29.327200
4897 1 16.548980 24.559388 33.607354
4898 1 16.815397 26.759226 35.281283
4899 1 18.693270 24.660888 35.356531
4900 1 18.732284 26.446086 33.495584
4901 1 16.669076 24.770301 37.382918
4902 1 16.596614 26.727184 39.381658
4903 1 18.689798 24.915906 39.521665
4904 1 18.883166 26.720144 37.538189
4905 1 16.539614 24.825373 41.368741
4906 1 16.611022 26.963537 43.478810
4907 1 18.331623 24.591964 43.336651
4908 1 18.592126 26.863774 41.762228
4909 1 16.505175 25.173379 45.439634
4910 1 16.388547 26.873313 47.863694
4911 1 18.336805 24.745026 47.715370
4912 1 18.648287 26.839243 45.359086
4913 1 16.657841 25.027274 49.449607
4914 1 16.607914 26.944064 51.667367
4915 1 18.536218 24.977143 51.703150
4916 1 18.539769 26.767572 49.626621
4917 1 16.771075 24.538986 53.813379
4918 1 16.451820 26.489485 55.917994
4919 1 18.945206 24.170481 55.752906
4920 1 18.589223 26.533911 53.945548
4921 1 16.777619 24.421707 57.450321
4922 1 16.273006 26.593160 59.542205
4923 1 18.754367 24.442626 59.579825
4924 1 18.624363 26.481112 57.961616
4925 1 16.608161 24.613709 61.697803
4926 1 16.065173 26.423693 63.728376
4927 1 18.412073 24.619083 63.811289
4928 1 18.191755 26.504825 61.866316
4929 1 18.547715 26.501102 65.676669
4930 1 12.517500 26.635586 68.084021
4931 1 20.404715 26.358605 67.531914
4932 1 22.448559 26.564420 66.135301
4933 1 14.340212 20.288507 68.070938
4934 1 10.567943 24.270447 68.079969
4935 1 14.031082 10.118319 70.005141
4936 1 18.767937 26.074851 73.422269
4937 1 12.872187 26.283287 72.421560
4938 1 24.400049 30.235351 75.979908
4939 1 17.984455 0.385020 79.293856
4940 1 23.518704 19.314614 76.225915
4941 1 15.545451 26.472108 73.824468
4942 1 14.605987 17.977880 78.807792
4943 1 22.297578 15.744845 82.129349
4944 1 16.108801 29.198463 75.062010
4945 1 10.093147 0.342201 91.813667
4946 1 22.076704 18.899665 80.691270
4947 1 17.258383 28.410590 86.397629
4948 1 26.401378 23.138146 78.012094
4949 1 15.668929 25.348313 97.618443
4950 1 12.310550 29.593464 91.353738
4951 1 11.700695 31.659904 89.931395
4952 1 13.479815 2.930780 92.512509
4953 1 6.830692 15.270563 94.276832
4954 1 12.320996 24.389782 89.944419
4955 1 31.610816 32.280016 101.038044
4956 1 15.560784 19.984665 101.340528
4957 1 14.111772 4.113989 102.493961
4958 1 21.928956 27.906844 93.103146
4959 1 25.574423 11.026881 103.396584
4960 1 12.088570 4.160879 95.522321
4961 1 16.470325 0.261186 95.979672
4962 1 12.165188 30.473162 95.459110
4963 1 12.332404 6.009830 107.670308
4964 1 14.341296 27.652562 100.743915
4965 1 21.173068 0.251847 103.077325
4966 1 21.921985 9.210241 110.398889
4967 1 17.203773 28.377345 107.502336
4968 1 20.929607 18.729453 90.221677
4969 1 32.478053 26.142178 106.964543
4970 1 22.353887 30.688949 112.225115
4971 1 8.183922 28.124522 111.998074
4972 1 16.686689 21.187662 113.879558
4973 1 8.954368 20.404857 114.546266
4974 1 13.496664 23.138558 121.240637
4975 1 11.905415 1.918577 121.192119
4976 1 20.737489 30.737540 125.867974
4977 1 16.689796 31.167498 121.920923
4978 1 16.597096 28.406553 127.804033
4979 1 18.826753 28.601038 129.998739
4980 1 25.106624 26.867082 125.686559
4981 1 9.987849 30.905862 123.115205
4982 1 11.920067 32.548840 123.352901
4983 1 12.440817 29.138304 127.575601
4984 1 10.226563 30.962552 127.376111
4985 1 14.351332 22.887990 127.929307
4986 1 16.350935 28.706694 131.981656
4987 1 18.486477 23.142134 132.208458
4988 1 14.551548 30.856667 128.219654
4989 1 18.482914 26.932786 132.316348
4990 1 16.351155 26.734815 134.294092
4991 1 18.500705 24.814611 134.167921
4992 1 20.554633 0.429337 131.607765
4993 1 16.700191 29.137373 1.274598
4994 1 16.468692 31.045136 3.507127
4995 1 18.996206 28.780305 3.334927
4996 1 18.444426 30.920468 1.327825
4997 1 16.802635 28.567781 4.828754
4998 1 16.590670 30.979349 7.743598
4999 1 18.356696 28.611222 7.284047
5000 1 18.515484 30.818463 5.456176
5001 1 16.342043 28.616052 9.143190
5002 1 16.363346 30.851336 11.500302
5003 1 18.536707 29.142600 11.588027
5004 1 18.412907 30.664963 9.449041
5005 1 16.281295 28.474319 13.554197
5006 1 16.525712 30.379819 15.467152
5007 1 18.658177 28.634909 15.567664
5008 1 18.586409 30.634118 13.748303
5009 1 16.409232 28.763668 17.555566
5010 1 16.344156 30.720658 19.317900
5011 1 18.971618 28.668407 19.330774
5012 1 18.397058 30.807090 17.321194
5013 1 16.733292 28.925207 21.227562
5014 1 16.204279 31.171217 23.891043
5015 1 18.590989 28.669515 23.513529
5016 1 18.593579 30.774991 21.431803
5017 1 16.250846 28.951877 25.595833
5018 1 16.715436 30.952455 27.479096
5019 1 18.488256 28.882803 27.288291
5020 1 18.367918 30.591566 25.371448
5021 1 16.799520 29.359070 29.502200
5022 1 16.802741 31.175755 31.522318
5023 1 18.690993 28.895191 31.460461
5024 1 18.763769 30.862104 29.610794
5025 1 16.704731 28.734790 33.065748
5026 1 16.409394 30.819809 35.437742
5027 1 18.742752 28.622971 35.564779
5028 1 18.725607 30.880916 33.398776
5029 1 16.431643 28.810310 37.262836
5030 1 16.570229 30.839741 39.682949
5031 1 18.716445 28.836164 39.296566
5032 1 18.774108 30.591688 37.414758
5033 1 16.678971 28.764885 41.366756
5034 1 16.663580 30.847544 43.448145
5035 1 18.534130 28.977589 43.523303
5036 1 19.055846 30.651505 41.411733
5037 1 16.654570 28.861006 45.621528
5038 1 16.439411 30.815519 47.776215
5039 1 18.312243 28.810047 47.583935
5040 1 18.285682 31.117022 45.412313
5041 1 16.218593 28.824147 49.777040
5042 1 16.418725 30.578221 52.008277
5043 1 18.380780 28.867486 51.749683
5044 1 18.369890 30.764050 49.717380
5045 1 16.567331 28.550238 53.849897
5046 1 16.438860 30.767905 55.822920
5047 1 18.802493 28.988264 55.636521
5048 1 18.226284 30.868941 53.899341
5049 1 16.565519 28.735791 57.702681
5050 1 16.467296 30.993727 60.064080
5051 1 18.583061 28.824821 59.730038
5052 1 18.165113 31.003673 57.788698
5053 1 16.517483 28.444165 61.834799
5054 1 16.631757 30.638737 63.731378
5055 1 18.566161 28.374777 63.941819
5056 1 18.562220 30.792377 61.974866
5057 1 20.410739 28.513914 65.659322
5058 1 26.835314 30.800168 70.056359
5059 1 22.775218 22.659612 69.971220
5060 1 14.243559 28.671881 67.754391
5061 1 14.388549 28.667249 72.312018
5062 1 24.747424 28.628756 73.952463
5063 1 18.629203 22.816675 73.288043
5064 1 20.017060 2.308397 72.366611
5065 1 12.407315 24.226930 69.908789
5066 1 16.463677 6.714063 93.204142
5067 1 17.765064 28.427992 72.380166
5068 1 18.212807 27.444737 75.579120
5069 1 28.496702 28.315224 84.799365
5070 1 17.791149 23.937997 83.737871
5071 1 25.217080 23.100794 82.834901
5072 1 16.659863 28.597524 70.076358
5073 1 13.546437 31.632690 80.785979
5074 1 20.300863 25.875173 85.894244
5075 1 17.483808 18.777990 94.282319
5076 1 21.398873 4.926162 83.087403
5077 1 18.888102 20.754941 89.339313
5078 1 16.269762 1.873297 101.017526
5079 1 19.584833 3.953988 87.655085
5080 1 18.837053 6.562788 89.648105
5081 1 14.279168 1.463975 94.598169
5082 1 16.324360 23.997210 94.799876
5083 1 19.734881 25.332706 98.667119
5084 1 12.029271 27.223351 89.010775
5085 1 16.622417 32.185196 98.910739
5086 1 5.850950 8.222573 93.191321
5087 1 14.516198 0.401727 99.662730
5088 1 17.784836 26.618526 88.611947
5089 1 16.769472 29.588292 99.517043
5090 1 14.416643 30.049234 99.520810
5091 1 19.410867 2.868929 101.988619
5092 1 18.309911 11.192987 96.368321
5093 1 19.740945 29.158747 90.011123
5094 1 17.404795 28.576741 104.955658
5095 1 22.514711 24.608599 125.825528
5096 1 10.112321 3.837089 102.741554
5097 1 15.229856 24.629514 114.603386
5098 1 8.948860 23.141919 115.540840
5099 1 13.066542 29.622495 106.606045
5100 1 27.989715 31.013310 112.528787
5101 1 8.766066 2.539988 105.578053
5102 1 22.491993 4.454456 125.853157
5103 1 22.473426 3.099362 119.611554
5104 1 22.789642 26.052302 112.702736
5105 1 18.770937 28.130980 113.269024
5106 1 10.835091 27.552692 119.318705
5107 1 10.415730 26.822423 123.399869
5108 1 13.986558 4.248772 125.678547
5109 1 9.110839 5.038383 118.826394
5110 1 13.822011 1.699063 123.077947
5111 1 18.957955 28.969162 126.030764
5112 1 10.110345 2.251915 123.425602
5113 1 14.508622 26.623802 131.943460
5114 1 6.229858 28.768560 125.689238
5115 1 20.655651 25.090049 131.930151
5116 1 20.584166 2.384984 125.647334
5117 1 14.657353 2.187095 131.524025
5118 1 16.451330 31.025033 133.989259
5119 1 18.813802 28.860274 134.181218
5120 1 18.468010 30.904940 132.217178
5121 1 20.317719 0.017657 1.268080
5122 1 20.587366 2.821951 3.500316
5123 1 22.713799 0.273530 3.309194
5124 1 22.470198 2.222092 1.342297
5125 1 20.692624 0.704032 4.881064
5126 1 20.595292 2.433722 7.299515
5127 1 22.399548 0.679548 7.415059
5128 1 22.718733 2.353122 5.205177
5129 1 20.356223 0.428113 9.582965
5130 1 20.314620 2.049974 11.501769
5131 1 22.567792 0.331876 11.380662
5132 1 22.157648 2.438226 9.283712
5133 1 20.869525 0.029916 13.344067
5134 1 20.748338 2.119354 15.455011
5135 1 22.915942 0.152234 15.287591
5136 1 22.642173 2.438263 13.128060
5137 1 20.555923 0.224091 17.583481
5138 1 20.590860 2.348729 19.697546
5139 1 22.735427 0.235887 19.582873
5140 1 22.490419 2.048116 17.557721
5141 1 20.863003 0.066038 21.703333
5142 1 20.642423 2.098965 23.692448
5143 1 22.778682 0.115073 23.536525
5144 1 22.649178 2.816351 21.659111
5145 1 20.788983 0.037227 25.741204
5146 1 20.593218 2.293572 27.858936
5147 1 22.511866 32.484989 27.557364
5148 1 22.474605 2.200467 25.590717
5149 1 20.624725 0.209075 29.700832
5150 1 20.486967 2.292971 31.785441
5151 1 22.738276 0.407379 31.668864
5152 1 23.010722 2.266895 29.502788
5153 1 20.561683 0.070537 33.547554
5154 1 20.774293 2.323040 35.211745
5155 1 22.668191 0.127329 35.457197
5156 1 23.162498 2.218567 33.419509
5157 1 20.696113 0.284822 37.484028
5158 1 20.484891 2.358996 39.588585
5159 1 22.693599 0.344469 39.499432
5160 1 22.460272 2.374126 37.666257
5161 1 20.592301 0.433114 41.513730
5162 1 20.639164 2.104367 43.469169
5163 1 22.815809 0.049397 43.693763
5164 1 22.595704 2.399518 41.506369
5165 1 20.636687 0.161154 45.367877
5166 1 20.634049 2.403977 47.296833
5167 1 22.504664 0.274336 47.627655
5168 1 22.406376 2.081902 45.479886
5169 1 20.663397 0.256369 49.866366
5170 1 20.310458 2.369777 51.583364
5171 1 22.469536 0.290567 51.859314
5172 1 22.389258 2.410775 49.945974
5173 1 20.363628 32.599009 53.712792
5174 1 20.283917 2.138935 55.601074
5175 1 22.644494 0.219051 55.516566
5176 1 22.691550 2.293348 53.806070
5177 1 20.566272 0.310789 57.820892
5178 1 20.692000 2.242756 59.892723
5179 1 22.617244 0.306352 59.604276
5180 1 22.528736 2.349199 57.752041
5181 1 20.766887 0.424636 61.845351
5182 1 20.453639 2.373944 64.082064
5183 1 22.315646 0.400450 64.086288
5184 1 22.919214 2.010743 61.800555
5185 1 18.111438 4.214903 68.267992
5186 1 16.771832 30.447915 67.790761
5187 1 20.276296 4.341837 65.778641
5188 1 23.015139 2.332066 65.967729
5189 1 24.521313 0.084380 69.873174
5190 1 22.276494 0.166263 72.125176
5191 1 22.476579 26.545148 69.502490
5192 1 18.676533 6.143108 70.269129
5193 1 24.468801 26.590956 75.833448
5194 1 18.355611 30.839334 74.103016
5195 1 24.559128 2.084728 76.208826
5196 1 21.764364 1.619007 81.735617
5197 1 18.357563 28.029976 81.703188
5198 1 20.398278 23.892274 77.874408
5199 1 20.988733 20.446128 85.160361
5200 1 28.095435 31.426748 87.485134
5201 1 27.557434 2.542989 86.017233
5202 1 20.304856 16.443991 86.442035
5203 1 24.793017 23.603893 80.016751
5204 1 25.299218 5.746859 83.075516
5205 1 20.884255 10.663285 88.460030
5206 1 9.758902 23.672075 90.547709
5207 1 1.293610 30.471185 88.507873
5208 1 21.933373 1.460538 87.300528
5209 1 4.437848 29.554634 84.810484
5210 1 20.147304 21.903391 96.564509
5211 1 20.569198 2.887337 94.744978
5212 1 14.281843 5.729099 106.398659
5213 1 13.042259 1.453998 90.360022
5214 1 16.177424 3.210043 95.784437
5215 1 20.184646 27.521909 97.058051
5216 1 1.121697 1.494511 101.088625
5217 1 12.512282 7.418084 95.708265
5218 1 18.795794 31.277178 105.923827
5219 1 26.658911 24.756830 100.634605
5220 1 26.418504 29.151184 91.010820
5221 1 26.278295 3.592055 107.368491
5222 1 32.148163 7.521345 100.237376
5223 1 25.082927 29.817435 108.586928
5224 1 25.975390 2.033789 105.172777
5225 1 19.313946 4.937502 103.728504
5226 1 26.259777 31.896951 105.209129
5227 1 0.505870 8.159341 116.957403
5228 1 31.491140 29.199141 101.004876
5229 1 10.170624 23.031309 113.209558
5230 1 13.764064 8.430928 114.024035
5231 1 15.686010 0.275078 112.266682
5232 1 26.888112 32.042036 125.132980
5233 1 19.447652 31.965062 122.061414
5234 1 15.846230 10.319920 121.478487
5235 1 9.842817 4.094557 121.496454
5236 1 19.917269 31.162598 114.275802
5237 1 22.491181 2.420799 127.873333
5238 1 16.145994 8.026377 123.551247
5239 1 24.529946 30.796885 126.066302
5240 1 27.320084 2.591752 127.748104
5241 1 20.354312 0.504038 128.469643
5242 1 18.316280 0.228689 130.046865
5243 1 24.419946 2.322795 125.640953
5244 1 24.783424 2.594597 129.117311
5245 1 25.393075 0.557379 127.290347
5246 1 20.419133 1.923622 133.903827
5247 1 22.490651 0.018825 133.830525
5248 1 24.753224 4.021360 131.702564
5249 1 20.498740 4.528197 1.116477
5250 1 20.302379 6.456635 2.782103
5251 1 22.712021 4.421366 3.004524
5252 1 22.734420 6.375861 0.990703
5253 1 20.576141 4.530395 5.291540
5254 1 20.365677 6.778116 7.039258
5255 1 22.310099 4.643149 7.292398
5256 1 22.776274 6.270514 4.889985
5257 1 20.305656 4.412743 9.426409
5258 1 20.122781 6.451074 11.206652
5259 1 22.236908 4.573188 11.233830
5260 1 22.376864 6.310575 9.118210
5261 1 20.339305 4.157309 13.320790
5262 1 20.633892 6.754667 15.434828
5263 1 22.517946 4.465483 15.405508
5264 1 22.264189 6.206424 13.006763
5265 1 20.564344 4.451702 17.460687
5266 1 21.013508 6.332447 19.394155
5267 1 22.722256 4.560185 19.015989
5268 1 22.573476 6.472396 17.156570
5269 1 20.648705 4.395033 21.511200
5270 1 20.592034 6.510163 23.620112
5271 1 22.576522 4.445095 23.687933
5272 1 22.428917 6.424367 21.440329
5273 1 20.680279 4.251009 25.261737
5274 1 20.722415 6.234687 27.759157
5275 1 22.738027 4.120568 27.314066
5276 1 22.779738 6.419614 25.379650
5277 1 20.904967 4.112216 29.729134
5278 1 20.651612 6.250735 31.084900
5279 1 22.828816 4.409084 31.759651
5280 1 22.805040 5.663482 29.532271
5281 1 20.643665 4.548841 33.399749
5282 1 20.784438 6.432411 35.886505
5283 1 22.724026 4.222782 35.599761
5284 1 23.061043 6.180750 33.898833
5285 1 20.540152 4.235604 37.541920
5286 1 20.586083 6.200975 39.528059
5287 1 22.814929 4.316139 39.607377
5288 1 22.686245 6.380759 37.611241
5289 1 20.716672 4.216254 41.645027
5290 1 20.435034 6.283695 43.707879
5291 1 22.375589 4.666278 43.667414
5292 1 22.366664 6.203594 41.651620
5293 1 20.276870 4.511537 45.493057
5294 1 20.524093 6.433700 47.720945
5295 1 22.512035 4.172695 47.763361
5296 1 22.553978 6.319973 45.637879
5297 1 20.467648 4.398692 49.574367
5298 1 20.454377 6.477931 51.772570
5299 1 22.220023 4.447633 51.631863
5300 1 22.367601 6.435688 49.410430
5301 1 20.390284 4.526306 53.663425
5302 1 20.893730 6.698112 55.786851
5303 1 22.483815 4.342588 56.046313
5304 1 22.532161 6.227804 53.765336
5305 1 20.474839 4.281501 57.660792
5306 1 20.639902 6.026525 60.106251
5307 1 22.701928 4.361622 59.672263
5308 1 23.056467 6.520814 58.028507
5309 1 21.071550 3.900830 62.077764
5310 1 20.443747 6.137784 63.731057
5311 1 22.992763 4.233454 63.939349
5312 1 22.760150 6.152382 62.083281
5313 1 20.462796 8.408419 65.860625
5314 1 12.848434 4.232523 74.625365
5315 1 20.458548 12.217995 66.435397
5316 1 22.880126 5.999027 65.909730
5317 1 18.458046 2.041722 65.962699
5318 1 20.225034 8.274373 70.074489
5319 1 20.503520 0.337141 74.550212
5320 1 26.954081 6.105453 65.947509
5321 1 27.640663 8.687504 90.353082
5322 1 27.606790 4.570767 84.408441
5323 1 25.590710 27.712913 82.285279
5324 1 23.514195 5.804684 80.842736
5325 1 18.103080 8.304649 72.276574
5326 1 25.966420 5.890618 89.662891
5327 1 18.470959 4.588362 93.255955
5328 1 15.713130 2.199016 75.904689
5329 1 30.050812 5.142567 76.650872
5330 1 19.824548 9.929854 80.575722
5331 1 15.162314 2.975415 90.096424
5332 1 28.675517 0.011881 78.309436
5333 1 21.615369 8.736136 86.722972
5334 1 30.743653 31.761868 88.626976
5335 1 17.198155 4.424701 102.373087
5336 1 24.685699 29.709396 84.200553
5337 1 21.177874 2.853969 97.368104
5338 1 15.753153 11.633726 95.147555
5339 1 25.080943 8.533001 100.732027
5340 1 25.653787 3.863723 91.265247
5341 1 23.079776 8.168950 92.848593
5342 1 25.779652 1.487990 95.298280
5343 1 25.724347 3.793541 94.108402
5344 1 19.506235 31.940597 94.492425
5345 1 17.357993 13.648898 91.193151
5346 1 20.930930 5.276741 93.840970
5347 1 25.462213 32.444991 107.717593
5348 1 19.183058 1.899780 99.314793
5349 1 18.409765 3.665636 96.386858
5350 1 8.865273 11.138020 104.884550
5351 1 29.303148 11.392416 111.687302
5352 1 24.707413 15.081434 101.285241
5353 1 17.184933 29.758655 117.994350
5354 1 19.595843 6.273062 117.203120
5355 1 27.367269 0.836909 111.428722
5356 1 23.715153 12.498977 102.930727
5357 1 24.736146 8.365785 113.405533
5358 1 17.635967 18.443827 108.293287
5359 1 21.146685 2.455922 107.496222
5360 1 23.172348 4.024107 106.375920
5361 1 19.099103 5.557522 120.027730
5362 1 26.306430 10.153124 114.722756
5363 1 28.263723 13.833383 117.256838
5364 1 27.772937 11.986319 115.899311
5365 1 17.817310 7.755824 121.634293
5366 1 20.457054 2.687624 129.695891
5367 1 24.557733 1.771801 121.478644
5368 1 26.094196 14.709263 108.081308
5369 1 24.538499 0.887819 131.877090
5370 1 16.666209 16.732637 127.825060
5371 1 22.093445 6.313231 131.373173
5372 1 20.368128 10.513516 129.943605
5373 1 20.146490 4.461334 131.404018
5374 1 20.568109 6.480124 133.654174
5375 1 22.134570 4.109277 133.505035
5376 1 18.499902 8.527927 129.476698
5377 1 20.478464 8.735304 1.175691
5378 1 20.589304 10.521182 2.987604
5379 1 22.634673 8.365632 3.275610
5380 1 22.390729 10.530480 1.208309
5381 1 20.801462 8.450422 4.909669
5382 1 20.579093 10.605621 7.520669
5383 1 22.720495 8.536754 7.111196
5384 1 22.212400 10.743256 4.966187
5385 1 20.483429 8.370203 9.399702
5386 1 20.135738 10.267400 11.207657
5387 1 22.576672 8.405161 11.459816
5388 1 22.708841 10.433202 9.578276
5389 1 20.432148 8.263172 13.192374
5390 1 20.377712 10.508030 15.336677
5391 1 22.734710 8.600893 15.752363
5392 1 22.435338 10.382464 13.197582
5393 1 20.667520 8.389724 17.477414
5394 1 20.904000 10.571142 19.352534
5395 1 22.705111 8.321058 19.467088
5396 1 22.490091 10.594776 17.456270
5397 1 21.100893 8.627577 21.693308
5398 1 20.811938 10.707856 23.603536
5399 1 22.628780 8.631781 23.641742
5400 1 22.888685 10.873814 21.556722
5401 1 20.772066 8.522197 25.574475
5402 1 21.012145 10.354674 27.675241
5403 1 22.784042 8.463557 27.826649
5404 1 22.807685 10.825306 25.519326
5405 1 20.808373 8.880456 29.942559
5406 1 20.870963 10.644927 32.018935
5407 1 22.789732 8.224363 31.829147
5408 1 23.056538 10.361365 29.807008
5409 1 20.678129 8.004093 33.349850
5410 1 20.565897 10.123458 35.355158
5411 1 22.577614 8.336122 35.352595
5412 1 22.800692 10.181958 33.548706
5413 1 20.518543 8.550784 37.321205
5414 1 20.622732 10.313190 39.652190
5415 1 22.656117 8.434468 39.504302
5416 1 22.524701 10.438594 37.449300
5417 1 20.600354 8.271163 41.338523
5418 1 20.494798 10.516277 43.566835
5419 1 22.620169 8.292481 43.707843
5420 1 22.377180 10.508078 41.531217
5421 1 20.609238 8.346981 45.681751
5422 1 20.566268 10.286787 47.693872
5423 1 22.635248 8.500675 47.706517
5424 1 22.585396 10.386772 45.394612
5425 1 20.240995 8.327797 49.634699
5426 1 20.378461 10.308461 51.563558
5427 1 22.764272 8.217388 51.262635
5428 1 22.462687 10.501724 49.770378
5429 1 20.532127 8.586684 53.849393
5430 1 20.551359 10.515902 55.778583
5431 1 22.677100 8.658067 55.998451
5432 1 22.730331 10.386281 53.648928
5433 1 20.856212 8.500630 58.198717
5434 1 20.561226 10.318468 60.239797
5435 1 22.598870 8.343919 60.295775
5436 1 22.629760 10.568128 57.865617
5437 1 20.565343 8.317084 62.138938
5438 1 20.318543 10.518360 64.085969
5439 1 22.475405 7.909272 63.863891
5440 1 22.443447 10.231025 62.433650
5441 1 22.915771 11.742810 67.773446
5442 1 26.691154 4.679560 71.984071
5443 1 20.408048 6.194223 67.906756
5444 1 20.825397 9.937120 68.020508
5445 1 26.782463 6.741447 70.257293
5446 1 24.763818 8.346094 69.993957
5447 1 18.655142 1.908684 70.233073
5448 1 26.681210 8.043437 67.981188
5449 1 16.879459 2.201501 72.080383
5450 1 28.420896 30.808584 75.942937
5451 1 24.493875 32.526705 73.953363
5452 1 18.082561 10.275559 74.600613
5453 1 22.005574 7.429278 83.392129
5454 1 23.851498 8.859901 81.866774
5455 1 22.243211 6.170230 78.451243
5456 1 25.748073 3.690490 88.002230
5457 1 17.969602 11.997157 80.636716
5458 1 29.338154 2.538237 81.752492
5459 1 22.778940 10.557832 93.591475
5460 1 14.429268 13.754192 91.638114
5461 1 21.336747 21.149771 91.927456
5462 1 26.386507 20.560661 82.668662
5463 1 24.702743 6.404277 92.203984
5464 1 15.387496 6.542542 86.866314
5465 1 7.885882 8.011578 91.296445
5466 1 23.475373 1.997989 99.247503
5467 1 25.381835 15.914412 92.227180
5468 1 23.263813 18.822873 92.616794
5469 1 0.571224 12.938281 101.121064
5470 1 24.201466 14.439673 95.584002
5471 1 22.837005 15.002825 93.271993
5472 1 14.885659 12.837052 89.003646
5473 1 28.818849 29.798303 94.854512
5474 1 20.371182 11.123372 94.247904
5475 1 28.606147 2.505221 105.438814
5476 1 22.611385 6.200027 97.377689
5477 1 25.073190 6.887337 102.758641
5478 1 19.338883 12.428451 105.952730
5479 1 24.022086 7.587580 105.706544
5480 1 10.577882 8.769127 94.425406
5481 1 19.126698 23.729996 108.548989
5482 1 24.069612 17.963600 105.368852
5483 1 23.310053 11.766921 110.116347
5484 1 18.563052 9.880159 110.183207
5485 1 22.501188 8.715226 107.738315
5486 1 21.690219 5.598025 119.725994
5487 1 23.845490 12.551544 119.531000
5488 1 19.099612 13.896246 108.599657
5489 1 22.092472 17.938062 119.067093
5490 1 19.995066 16.042497 119.091729
5491 1 26.178212 20.657236 121.604707
5492 1 18.408947 17.378862 111.465821
5493 1 19.610961 10.619364 120.774345
5494 1 22.391442 10.185639 131.679175
5495 1 20.244426 1.758871 122.998622
5496 1 17.131799 14.110357 125.709717
5497 1 18.157234 6.171095 123.979513
5498 1 14.767362 12.653025 129.769927
5499 1 22.305847 12.022265 121.647216
5500 1 25.675135 17.038365 115.930793
5501 1 18.364882 10.234309 131.466932
5502 1 22.186863 12.302447 133.780300
5503 1 22.549033 8.461271 133.595478
5504 1 22.481919 8.306079 129.940784
5505 1 20.231552 12.586315 1.055209
5506 1 20.470378 14.950192 3.159009
5507 1 22.356852 12.848348 3.036038
5508 1 22.578502 14.787816 1.152672
5509 1 20.480226 12.841004 5.184414
5510 1 20.716622 14.690877 7.425792
5511 1 22.508878 12.715013 7.282941
5512 1 22.614760 14.531534 5.183436
5513 1 20.543201 12.633042 9.699612
5514 1 20.489890 14.690489 11.623532
5515 1 22.887381 12.506188 11.243977
5516 1 22.523937 14.685349 9.393056
5517 1 20.522293 12.311585 13.095665
5518 1 20.257403 14.496795 15.431809
5519 1 22.502442 12.557891 15.577497
5520 1 22.664736 14.481596 13.369420
5521 1 20.388513 12.315338 17.367999
5522 1 20.656442 14.833514 19.243861
5523 1 22.644026 12.651145 19.461845
5524 1 22.878470 14.483896 17.346645
5525 1 20.788390 12.665148 21.499142
5526 1 20.499932 14.543060 23.239927
5527 1 22.615765 12.648289 23.444216
5528 1 22.687936 14.702501 21.231765
5529 1 20.611810 12.760466 25.505999
5530 1 20.655048 14.629012 27.510762
5531 1 22.581086 12.465712 27.458429
5532 1 22.669053 14.773047 25.671727
5533 1 20.499157 12.843582 29.740993
5534 1 20.494829 14.640448 31.527657
5535 1 22.678904 12.571839 31.850402
5536 1 22.643376 14.481539 29.776195
5537 1 20.619125 12.482183 33.896394
5538 1 20.332524 14.453174 35.650690
5539 1 22.817550 12.439752 35.307647
5540 1 22.575535 14.535609 33.567277
5541 1 20.237385 12.120240 37.839437
5542 1 20.204505 14.565238 39.312551
5543 1 22.518402 12.408828 39.397503
5544 1 22.395398 14.639364 37.485691
5545 1 20.298725 12.704022 41.606715
5546 1 20.506557 14.826516 43.428724
5547 1 22.341323 12.563450 43.636300
5548 1 22.901951 14.506396 41.689709
5549 1 20.472558 12.665468 45.340281
5550 1 20.246960 14.275289 47.494059
5551 1 22.295331 12.367927 47.652164
5552 1 22.784522 14.495380 45.455636
5553 1 20.349662 12.740719 49.756366
5554 1 20.812684 14.591994 51.762900
5555 1 22.557778 12.258769 51.626672
5556 1 23.078222 14.152481 49.744320
5557 1 20.494340 12.446340 53.825130
5558 1 20.752506 14.314388 55.697980
5559 1 22.660470 12.455384 55.678027
5560 1 22.736317 14.591703 53.523388
5561 1 20.357024 11.950532 58.015835
5562 1 20.707696 14.217336 60.031160
5563 1 22.569212 12.040014 60.142619
5564 1 22.523309 14.815401 57.744340
5565 1 20.325923 12.392439 61.977885
5566 1 20.313376 14.355258 64.170448
5567 1 22.264352 12.484671 63.999615
5568 1 22.562710 14.102079 61.826732
5569 1 18.408742 14.279147 66.015890
5570 1 28.246269 4.498966 69.862609
5571 1 22.687133 10.277151 65.314309
5572 1 22.260969 14.302445 66.592528
5573 1 25.038556 13.863237 71.811295
5574 1 16.111925 13.661941 72.373656
5575 1 20.360537 10.475010 72.384953
5576 1 20.453493 16.109470 73.651500
5577 1 20.388020 10.367531 76.030078
5578 1 24.683350 18.420872 72.262200
5579 1 19.937474 7.758077 78.423513
5580 1 16.360883 16.074594 69.978715
5581 1 20.493153 10.910653 83.446415
5582 1 7.916525 4.745033 86.528604
5583 1 28.701560 6.749770 72.272830
5584 1 25.980698 6.608298 73.821383
5585 1 14.295417 15.666962 85.680182
5586 1 23.077506 15.306257 87.260033
5587 1 20.603844 22.974693 80.977572
5588 1 29.785463 14.602863 80.758304
5589 1 30.005376 16.967811 88.155381
5590 1 22.120030 18.498399 95.665210
5591 1 20.696898 9.584981 92.104186
5592 1 26.613367 7.928679 82.821410
5593 1 12.083820 13.325815 92.944900
5594 1 15.495367 21.111620 98.454977
5595 1 20.848185 17.329846 106.407117
5596 1 18.417294 14.737693 87.217489
5597 1 29.592441 17.195119 106.250413
5598 1 17.575332 22.850338 97.141436
5599 1 29.581173 17.689702 100.253844
5600 1 14.513865 23.954253 91.672126
5601 1 27.628102 15.178861 102.408823
5602 1 24.926306 11.860360 89.537233
5603 1 26.522339 6.016720 100.052571
5604 1 20.731248 17.091081 98.151261
5605 1 17.401939 12.202358 101.402085
5606 1 22.442934 18.244107 102.665967
5607 1 24.689118 11.898503 107.687278
5608 1 21.828365 7.585054 104.166815
5609 1 23.057221 9.916255 103.815796
5610 1 2.696510 22.378811 112.554497
5611 1 23.969070 13.507801 105.509958
5612 1 20.706582 12.369140 91.902751
5613 1 15.368946 14.563362 102.489889
5614 1 22.506657 16.576836 113.911856
5615 1 26.372769 5.952471 109.280140
5616 1 18.838067 10.959006 103.650425
5617 1 21.153312 18.709652 116.251364
5618 1 25.179864 9.365467 108.547431
5619 1 24.571111 12.545266 123.696047
5620 1 26.484507 18.515648 112.264008
5621 1 26.578818 14.433655 119.808696
5622 1 18.445782 14.384975 127.894167
5623 1 20.287303 6.946928 125.503078
5624 1 26.291227 12.408930 121.524819
5625 1 26.753173 14.610060 123.552528
5626 1 24.416380 14.719719 133.987808
5627 1 26.344923 14.600683 127.902126
5628 1 29.488431 12.626858 123.969748
5629 1 14.370181 8.232292 129.246450
5630 1 20.409324 16.348283 131.711821
5631 1 24.559963 10.525209 133.751584
5632 1 24.479182 20.326418 127.767517
5633 1 20.031875 16.882010 1.194787
5634 1 20.368206 18.390897 3.451402
5635 1 22.744974 16.646110 3.238859
5636 1 22.367239 18.839150 1.182115
5637 1 20.370029 16.542753 5.320783
5638 1 20.629881 18.762042 7.425359
5639 1 22.663437 16.538035 7.124462
5640 1 22.617203 18.792513 5.621748
5641 1 20.909569 16.654855 9.293428
5642 1 20.503172 18.206854 11.428614
5643 1 22.724834 16.603456 11.663770
5644 1 22.786303 18.743221 9.439798
5645 1 20.892927 16.601520 13.592669
5646 1 20.497146 18.506910 15.718125
5647 1 22.780279 16.615553 15.394578
5648 1 22.831377 18.610444 13.530393
5649 1 20.934743 16.587906 17.369373
5650 1 20.446618 18.770643 19.799860
5651 1 22.692304 16.840037 19.665012
5652 1 22.668246 18.767409 17.320114
5653 1 20.639806 16.442359 21.518568
5654 1 20.244504 18.337809 23.603913
5655 1 22.527666 16.445207 23.395781
5656 1 22.502789 18.412072 21.849283
5657 1 20.757601 16.822064 25.639245
5658 1 20.474683 18.519761 27.599227
5659 1 22.547618 16.574806 27.939287
5660 1 22.401492 18.503908 25.598594
5661 1 20.469410 16.819404 29.711220
5662 1 20.754930 18.632344 31.438103
5663 1 22.853887 16.693551 31.701034
5664 1 22.824284 18.740514 29.734929
5665 1 20.698261 16.680191 33.750377
5666 1 20.407719 18.673688 35.691619
5667 1 22.504744 16.398409 35.516283
5668 1 22.556307 18.591663 33.708204
5669 1 20.255604 16.639674 37.576745
5670 1 20.463452 18.386726 39.612712
5671 1 22.884623 16.677023 39.541451
5672 1 22.544278 18.326396 37.393358
5673 1 20.704649 16.403202 41.292750
5674 1 20.709167 18.463836 43.695496
5675 1 22.574426 16.494392 43.861828
5676 1 22.836257 18.480560 41.535958
5677 1 20.267096 16.225822 45.595297
5678 1 20.558327 18.492155 47.399123
5679 1 22.489379 16.391771 47.436233
5680 1 22.587065 18.734609 45.647695
5681 1 20.768047 16.250803 49.568514
5682 1 20.473393 18.866833 51.804525
5683 1 22.502552 16.434585 51.396790
5684 1 22.478814 18.299320 49.659208
5685 1 20.930128 16.750944 53.622608
5686 1 20.485170 18.784238 55.648483
5687 1 22.631909 16.905062 55.915645
5688 1 22.757898 18.637030 53.702534
5689 1 20.721654 16.908202 57.852036
5690 1 20.814874 18.418996 59.804003
5691 1 22.906181 16.452493 59.991229
5692 1 22.934293 18.887875 57.485124
5693 1 20.495608 16.355925 61.611351
5694 1 20.590192 18.354845 63.859438
5695 1 22.597122 15.825993 64.036987
5696 1 22.464085 18.699257 62.087255
5697 1 26.841957 18.559716 70.073845
5698 1 24.934924 18.185052 68.253795
5699 1 26.218881 12.134154 67.576749
5700 1 22.437972 18.446659 65.955978
5701 1 14.432594 16.581729 76.180372
5702 1 21.432604 17.195627 78.043239
5703 1 18.514094 17.826391 69.570553
5704 1 18.174581 15.933264 67.879223
5705 1 25.052940 9.575336 76.616481
5706 1 29.511249 7.156419 78.456259
5707 1 23.486438 12.074103 76.383148
5708 1 22.477904 19.490020 73.844725
5709 1 19.394924 21.797742 87.053895
5710 1 29.580446 10.285121 88.491964
5711 1 8.927116 19.480811 78.157043
5712 1 26.985446 21.476150 85.003568
5713 1 24.396993 17.594070 81.056086
5714 1 22.480003 21.905735 79.924723
5715 1 27.922899 16.110384 86.325774
5716 1 17.578645 24.531375 90.448094
5717 1 15.134550 28.830703 91.468093
5718 1 23.242314 21.451993 93.983123
5719 1 26.935478 14.178979 83.939261
5720 1 28.627887 12.986689 77.707096
5721 1 28.442721 15.937833 82.715933
5722 1 28.511209 16.308427 95.991958
5723 1 18.268565 6.324588 95.081789
5724 1 20.418229 20.016970 94.048577
5725 1 26.151064 23.940599 88.417676
5726 1 25.154540 11.786921 92.607773
5727 1 28.284078 14.711562 110.500047
5728 1 17.925483 21.646895 94.691247
5729 1 17.628601 15.565587 89.703474
5730 1 26.850904 14.615442 99.891206
5731 1 25.309627 20.019463 102.742404
5732 1 27.238543 23.603158 109.474818
5733 1 28.789531 12.947551 100.965789
5734 1 15.990404 15.880623 105.001860
5735 1 27.399159 24.574074 111.982123
5736 1 28.847875 19.691839 107.417685
5737 1 23.858301 16.482380 107.673768
5738 1 28.064306 19.221097 117.146011
5739 1 32.534667 13.482566 116.276320
5740 1 18.820936 16.710052 116.376302
5741 1 22.358233 24.587371 103.247012
5742 1 14.756720 20.751754 121.877908
5743 1 20.142542 22.771022 125.910415
5744 1 20.763882 21.015968 123.751929
5745 1 18.356478 20.963577 125.657056
5746 1 19.196548 21.017211 121.728307
5747 1 28.786579 18.725204 125.561677
5748 1 23.012663 19.402779 107.448673
5749 1 25.005998 19.759350 116.970472
5750 1 16.654273 20.726672 127.690959
5751 1 14.863835 16.399863 125.775060
5752 1 17.244681 0.313616 123.509487
5753 1 16.469653 11.987704 127.442238
5754 1 16.552954 14.660951 129.769916
5755 1 24.491398 18.723251 130.009690
5756 1 22.308185 14.343747 127.939378
5757 1 22.520981 12.289781 125.484145
5758 1 14.058055 25.094220 129.530719
5759 1 19.978760 18.860389 133.993223
5760 1 22.401767 18.535602 128.021621
5761 1 20.317744 20.906359 1.261845
5762 1 20.679352 22.774389 3.474133
5763 1 22.376826 20.453989 3.303767
5764 1 22.574303 22.749540 1.689408
5765 1 20.473217 20.576870 5.143537
5766 1 20.640264 22.743485 7.635211
5767 1 22.511756 20.812059 7.456507
5768 1 22.799031 22.243584 5.324660
5769 1 20.177734 20.646930 9.376300
5770 1 20.174720 22.340802 11.207316
5771 1 22.055824 20.291060 11.476702
5772 1 22.609280 22.341127 9.352906
5773 1 20.656175 20.218894 13.460726
5774 1 20.326027 22.793313 15.435286
5775 1 22.742057 20.802993 15.486348
5776 1 22.160973 22.422328 13.133444
5777 1 20.728720 20.607653 17.487924
5778 1 20.827799 22.259952 19.403244
5779 1 22.949608 20.529629 19.207864
5780 1 22.535379 22.824910 17.196191
5781 1 20.665832 20.547405 21.712289
5782 1 20.801631 22.776924 23.445311
5783 1 22.610623 20.595164 23.533398
5784 1 22.757432 22.377375 21.429320
5785 1 20.596580 20.389624 25.689767
5786 1 20.540237 22.586040 27.436664
5787 1 22.564321 20.573545 27.576805
5788 1 22.667349 22.726351 25.377817
5789 1 20.969648 20.532954 29.485765
5790 1 20.938220 22.528014 31.389506
5791 1 22.728648 20.704339 31.510628
5792 1 22.759409 22.512430 29.593155
5793 1 20.859698 20.586304 33.354768
5794 1 20.849208 22.571880 35.600955
5795 1 22.647896 20.259636 35.585501
5796 1 22.552842 22.664467 33.236452
5797 1 20.338502 20.610897 37.697703
5798 1 20.638368 22.661036 39.893563
5799 1 22.569712 20.610916 39.397744
5800 1 22.830357 22.610735 37.441614
5801 1 20.869194 20.245269 41.634882
5802 1 20.284614 22.292240 43.441509
5803 1 22.846608 20.460016 43.695318
5804 1 22.449390 22.427099 41.481282
5805 1 20.893203 20.812595 45.451209
5806 1 20.825570 22.487205 47.705164
5807 1 22.450817 20.290100 47.808650
5808 1 22.867971 22.594266 45.835305
5809 1 20.466718 20.445999 49.461321
5810 1 20.575872 22.964430 51.576826
5811 1 22.502762 20.676201 51.499846
5812 1 22.716874 22.772865 49.409122
5813 1 20.524684 20.594130 53.716567
5814 1 20.757672 22.167461 56.058759
5815 1 22.820879 20.676712 55.530050
5816 1 22.630207 22.706490 54.054327
5817 1 20.594176 20.249433 57.970773
5818 1 20.480564 22.475820 59.646563
5819 1 22.433021 20.508222 59.924903
5820 1 23.169567 22.440804 57.911899
5821 1 20.632436 20.471680 61.791542
5822 1 20.945006 22.495975 63.890974
5823 1 22.587517 20.334258 64.153929
5824 1 22.933447 22.474621 61.749679
5825 1 20.811105 20.323566 66.242346
5826 1 22.703357 20.415685 68.283537
5827 1 24.813457 20.593152 69.653292
5828 1 25.114798 22.937287 67.830765
5829 1 18.276820 13.955234 70.223633
5830 1 12.301827 14.143239 68.504843
5831 1 24.575779 26.922608 67.812858
5832 1 23.191344 20.514176 71.740172
5833 1 16.343046 20.208303 65.501485
5834 1 18.025277 18.750887 76.769324
5835 1 21.159084 15.279666 79.305926
5836 1 14.638691 29.438796 86.527124
5837 1 24.032134 27.028997 80.128162
5838 1 16.373858 28.150885 79.899880
5839 1 22.911562 13.001134 79.020703
5840 1 26.688117 24.804237 72.185562
5841 1 17.225022 28.899359 77.486848
5842 1 23.506507 13.341591 85.422379
5843 1 23.272178 17.853408 88.511365
5844 1 18.109202 23.038195 78.876430
5845 1 23.786520 26.427216 86.396753
5846 1 25.079716 23.767690 95.850440
5847 1 26.877246 18.099584 82.559058
5848 1 23.760315 25.368349 94.117493
5849 1 27.432858 11.861568 98.453903
5850 1 19.277703 27.461431 100.161710
5851 1 25.599388 14.600965 103.972841
5852 1 26.498420 17.156437 77.740600
5853 1 15.934636 21.936099 93.063842
5854 1 29.326043 25.006653 105.830049
5855 1 22.123866 23.470485 95.468935
5856 1 4.121115 16.086181 99.884656
5857 1 27.933987 9.959755 105.354824
5858 1 27.927230 11.973799 93.729486
5859 1 26.889245 21.222665 110.772203
5860 1 26.421672 28.407501 99.009498
5861 1 22.225022 26.249832 99.658145
5862 1 26.052693 24.137450 114.560474
5863 1 26.398199 21.697251 107.949906
5864 1 31.415346 32.515356 115.196129
5865 1 14.913784 14.208617 106.483405
5866 1 14.622715 28.970613 121.782313
5867 1 0.215830 31.795131 103.549992
5868 1 22.090238 26.630241 105.225676
5869 1 10.503413 29.143469 125.507061
5870 1 17.060052 29.082711 123.661365
5871 1 19.196960 25.196289 121.504430
5872 1 24.722800 29.360327 123.645155
5873 1 18.976202 16.012333 121.655854
5874 1 24.634986 24.549519 127.716119
5875 1 23.523562 20.923923 120.078978
5876 1 24.058999 18.757130 125.705781
5877 1 18.730171 25.037098 125.767089
5878 1 18.797315 22.740502 128.268037
5879 1 14.443147 18.664891 127.672442
5880 1 18.208970 31.728374 119.723134
5881 1 20.477166 23.024999 130.066133
5882 1 16.407394 18.917840 129.860568
5883 1 22.598095 29.006215 126.026626
5884 1 20.611269 28.657109 127.910748
5885 1 18.411554 20.882547 133.909020
5886 1 20.362549 22.789603 133.911687
5887 1 22.457751 20.945547 134.290219
5888 1 22.371936 16.463181 133.646067
5889 1 20.623779 24.538302 1.411280
5890 1 20.713813 26.968398 3.447441
5891 1 22.532382 24.986974 3.360326
5892 1 22.562760 26.950692 1.554889
5893 1 20.816245 24.703499 5.519965
5894 1 20.594091 26.979166 7.266848
5895 1 22.942163 24.958740 7.436688
5896 1 22.681654 26.790977 5.522098
5897 1 20.377087 24.725521 9.430653
5898 1 20.719658 26.888098 11.378934
5899 1 22.238791 24.640321 11.256293
5900 1 22.590013 26.841783 9.270555
5901 1 20.469609 24.882257 13.231155
5902 1 20.636793 26.800189 15.376737
5903 1 22.478132 24.420630 15.208576
5904 1 22.695117 26.688583 13.160701
5905 1 20.538783 24.766147 17.439765
5906 1 20.887749 26.798345 19.296379
5907 1 22.794570 24.645023 19.418073
5908 1 22.699580 26.632565 17.497284
5909 1 20.943910 24.783525 21.481435
5910 1 20.587420 26.738949 23.442247
5911 1 22.819254 24.456279 23.428135
5912 1 22.948302 26.585477 21.401250
5913 1 20.753342 24.676662 25.709950
5914 1 20.274478 26.693786 27.702514
5915 1 22.641143 24.771899 27.536683
5916 1 22.697349 26.418852 25.322254
5917 1 20.840178 24.752925 29.348830
5918 1 20.722581 26.918433 31.422882
5919 1 22.560820 24.586893 31.705422
5920 1 22.644175 26.703136 29.572756
5921 1 20.767218 24.610898 33.514092
5922 1 20.754045 26.802974 35.497632
5923 1 22.937167 24.708683 35.765436
5924 1 22.810547 26.746117 33.575243
5925 1 20.738275 24.604791 37.780334
5926 1 20.563232 26.901432 39.698738
5927 1 22.919079 24.269812 39.745973
5928 1 22.713596 26.847543 37.781143
5929 1 20.551371 24.703103 41.438567
5930 1 20.641664 26.763719 43.318376
5931 1 22.683193 24.692570 43.273187
5932 1 22.794928 26.631606 41.529514
5933 1 20.553971 24.793677 45.644247
5934 1 20.698512 27.117413 47.275295
5935 1 22.582850 24.771975 47.624727
5936 1 22.491690 26.535587 45.587563
5937 1 20.710175 25.004601 49.486822
5938 1 20.764811 26.661090 51.610746
5939 1 22.648263 24.563420 51.504671
5940 1 22.613719 26.951285 49.515011
5941 1 20.696601 24.882752 53.630365
5942 1 20.625393 27.064920 55.863612
5943 1 22.521854 24.613588 55.912515
5944 1 22.639613 26.894254 53.738075
5945 1 20.738703 24.491221 58.002513
5946 1 20.386045 26.593753 60.004761
5947 1 22.808758 24.618570 59.908296
5948 1 22.682299 26.801086 57.930209
5949 1 20.737624 24.384370 61.807298
5950 1 20.616949 26.646649 63.752351
5951 1 22.463757 24.840967 63.859578
5952 1 22.523036 26.584712 61.919708
5953 1 23.056597 22.604672 65.867004
5954 1 14.249731 26.649159 70.002470
5955 1 20.562037 28.765658 70.040364
5956 1 22.699401 28.962706 67.418064
5957 1 14.397063 0.110514 71.932288
5958 1 20.758936 23.924583 74.209348
5959 1 24.809542 26.718850 72.458844
5960 1 26.615031 22.803258 65.825874
5961 1 17.857463 17.443183 87.354247
5962 1 25.258214 20.376397 74.398156
5963 1 20.911459 22.606395 71.881829
5964 1 2.194810 25.121075 78.843202
5965 1 17.747780 24.561218 81.234277
5966 1 20.889257 2.951162 85.308937
5967 1 18.817460 17.047318 79.128086
5968 1 25.286480 17.195881 75.694356
5969 1 19.799542 28.519119 87.244219
5970 1 13.545376 29.623285 89.111449
5971 1 28.686922 26.904555 81.874705
5972 1 20.322667 23.758362 91.216548
5973 1 25.341451 23.085496 93.438970
5974 1 22.015089 23.119881 86.750656
5975 1 28.535710 1.373467 88.394952
5976 1 15.315805 0.977959 91.995938
5977 1 7.155365 25.326206 85.648554
5978 1 22.264130 30.046700 88.049599
5979 1 29.311569 22.706689 103.931179
5980 1 24.476530 19.643393 95.232137
5981 1 23.974927 23.614952 112.969281
5982 1 26.441092 27.375645 101.493594
5983 1 18.520689 18.954804 97.338567
5984 1 17.240774 26.874091 95.609992
5985 1 28.158624 27.677605 97.422156
5986 1 17.075867 25.184584 100.065682
5987 1 20.854302 22.874857 103.017958
5988 1 19.780689 25.120393 96.067654
5989 1 28.587101 28.994640 101.055172
5990 1 25.418511 31.519361 112.511995
5991 1 30.435835 24.153005 96.683656
5992 1 2.079948 30.181839 104.400474
5993 1 25.426937 26.426008 115.989930
5994 1 22.687170 30.128433 118.828991
5995 1 21.480505 27.992197 117.091869
5996 1 26.481853 3.050319 110.225023
5997 1 17.167811 23.115597 121.434951
5998 1 12.238148 29.700202 117.013643
5999 1 13.836174 32.243069 120.901440
6000 1 24.263917 32.277945 119.370064
6001 1 22.736860 6.999448 112.177547
6002 1 20.154191 1.056360 113.139124
6003 1 19.726389 22.941974 119.496894
6004 1 30.673974 30.809487 127.760734
6005 1 23.006174 1.626440 123.676593
6006 1 17.789156 3.858641 121.869123
6007 1 16.589376 30.459900 130.174663
6008 1 24.457596 22.384906 125.817337
6009 1 25.671738 30.025886 119.693767
6010 1 12.517417 0.139179 127.600817
6011 1 20.509675 18.697971 130.071023
6012 1 29.139934 28.923212 123.703853
6013 1 18.263168 18.579716 132.000982
6014 1 20.429708 26.906325 134.200554
6015 1 22.347895 24.931559 134.043156
6016 1 18.462876 20.784707 129.993328
6017 1 20.839644 28.898646 1.248717
6018 1 20.693453 30.941513 3.208860
6019 1 22.671429 29.068149 3.316427
6020 1 22.618227 30.733862 1.126634
6021 1 20.607179 28.763117 5.451604
6022 1 20.596228 30.880164 7.513166
6023 1 22.731316 28.795795 7.301631
6024 1 22.414138 30.785513 5.318191
6025 1 20.746631 28.927536 9.116247
6026 1 20.772676 30.761025 11.433452
6027 1 22.856238 28.616399 11.296014
6028 1 22.379821 31.135326 9.369133
6029 1 20.509728 28.690387 13.661606
6030 1 20.734073 31.288353 15.545497
6031 1 22.631079 28.842350 15.625193
6032 1 22.629122 30.456947 13.321576
6033 1 20.889365 28.782263 17.410235
6034 1 20.637280 30.822954 19.587854
6035 1 22.617241 28.859823 19.630839
6036 1 22.706848 30.955552 17.404779
6037 1 20.574506 28.800778 21.598185
6038 1 20.788629 30.763641 23.838670
6039 1 22.865704 28.539286 23.291249
6040 1 22.950960 30.685601 21.710556
6041 1 20.537768 28.781851 25.705942
6042 1 20.548646 30.689567 27.870606
6043 1 22.490242 29.050268 27.620338
6044 1 22.857984 30.398792 25.486510
6045 1 20.782646 28.610041 29.627339
6046 1 20.892589 30.656804 31.213386
6047 1 22.774845 28.886972 31.538961
6048 1 22.955282 30.957332 29.613558
6049 1 20.688040 28.794654 33.689517
6050 1 20.835440 30.786208 35.510117
6051 1 22.754976 28.692026 35.371875
6052 1 22.910374 31.033440 33.539802
6053 1 20.992210 28.929091 37.317593
6054 1 21.046847 30.965618 39.501406
6055 1 22.567141 28.752685 39.470345
6056 1 23.012246 30.812663 37.661800
6057 1 20.714120 28.798962 41.670358
6058 1 20.376705 30.924366 43.531001
6059 1 22.807592 28.774327 43.575572
6060 1 22.752622 30.902178 41.554582
6061 1 20.583797 28.791812 45.313984
6062 1 20.518059 30.718943 47.631218
6063 1 22.757752 28.831085 47.577690
6064 1 22.501630 30.724628 45.791352
6065 1 20.263954 28.910428 49.898031
6066 1 20.577738 30.773076 51.686004
6067 1 22.427251 28.786757 51.770073
6068 1 22.657604 30.739879 49.678877
6069 1 20.480114 28.691132 53.825050
6070 1 20.772838 31.003964 56.030059
6071 1 22.631010 28.886785 55.895458
6072 1 22.442443 30.918820 53.826022
6073 1 20.576618 28.797116 57.866331
6074 1 20.554418 30.795292 59.930319
6075 1 22.695478 28.627961 59.790340
6076 1 22.534656 31.136070 57.853331
6077 1 20.483661 28.726890 62.004556
6078 1 20.481129 31.048598 63.939920
6079 1 22.496368 28.934875 63.770105
6080 1 22.620476 30.543851 61.251174
6081 1 18.731556 30.472362 65.940026
6082 1 26.464431 30.965595 74.078244
6083 1 22.411275 30.440741 69.784827
6084 1 22.575798 30.972172 65.863981
6085 1 16.540199 32.585293 70.021302
6086 1 13.808623 0.291522 83.400432
6087 1 18.914732 24.557658 75.752289
6088 1 20.453474 30.717800 72.031639
6089 1 28.526931 7.058313 84.558868
6090 1 20.636109 26.357279 75.811326
6091 1 24.425297 28.458042 70.185065
6092 1 20.387951 0.220349 69.959743
6093 1 22.957881 24.862375 81.967805
6094 1 22.925524 27.017618 83.764765
6095 1 19.098364 20.350517 78.978567
6096 1 31.965893 20.181191 84.317417
6097 1 21.327672 22.468085 89.129651
6098 1 22.351955 29.375209 90.555858
6099 1 32.358755 31.102900 81.399652
6100 1 19.228090 27.804491 78.565392
6101 1 26.434918 28.945314 95.859336
6102 1 27.836752 2.684393 102.707495
6103 1 28.039526 22.523379 92.614815
6104 1 12.024134 20.560135 94.689115
6105 1 24.688430 24.039432 86.171250
6106 1 19.072384 30.603544 98.823732
6107 1 21.913062 27.647295 102.392595
6108 1 30.292924 31.956378 98.119527
6109 1 12.946342 21.018844 99.258524
6110 1 14.272748 31.497442 91.478223
6111 1 20.605859 30.623059 104.223827
6112 1 20.959856 32.561094 100.326791
6113 1 25.002724 0.038574 103.310648
6114 1 21.321283 28.477115 111.002914
6115 1 20.828171 32.412967 97.762526
6116 1 13.278802 25.481833 104.595603
6117 1 15.809622 30.256656 106.090118
6118 1 19.468202 9.311836 98.017526
6119 1 29.251000 28.042482 103.298176
6120 1 28.977524 0.341975 113.877492
6121 1 23.719119 28.770705 113.462074
6122 1 16.923079 24.354226 110.112369
6123 1 22.790397 25.642038 115.875993
6124 1 10.201084 25.033498 117.943867
6125 1 11.553955 32.384845 117.962643
6126 1 1.642304 29.751715 108.346322
6127 1 15.780923 26.564328 112.771508
6128 1 23.454581 1.260409 106.666135
6129 1 24.111434 10.284774 126.083340
6130 1 18.405026 1.031683 115.282461
6131 1 14.853015 1.899263 119.041874
6132 1 22.279471 10.809560 127.682288
6133 1 22.006245 31.860325 123.684183
6134 1 10.403265 2.212298 118.961021
6135 1 24.889419 28.619584 127.809025
6136 1 18.426492 30.686718 128.175199
6137 1 26.109984 27.641434 121.300351
6138 1 26.674717 0.870478 129.739096
6139 1 20.410126 20.775884 131.860019
6140 1 29.214814 30.937717 125.537152
6141 1 20.595184 28.736646 131.754133
6142 1 20.643900 30.870305 133.700578
6143 1 22.430931 28.834691 133.551160
6144 1 22.817202 4.417028 129.406581
6145 1 24.691747 0.346497 1.348834
6146 1 24.666779 2.260923 3.136507
6147 1 26.658191 0.427503 3.129743
6148 1 26.672624 2.408256 1.118670
6149 1 24.507412 0.458049 5.243061
6150 1 24.624934 2.121639 7.387697
6151 1 26.508333 0.543893 7.422882
6152 1 26.481074 2.390642 5.151616
6153 1 24.537881 32.534717 9.811959
6154 1 24.545887 2.261343 11.279805
6155 1 26.648687 0.580400 11.334450
6156 1 26.975637 2.558182 9.435605
6157 1 24.726095 0.512383 13.266870
6158 1 24.575541 2.689386 15.380280
6159 1 26.674677 0.782634 15.555485
6160 1 26.732079 2.445195 13.617776
6161 1 24.705837 0.293440 17.201652
6162 1 24.679956 2.530304 19.445126
6163 1 26.316064 0.359478 19.339513
6164 1 26.841903 2.681703 17.382272
6165 1 24.553115 0.555332 21.393585
6166 1 24.268700 2.221663 23.542195
6167 1 26.191914 0.427583 23.648313
6168 1 26.446212 2.431341 21.580392
6169 1 24.403968 0.357554 25.788180
6170 1 24.936104 2.324112 27.464039
6171 1 26.645363 0.172071 27.193638
6172 1 26.824885 2.528810 25.285488
6173 1 24.936054 0.313645 29.369928
6174 1 24.906283 1.960635 31.586925
6175 1 26.962066 0.282862 31.720174
6176 1 27.219116 2.179437 29.085278
6177 1 25.277530 0.296801 33.869846
6178 1 24.700234 2.288022 35.679299
6179 1 27.036862 0.264863 35.711227
6180 1 26.738051 2.410942 33.569444
6181 1 24.627436 0.195266 37.663094
6182 1 24.872364 2.299405 39.534438
6183 1 26.780439 0.355551 39.393588
6184 1 26.739260 2.108230 37.728841
6185 1 24.815054 0.237335 41.559385
6186 1 24.566488 2.391098 43.197975
6187 1 26.707795 32.388597 43.715332
6188 1 26.722242 1.970401 41.768202
6189 1 25.022993 0.284507 45.834585
6190 1 24.272702 2.144164 47.423004
6191 1 26.379966 0.680559 48.244695
6192 1 26.581727 2.282167 45.625437
6193 1 24.438054 0.390701 49.801744
6194 1 24.344658 2.491429 51.657786
6195 1 26.446659 0.515635 51.568549
6196 1 26.524748 2.521968 49.920983
6197 1 24.743214 0.266729 53.690228
6198 1 24.302463 2.399643 55.684612
6199 1 26.955954 0.495289 55.957691
6200 1 26.815707 2.308088 53.624028
6201 1 24.588074 0.487720 57.619991
6202 1 24.609726 2.607447 59.489343
6203 1 26.732323 0.488730 59.376714
6204 1 26.650434 2.481154 57.591575
6205 1 24.858048 0.346654 61.459733
6206 1 24.509141 1.908749 63.918551
6207 1 26.620993 0.234726 63.875348
6208 1 26.892451 2.232893 61.361235
6209 1 20.228454 3.999402 70.170486
6210 1 24.799097 4.162866 66.239847
6211 1 28.775405 2.535869 72.972760
6212 1 26.713867 2.385965 70.747576
6213 1 22.511971 2.038502 74.147070
6214 1 17.848179 4.341092 82.267222
6215 1 30.675719 28.511467 71.995065
6216 1 24.925802 8.208220 65.869475
6217 1 23.171764 2.044680 78.679985
6218 1 28.836053 21.994330 72.517721
6219 1 23.627357 29.275138 82.006754
6220 1 31.002036 3.027554 74.817704
6221 1 1.770748 23.851443 87.114385
6222 1 25.295629 30.630555 80.646908
6223 1 31.191861 17.625161 78.926413
6224 1 26.498862 0.405515 76.175247
6225 1 24.433588 20.740446 81.284097
6226 1 22.665510 0.135825 76.038383
6227 1 19.001064 18.797614 84.743236
6228 1 26.880862 27.688793 79.990144
6229 1 17.436132 1.104143 90.387522
6230 1 30.207786 25.789030 89.499591
6231 1 19.384720 31.820386 88.589022
6232 1 22.506610 28.579878 75.805697
6233 1 2.228940 2.729742 81.103685
6234 1 1.421544 31.668439 99.090965
6235 1 24.827529 30.836471 100.940967
6236 1 24.767314 28.091257 92.722269
6237 1 21.600692 30.643526 93.521541
6238 1 11.527184 10.122118 97.382876
6239 1 2.661273 6.574212 96.866524
6240 1 28.217667 0.280886 96.539966
6241 1 17.629526 28.080710 110.901182
6242 1 2.529019 1.203138 111.480151
6243 1 2.998050 11.612257 102.789008
6244 1 8.411994 31.317437 113.211821
6245 1 3.529515 29.497605 107.295175
6246 1 20.620065 6.083352 113.710331
6247 1 30.188115 28.772230 98.804892
6248 1 0.707435 4.955301 107.453537
6249 1 18.784364 0.858917 96.414054
6250 1 19.935156 4.370182 106.195990
6251 1 22.721225 29.125372 105.231164
6252 1 4.562211 1.719541 118.939392
6253 1 26.596822 26.173882 108.517741
6254 1 1.616783 2.718344 109.100115
6255 1 26.946190 32.592979 118.417048
6256 1 24.976367 0.724280 116.042973
6257 1 26.397868 29.012266 114.090816
6258 1 17.999579 8.045008 125.891467
6259 1 19.867410 1.898453 120.348974
6260 1 32.353022 30.763314 109.955954
6261 1 21.816534 8.386121 121.067846
6262 1 30.886201 6.202915 123.492097
6263 1 26.683028 4.355767 129.881712
6264 1 26.406903 6.532183 127.625251
6265 1 2.696702 2.544478 123.897907
6266 1 22.945172 4.003768 121.837972
6267 1 28.647505 2.182129 125.508285
6268 1 24.277674 10.270050 121.736583
6269 1 28.772014 30.770583 130.092707
6270 1 24.157076 2.015724 134.010959
6271 1 26.640473 0.239636 133.925222
6272 1 26.793597 2.618985 131.941672
6273 1 24.312636 4.149116 0.838814
6274 1 24.545109 6.350194 2.872549
6275 1 26.524960 4.432009 2.810877
6276 1 26.703064 6.579865 0.930133
6277 1 24.468229 4.117881 5.165709
6278 1 24.574781 6.245769 7.109119
6279 1 26.552580 4.156467 7.113099
6280 1 26.699049 6.294175 5.064506
6281 1 24.578531 4.240783 9.272939
6282 1 24.648750 6.256097 11.316121
6283 1 26.431798 4.132425 11.570239
6284 1 26.414650 5.960749 9.301873
6285 1 24.410425 4.499867 13.504608
6286 1 24.665267 6.546929 15.030125
6287 1 26.637841 4.362365 15.510444
6288 1 26.823737 6.815844 13.332273
6289 1 24.493629 4.672969 17.220354
6290 1 24.729516 6.379605 19.812510
6291 1 26.594815 4.360864 19.781596
6292 1 26.626280 6.296992 17.538255
6293 1 24.510348 4.664505 21.581152
6294 1 24.543352 6.599169 23.518238
6295 1 26.500722 4.545858 23.343983
6296 1 26.529497 6.548439 21.616035
6297 1 24.715036 4.398922 25.614193
6298 1 24.630241 6.187427 27.474150
6299 1 26.818752 4.346434 27.522405
6300 1 26.723181 6.191738 25.407651
6301 1 25.163531 3.879874 29.733984
6302 1 24.721687 6.568512 31.736772
6303 1 26.949251 4.312091 31.691151
6304 1 26.829955 6.235196 29.498013
6305 1 24.786957 4.307984 33.792478
6306 1 24.709635 6.394208 35.837117
6307 1 26.817798 4.293092 35.681195
6308 1 26.476512 6.387122 33.686988
6309 1 24.859163 4.248610 37.633315
6310 1 24.363709 6.286682 39.466648
6311 1 26.645823 4.173487 39.775362
6312 1 26.726130 6.192875 37.550547
6313 1 24.497937 4.276359 41.756589
6314 1 24.704891 6.045575 43.603547
6315 1 26.667960 4.241576 43.337612
6316 1 26.766508 6.093559 41.561617
6317 1 24.623378 4.214620 45.871095
6318 1 24.582847 6.424038 47.835330
6319 1 26.464358 4.126766 47.863349
6320 1 26.973906 6.333505 45.208420
6321 1 24.494059 4.463630 49.672765
6322 1 24.708513 6.110428 52.008649
6323 1 26.483469 4.140037 51.712992
6324 1 26.721178 6.618617 49.444254
6325 1 24.623709 4.127573 53.978257
6326 1 24.329582 6.387342 55.796775
6327 1 26.484977 4.460983 55.653421
6328 1 26.574040 6.345817 53.772190
6329 1 24.691115 4.469736 57.594137
6330 1 24.844994 6.590645 60.032564
6331 1 26.788645 4.337582 59.870681
6332 1 26.607505 6.223656 57.820383
6333 1 24.818588 3.873154 61.737131
6334 1 25.016580 6.138460 63.982592
6335 1 26.416330 3.832546 63.919447
6336 1 26.698442 6.407798 61.893045
6337 1 22.213436 4.518915 68.366640
6338 1 29.028462 11.871379 70.196308
6339 1 30.550339 10.310013 66.338202
6340 1 24.855204 6.207135 68.068012
6341 1 30.676969 30.944318 73.828237
6342 1 14.879545 4.041544 81.060056
6343 1 3.011970 3.341987 76.762312
6344 1 26.965453 3.871938 67.724997
6345 1 30.435422 0.205880 75.957961
6346 1 30.351051 0.115992 80.326948
6347 1 32.025244 23.971079 85.207203
6348 1 4.769030 31.184583 76.092000
6349 1 30.192847 2.604094 84.304944
6350 1 28.685134 29.955820 80.137792
6351 1 24.231191 32.075708 78.289696
6352 1 31.664054 1.167137 82.231181
6353 1 26.580008 25.183415 81.027111
6354 1 17.200302 5.174543 88.187104
6355 1 25.338895 1.434057 89.365403
6356 1 26.657597 28.309614 75.955850
6357 1 24.315831 2.209416 86.636323
6358 1 20.831147 4.045309 90.388227
6359 1 0.732337 29.712395 91.025189
6360 1 26.232180 1.903726 97.849944
6361 1 22.462555 4.038254 88.089109
6362 1 19.429921 8.708365 94.725612
6363 1 31.139710 30.767656 95.619067
6364 1 0.442349 17.628889 99.534811
6365 1 18.738095 11.782063 85.683032
6366 1 16.820413 2.305203 93.509338
6367 1 19.329909 27.833940 94.304970
6368 1 21.122295 11.311627 102.006978
6369 1 31.830661 2.733971 105.271164
6370 1 31.276646 5.181853 104.400355
6371 1 19.270623 6.890571 106.016885
6372 1 24.710362 1.263369 92.630782
6373 1 0.089204 30.821767 93.787452
6374 1 2.924918 3.593216 100.974712
6375 1 3.267199 32.392479 101.312195
6376 1 30.162916 0.151428 107.703472
6377 1 20.872612 0.720815 115.906542
6378 1 23.259344 7.484582 118.786322
6379 1 31.919343 5.481985 115.805261
6380 1 27.753127 0.139193 103.389306
6381 1 27.287099 4.601502 112.075665
6382 1 22.617467 7.167018 115.584161
6383 1 1.384283 0.486194 119.137406
6384 1 16.981768 16.814598 119.361504
6385 1 23.668895 9.910507 116.723311
6386 1 24.744296 5.929836 113.616635
6387 1 22.266890 4.644831 116.855144
6388 1 31.303448 1.464703 112.935087
6389 1 24.289673 7.155854 121.091700
6390 1 26.531407 31.062092 128.137765
6391 1 20.132995 6.593640 122.044749
6392 1 30.237754 11.688659 117.250492
6393 1 28.896496 2.755683 129.957268
6394 1 20.545447 4.238230 127.730084
6395 1 28.897253 4.786530 127.477473
6396 1 26.317014 8.656365 129.568819
6397 1 29.041548 4.515366 131.995958
6398 1 24.454464 6.213836 133.405834
6399 1 26.844919 4.352584 134.084526
6400 1 0.000600 6.610770 133.716804
6401 1 24.588648 8.450800 1.089073
6402 1 24.506153 10.486263 3.273555
6403 1 26.509055 8.585076 3.113590
6404 1 26.933882 10.506034 1.071635
6405 1 24.802611 8.473314 5.208783
6406 1 24.529933 10.301602 7.097041
6407 1 26.891873 8.329461 7.094123
6408 1 26.823737 10.463331 4.969798
6409 1 24.345463 7.979008 9.045318
6410 1 24.462564 10.521106 11.357178
6411 1 26.501601 8.482404 10.888795
6412 1 26.527162 10.510160 9.198643
6413 1 24.530679 8.212129 13.182038
6414 1 24.526948 10.666922 15.059223
6415 1 26.473578 8.524725 15.458286
6416 1 26.562910 10.238524 13.145802
6417 1 24.640134 8.638219 17.681646
6418 1 24.466320 10.699658 19.482283
6419 1 26.843420 8.328634 19.445405
6420 1 26.803168 10.373457 17.355219
6421 1 24.830762 8.692541 21.284514
6422 1 24.579941 10.737921 23.539309
6423 1 26.675957 8.706865 24.131174
6424 1 26.832879 10.275531 21.628673
6425 1 24.719496 8.893636 25.831479
6426 1 24.719938 10.522228 27.708078
6427 1 26.742452 8.414356 27.529483
6428 1 26.941011 10.716605 25.715672
6429 1 24.979611 8.329370 29.676350
6430 1 25.005753 10.256879 31.697380
6431 1 27.220053 8.280183 31.339267
6432 1 26.695349 10.411117 29.421837
6433 1 24.803247 8.484699 33.798209
6434 1 24.804189 10.187272 35.582699
6435 1 27.127638 8.377394 35.693781
6436 1 26.723392 10.498209 33.715206
6437 1 24.549257 8.244209 37.491955
6438 1 24.343039 10.426201 39.362781
6439 1 26.910249 8.238364 39.311013
6440 1 26.698313 10.569454 37.554121
6441 1 24.714195 8.539066 41.425772
6442 1 24.327867 10.420309 43.376900
6443 1 26.656914 8.319543 43.310187
6444 1 26.779442 10.419141 41.575300
6445 1 24.706014 8.170295 45.482650
6446 1 24.278789 10.452454 47.254282
6447 1 26.859469 8.333745 47.461184
6448 1 26.533936 10.347377 45.439105
6449 1 24.662567 8.742561 49.423625
6450 1 24.545291 10.480868 51.874160
6451 1 26.733645 8.447425 51.742996
6452 1 26.845588 10.552417 49.452911
6453 1 24.635041 8.313031 53.781300
6454 1 24.622373 10.376069 55.888811
6455 1 26.957247 7.966037 55.624155
6456 1 26.778361 10.469432 53.908785
6457 1 25.156565 8.391148 58.075704
6458 1 24.508034 10.321734 59.823001
6459 1 27.076001 8.592277 59.901319
6460 1 26.617583 10.581539 57.686411
6461 1 24.652120 8.496969 61.918836
6462 1 24.920162 10.251360 64.004978
6463 1 26.932444 8.333640 64.107022
6464 1 26.759906 10.314339 61.963899
6465 1 27.101788 15.890208 71.796425
6466 1 24.943117 10.314958 71.983029
6467 1 26.670644 10.420403 65.802776
6468 1 28.746822 8.531392 66.277327
6469 1 22.465843 6.267003 74.046802
6470 1 22.766163 14.201590 73.837690
6471 1 31.954718 6.062568 78.624423
6472 1 24.875940 16.100257 70.145909
6473 1 29.603144 32.182023 82.888000
6474 1 20.329382 4.354934 74.356623
6475 1 27.814501 30.897595 84.574042
6476 1 15.931767 8.766756 74.466544
6477 1 27.528190 32.183654 81.017551
6478 1 29.507384 9.375865 85.909304
6479 1 30.468141 8.659588 82.377625
6480 1 24.294806 8.154219 79.246189
6481 1 21.810652 0.021756 79.370542
6482 1 24.136685 9.971226 87.171299
6483 1 30.187564 12.880693 91.790033
6484 1 30.643056 23.873116 83.054934
6485 1 25.865962 27.525236 86.233637
6486 1 2.600393 14.017413 85.471502
6487 1 0.377495 8.582913 77.300742
6488 1 28.204093 3.718838 89.854873
6489 1 23.009590 3.971268 92.407625
6490 1 21.187914 6.776946 91.317896
6491 1 20.945142 11.151723 99.375288
6492 1 31.279588 10.648246 94.070244
6493 1 21.637193 1.008972 92.726340
6494 1 30.509254 6.122666 94.720399
6495 1 29.074859 8.365649 100.116848
6496 1 2.883056 10.567650 96.129589
6497 1 24.148353 8.722905 95.706964
6498 1 30.286166 3.724122 101.582470
6499 1 0.095867 28.549228 95.026662
6500 1 28.615603 5.303241 104.192874
6501 1 29.265080 7.740857 106.241374
6502 1 1.693839 9.409343 107.877126
6503 1 1.074205 7.169484 108.987902
6504 1 15.429039 32.053866 101.909549
6505 1 24.910704 9.830665 105.745734
6506 1 24.477643 16.987960 119.535434
6507 1 28.702479 12.980540 119.649220
6508 1 24.980065 16.698556 113.274102
6509 1 21.803134 6.288718 106.892552
6510 1 16.977816 3.238726 115.139469
6511 1 0.325981 10.370264 122.169095
6512 1 0.200889 3.247271 111.455053
6513 1 24.811693 8.208056 123.647034
6514 1 24.433637 14.289802 121.544573
6515 1 32.594620 10.843212 118.115860
6516 1 30.210255 8.511340 121.884972
6517 1 26.458027 12.518680 129.674083
6518 1 18.132118 6.400996 127.628065
6519 1 26.267703 12.126149 118.517890
6520 1 24.179521 8.221136 127.862356
6521 1 30.916487 4.523421 129.525975
6522 1 18.023498 12.384763 129.704012
6523 1 26.291130 10.391742 123.957679
6524 1 28.140708 10.258226 119.368407
6525 1 24.498739 8.316564 131.558669
6526 1 26.179968 10.522699 127.577408
6527 1 26.437766 8.504137 133.385662
6528 1 24.309237 12.183783 131.641623
6529 1 24.566830 12.481063 1.360465
6530 1 24.818685 14.516237 3.169692
6531 1 26.893345 12.429777 3.038811
6532 1 26.976783 14.528256 1.173450
6533 1 24.668160 12.468261 5.115287
6534 1 24.591633 14.601178 7.054667
6535 1 26.319103 12.325099 7.305419
6536 1 26.819426 14.206924 5.305285
6537 1 24.492441 12.486085 9.200691
6538 1 24.864511 14.612612 11.231981
6539 1 26.632840 12.573214 10.908685
6540 1 26.793482 14.551770 8.901590
6541 1 24.830928 12.500578 13.235398
6542 1 24.804383 14.757019 15.206801
6543 1 26.907446 12.447344 15.455571
6544 1 26.679439 14.667551 13.573631
6545 1 25.017760 12.686756 17.135762
6546 1 24.488718 14.835294 19.254430
6547 1 26.601322 12.537825 19.434967
6548 1 26.708588 14.638868 17.456842
6549 1 24.858186 12.983611 21.506586
6550 1 24.470094 14.637831 23.513566
6551 1 26.575091 12.437988 23.581989
6552 1 26.904815 14.674916 21.625135
6553 1 24.799142 12.557911 25.592012
6554 1 24.509756 14.547913 27.826298
6555 1 26.564638 12.607023 27.576724
6556 1 26.603128 14.616130 25.128735
6557 1 24.778008 12.539339 29.696215
6558 1 24.727131 14.576508 31.825725
6559 1 26.759854 12.245144 31.853335
6560 1 26.565686 14.329523 29.859661
6561 1 24.912739 12.360928 33.836786
6562 1 24.944080 14.296718 35.596683
6563 1 27.029224 12.146855 35.672559
6564 1 26.817065 14.306087 33.526883
6565 1 24.698212 12.199574 37.373165
6566 1 24.654838 14.216257 39.520054
6567 1 26.614449 12.139776 39.557168
6568 1 26.922864 14.489540 37.776279
6569 1 24.269028 12.065295 41.479382
6570 1 24.609258 14.836982 43.388555
6571 1 26.051836 12.318971 43.200482
6572 1 26.428289 14.430845 41.512771
6573 1 24.681561 12.341123 45.803517
6574 1 24.650266 14.299765 47.516992
6575 1 26.664618 12.363527 47.561077
6576 1 26.285351 14.184739 45.330392
6577 1 24.585534 11.949585 49.657061
6578 1 24.734544 14.291620 51.713516
6579 1 26.733472 12.340667 51.912777
6580 1 26.691188 14.305220 49.601077
6581 1 24.704000 12.632218 53.829455
6582 1 24.391412 14.598697 56.091335
6583 1 26.713755 12.549935 55.781537
6584 1 26.987544 14.426278 53.780309
6585 1 24.639167 12.377581 57.842475
6586 1 24.527435 14.360013 59.945561
6587 1 26.487005 12.328989 59.755261
6588 1 26.882535 14.632525 58.025752
6589 1 24.455369 12.093612 62.049255
6590 1 24.535827 14.086171 63.412579
6591 1 26.345187 12.522215 63.907245
6592 1 26.945824 14.034483 61.985368
6593 1 22.602488 8.028280 67.532297
6594 1 30.903446 5.887826 74.005542
6595 1 24.862750 9.996395 68.055189
6596 1 26.349120 14.489394 65.905285
6597 1 22.801461 16.296956 68.119152
6598 1 24.703902 14.459558 67.975523
6599 1 30.917337 10.049957 74.469345
6600 1 24.411179 4.236248 74.088422
6601 1 25.281064 5.859183 78.279951
6602 1 21.552009 20.067386 78.086809
6603 1 26.196359 12.020573 76.316177
6604 1 18.849377 7.756957 81.885136
6605 1 30.014695 4.939192 80.164473
6606 1 31.650506 6.452570 81.688275
6607 1 32.533213 15.751584 74.641405
6608 1 9.554727 32.564594 89.173980
6609 1 28.210291 4.862507 74.352821
6610 1 29.020753 9.567279 94.355699
6611 1 3.741744 4.420072 79.109381
6612 1 1.083089 18.141953 80.568395
6613 1 20.783773 13.641782 86.478877
6614 1 23.302095 20.151149 90.338870
6615 1 27.847266 7.874498 87.533412
6616 1 3.132672 12.515056 76.101499
6617 1 23.807566 3.906226 82.684862
6618 1 23.928742 7.737546 85.214264
6619 1 30.267899 9.995753 109.820560
6620 1 31.479380 15.327478 91.503164
6621 1 23.195553 5.968673 101.147784
6622 1 25.563046 8.395863 88.558094
6623 1 26.002294 12.767100 101.536448
6624 1 2.871016 21.835560 101.008459
6625 1 17.486234 15.447524 100.948569
6626 1 30.937625 19.211335 102.325078
6627 1 23.954991 11.319997 95.624650
6628 1 27.684850 10.447654 100.758738
6629 1 27.412092 6.933981 97.937747
6630 1 26.979444 21.546242 116.003238
6631 1 29.720153 6.650966 102.379734
6632 1 31.592178 22.171366 104.568038
6633 1 23.838368 10.355991 98.410414
6634 1 24.209321 10.847817 112.644061
6635 1 29.405901 6.843080 108.522377
6636 1 16.281220 1.618362 108.408321
6637 1 24.532836 8.801563 110.969496
6638 1 12.850543 19.833853 117.240423
6639 1 25.029463 9.555405 118.961878
6640 1 2.249390 12.689158 122.368977
6641 1 24.345444 14.408024 125.662509
6642 1 18.396702 16.625480 125.698541
6643 1 20.499583 8.826603 127.745810
6644 1 11.512068 23.980268 115.459460
6645 1 30.331431 7.997061 125.430648
6646 1 24.568191 12.486804 127.568598
6647 1 22.470230 16.196394 125.821251
6648 1 27.489074 16.396139 117.539114
6649 1 28.353276 8.763208 131.633377
6650 1 22.505720 16.711893 130.047594
6651 1 27.011445 12.578825 125.493809
6652 1 22.056580 10.167792 119.312108
6653 1 20.151669 12.460595 131.861997
6654 1 19.842370 14.532933 133.950182
6655 1 26.614094 10.662948 131.700784
6656 1 26.508516 14.651180 131.779534
6657 1 24.634860 16.978873 1.279625
6658 1 24.711509 18.599695 3.383725
6659 1 26.727332 16.699427 3.414077
6660 1 26.772242 18.486076 0.981780
6661 1 24.593733 16.535121 5.238338
6662 1 24.727153 18.464885 7.406796
6663 1 26.684553 16.441810 7.090674
6664 1 26.799135 18.617597 5.447129
6665 1 24.636672 16.278464 9.259747
6666 1 24.873317 18.316030 11.351926
6667 1 26.899994 16.324566 11.407974
6668 1 27.002083 18.526095 9.341645
6669 1 24.804121 16.833867 13.218503
6670 1 24.748522 18.739893 15.384007
6671 1 26.724275 16.795255 15.443990
6672 1 26.574340 18.560850 13.119928
6673 1 24.737205 16.618051 17.385764
6674 1 24.959951 18.672175 19.209137
6675 1 26.769045 16.214119 19.605100
6676 1 26.850273 18.556471 17.465096
6677 1 24.938976 16.623441 21.302020
6678 1 24.551214 18.675295 23.872563
6679 1 26.642605 16.843097 23.471470
6680 1 26.595757 18.649614 21.304833
6681 1 24.727298 16.428284 25.610008
6682 1 24.767279 18.304653 27.290996
6683 1 26.648909 16.227667 27.621620
6684 1 26.928010 18.479021 25.510517
6685 1 24.779434 16.543279 29.710562
6686 1 24.612640 18.567054 31.613116
6687 1 26.520440 16.457537 31.969563
6688 1 26.530311 18.402290 29.536603
6689 1 24.801264 16.453207 33.852346
6690 1 24.506228 18.390279 35.526099
6691 1 26.569092 16.596224 35.691967
6692 1 26.801136 18.573706 33.699834
6693 1 24.498416 16.244853 37.489892
6694 1 24.802632 18.604889 39.611008
6695 1 26.697293 16.365078 39.738222
6696 1 26.763106 18.639644 37.559180
6697 1 25.035087 16.716938 41.604864
6698 1 24.704905 18.432601 43.744915
6699 1 26.762371 16.490829 43.804777
6700 1 26.716219 18.478006 41.589100
6701 1 24.862927 16.485973 45.890006
6702 1 24.526054 18.482448 47.755612
6703 1 26.642176 16.250879 47.717834
6704 1 26.784758 18.270633 45.898257
6705 1 24.278608 16.364430 49.379007
6706 1 24.672955 18.434279 51.595838
6707 1 26.516503 16.358122 51.682223
6708 1 26.622782 18.789347 49.694265
6709 1 24.466597 16.435888 54.011386
6710 1 25.353257 18.788586 55.790570
6711 1 26.556534 16.377835 55.616087
6712 1 26.461988 18.323918 53.500887
6713 1 24.767994 16.307512 57.730950
6714 1 24.745551 18.203214 59.758513
6715 1 26.784134 16.467174 60.061791
6716 1 26.891067 18.552554 57.964418
6717 1 24.722720 16.846919 61.952929
6718 1 24.199404 18.404387 63.960597
6719 1 26.105051 16.056640 63.847738
6720 1 26.726704 18.603876 61.996050
6721 1 26.815098 18.529335 66.574682
6722 1 24.453785 16.639373 66.164565
6723 1 30.940403 11.991496 72.478449
6724 1 26.667678 13.425049 69.817827
6725 1 28.890281 18.293658 68.309863
6726 1 26.944283 17.867755 73.793270
6727 1 22.625395 14.208817 70.023506
6728 1 24.940378 15.694904 73.564936
6729 1 22.432714 9.430957 77.547975
6730 1 20.079171 20.649508 73.718910
6731 1 32.398453 12.935615 84.319337
6732 1 26.747151 7.101687 76.200454
6733 1 18.133404 13.826880 73.998305
6734 1 22.664648 21.928839 82.893830
6735 1 30.703557 19.790555 86.988164
6736 1 28.297318 26.432412 87.238645
6737 1 28.846534 20.571144 78.927580
6738 1 26.643373 2.014037 81.911337
6739 1 22.259587 32.120719 90.100186
6740 1 25.917837 5.310478 96.849551
6741 1 23.936610 6.576713 87.720889
6742 1 22.652822 13.554817 90.758233
6743 1 25.728129 14.910473 85.912512
6744 1 1.327169 14.028306 90.105580
6745 1 26.510334 9.613299 92.524988
6746 1 27.630393 25.126165 92.850714
6747 1 31.036668 12.525736 89.411957
6748 1 19.581639 17.258019 95.484685
6749 1 28.127792 16.985849 92.888336
6750 1 28.906506 17.311254 103.185624
6751 1 32.359396 20.082501 94.709746
6752 1 24.837244 15.746716 97.833659
6753 1 27.551406 24.877182 103.982306
6754 1 25.801488 17.084691 109.902378
6755 1 21.735134 9.882219 96.199245
6756 1 30.906466 12.374549 98.752009
6757 1 27.495064 22.248242 113.628754
6758 1 28.586184 26.480231 110.591383
6759 1 0.389202 23.032752 108.054540
6760 1 25.564675 25.991374 98.277972
6761 1 28.792093 22.301376 106.195521
6762 1 27.701453 12.593243 103.591589
6763 1 26.664991 7.009609 112.007520
6764 1 21.996418 18.541046 123.603956
6765 1 23.138938 21.076366 104.003819
6766 1 29.752460 14.509540 114.742691
6767 1 2.387032 11.651248 112.891340
6768 1 18.492103 22.277898 110.823529
6769 1 30.896771 16.248192 120.716817
6770 1 23.097760 21.521654 108.533108
6771 1 26.173614 17.196014 121.318317
6772 1 24.424984 23.858427 117.181066
6773 1 20.538123 20.416283 119.047054
6774 1 29.810403 18.711230 119.446993
6775 1 28.727560 14.664370 122.043499
6776 1 29.602248 16.779771 115.858744
6777 1 24.583143 20.526544 123.757666
6778 1 24.406791 16.370445 127.930081
6779 1 29.420314 17.176356 110.709706
6780 1 28.379854 5.926423 124.860606
6781 1 18.236386 16.889072 129.867356
6782 1 24.727649 18.777600 133.833929
6783 1 26.758905 16.428483 133.871520
6784 1 26.962663 20.732095 133.788910
6785 1 24.806122 20.610218 1.239519
6786 1 24.780638 22.724278 3.030091
6787 1 26.659690 20.582225 3.347318
6788 1 27.025764 22.513838 1.192633
6789 1 24.725342 20.568269 5.239377
6790 1 24.602329 22.746895 7.513621
6791 1 26.415133 20.800195 7.407100
6792 1 26.527530 22.501071 5.236035
6793 1 24.778111 20.565301 9.414313
6794 1 24.477085 22.809816 11.293949
6795 1 26.655043 20.607437 11.360359
6796 1 26.839783 22.898277 9.447934
6797 1 24.449969 20.304563 13.050325
6798 1 24.719753 22.648977 15.267632
6799 1 26.830242 20.523145 15.133750
6800 1 26.545555 22.491186 13.318925
6801 1 25.125275 20.659089 17.289746
6802 1 24.703332 22.720898 19.167489
6803 1 27.040529 20.570890 19.325936
6804 1 26.768048 22.696469 17.070036
6805 1 24.594196 20.433045 21.577521
6806 1 24.877465 22.667754 23.502470
6807 1 26.921115 20.500771 23.384433
6808 1 26.712389 22.572521 21.466044
6809 1 24.426416 20.664744 25.709678
6810 1 24.410008 22.822627 27.325931
6811 1 26.519039 20.303912 27.251187
6812 1 26.626399 22.380267 25.791857
6813 1 24.633009 20.675965 29.528949
6814 1 24.828281 22.537101 31.335368
6815 1 26.748756 20.437492 31.732971
6816 1 26.474192 22.512541 29.374519
6817 1 24.756548 20.593312 33.300676
6818 1 24.215209 22.505017 35.186742
6819 1 26.314796 20.474615 35.397396
6820 1 26.409163 22.641123 33.627844
6821 1 24.403292 20.206538 37.404126
6822 1 24.709829 22.438710 39.376998
6823 1 26.730524 20.565396 39.676436
6824 1 26.269452 22.872943 37.200214
6825 1 24.740292 20.769375 41.563980
6826 1 24.627166 22.827895 43.457767
6827 1 27.008621 20.484641 43.438070
6828 1 27.101625 22.527028 41.977572
6829 1 24.610352 20.494178 45.723127
6830 1 24.855573 22.641799 47.452267
6831 1 26.738202 20.437207 47.597151
6832 1 26.523332 22.397316 45.621385
6833 1 24.565828 20.481382 49.598993
6834 1 24.440835 22.752759 52.041502
6835 1 26.234668 20.635963 51.709449
6836 1 26.091696 22.567577 49.771543
6837 1 24.595839 20.876083 53.864754
6838 1 24.676023 22.581209 55.679930
6839 1 26.787164 21.032216 55.787726
6840 1 26.849098 22.979917 53.815850
6841 1 24.859199 20.499619 58.055154
6842 1 24.923723 22.408508 59.933177
6843 1 26.410718 20.528008 60.331850
6844 1 26.295918 22.962705 57.751776
6845 1 24.522485 20.351176 62.175051
6846 1 24.752381 22.523926 63.807834
6847 1 26.599334 20.320461 64.169721
6848 1 26.607213 22.802643 61.787902
6849 1 20.727186 18.248812 68.344787
6850 1 22.970569 24.595523 67.847147
6851 1 30.822438 16.335892 67.826624
6852 1 24.648052 20.560397 66.267939
6853 1 18.094011 15.845670 71.828115
6854 1 24.891058 24.402556 69.917628
6855 1 22.606543 22.109406 74.037935
6856 1 22.801523 18.370790 70.022760
6857 1 20.410982 20.081450 82.389896
6858 1 24.280772 14.200809 82.992890
6859 1 29.503049 15.718076 74.077128
6860 1 20.768368 18.483940 71.932679
6861 1 26.321640 19.156155 79.867477
6862 1 1.246411 16.105473 78.642829
6863 1 32.370088 24.574910 78.334856
6864 1 29.433905 21.783846 81.534268
6865 1 6.448387 24.937032 79.907102
6866 1 29.845484 24.300529 86.964335
6867 1 30.714322 15.344991 83.302825
6868 1 20.611478 19.058682 75.671714
6869 1 13.598714 26.239798 82.370753
6870 1 0.158085 25.502124 82.190994
6871 1 24.175006 19.443139 84.274585
6872 1 32.413936 11.200500 96.398781
6873 1 30.497136 17.750432 85.132559
6874 1 30.255100 25.065557 91.795715
6875 1 24.222034 28.449676 97.474845
6876 1 29.096167 19.800205 83.124813
6877 1 23.261387 24.845651 88.409048
6878 1 19.834912 24.312838 104.693141
6879 1 19.115116 18.560744 102.624563
6880 1 26.167776 31.658018 98.872677
6881 1 22.860365 20.571146 100.992053
6882 1 27.325462 31.273791 109.574155
6883 1 23.157525 22.891112 105.887714
6884 1 19.692514 27.137707 104.201954
6885 1 28.126774 1.069724 116.083360
6886 1 29.750542 25.151919 112.874803
6887 1 29.584255 21.362324 115.500912
6888 1 5.138055 23.179776 88.924265
6889 1 18.260122 19.590096 116.490848
6890 1 20.864396 19.874130 104.554009
6891 1 30.951229 20.954807 106.679221
6892 1 26.424622 28.022673 103.871492
6893 1 29.362061 26.393991 117.089754
6894 1 19.187291 0.281357 125.489208
6895 1 24.315708 21.822712 115.036238
6896 1 30.600906 22.161583 112.431747
6897 1 20.188763 15.299375 112.361008
6898 1 20.389782 16.481553 124.052539
6899 1 31.917142 21.045734 119.002007
6900 1 22.531714 30.504517 128.257178
6901 1 26.542882 28.989632 129.855878
6902 1 19.171415 26.777708 123.825644
6903 1 20.479240 30.665345 130.033018
6904 1 30.042810 21.058385 120.967420
6905 1 22.475685 20.892501 125.447536
6906 1 24.697698 24.807910 131.694286
6907 1 26.388709 16.214461 125.619711
6908 1 28.861528 22.626439 129.992841
6909 1 22.415995 18.480371 132.319192
6910 1 22.596393 22.774242 132.093424
6911 1 24.743435 16.702438 131.758749
6912 1 26.591031 20.629111 129.833436
6913 1 24.948039 24.528327 1.392005
6914 1 24.845465 26.519668 3.364057
6915 1 26.659274 24.605654 3.327604
6916 1 26.632329 26.923221 1.402303
6917 1 24.801398 24.841687 5.369486
6918 1 24.671872 26.907012 7.301005
6919 1 26.789800 25.020396 7.163005
6920 1 26.524098 27.029115 5.337935
6921 1 24.588513 24.765731 9.327154
6922 1 24.478287 26.193330 11.597012
6923 1 26.737257 24.619002 11.411590
6924 1 26.364005 26.839521 9.216808
6925 1 24.337387 24.564367 13.545949
6926 1 24.502632 27.030657 15.059589
6927 1 26.844471 25.165050 14.912953
6928 1 26.733605 27.037655 13.025444
6929 1 24.630140 24.797062 17.193797
6930 1 25.137876 26.748067 19.702846
6931 1 26.808048 24.609452 19.079483
6932 1 26.720577 27.032362 17.426879
6933 1 24.739440 24.588764 21.356229
6934 1 25.030911 26.936848 23.287948
6935 1 26.675917 24.757841 23.336076
6936 1 27.111734 26.743479 21.511171
6937 1 25.082044 24.587899 25.316700
6938 1 24.512795 26.395996 27.748953
6939 1 26.661637 24.586902 27.380259
6940 1 26.586387 26.642253 25.790256
6941 1 24.453840 24.588698 29.470827
6942 1 24.678522 26.862594 31.727421
6943 1 26.554159 24.601792 31.310014
6944 1 26.646584 26.546389 29.659606
6945 1 24.688486 24.737964 33.700614
6946 1 24.618219 26.784080 35.651060
6947 1 26.727339 24.904672 35.571429
6948 1 26.693384 26.829167 33.609731
6949 1 24.623997 24.769430 37.769789
6950 1 24.917682 26.802685 39.597443
6951 1 26.530348 24.484169 39.596273
6952 1 26.529812 26.877280 37.501511
6953 1 24.928263 24.381162 41.360304
6954 1 24.827650 26.816972 43.469009
6955 1 26.628746 25.008425 43.420097
6956 1 26.927301 26.689399 41.632785
6957 1 24.589515 24.762018 45.254144
6958 1 24.879435 26.340223 47.455910
6959 1 26.767675 24.777044 47.984957
6960 1 26.725911 26.617038 45.602808
6961 1 24.591734 24.914130 49.577184
6962 1 24.532346 26.736652 51.556435
6963 1 26.495580 25.120098 51.579229
6964 1 27.113681 26.964361 49.607309
6965 1 24.766877 24.956723 53.711698
6966 1 24.695721 27.030477 55.767975
6967 1 26.466911 24.884009 55.839884
6968 1 26.513258 27.130000 53.595847
6969 1 24.448462 24.932158 57.625574
6970 1 24.568646 26.743834 59.756726
6971 1 26.444714 24.571576 59.631493
6972 1 26.798821 26.871471 57.845929
6973 1 24.830509 24.800818 62.096890
6974 1 24.622946 26.984387 63.968882
6975 1 26.718687 24.910053 63.925310
6976 1 26.718543 26.674917 61.891980
6977 1 24.721898 25.009564 65.708298
6978 1 27.051935 24.689341 67.545497
6979 1 29.146633 26.388718 76.129910
6980 1 30.936838 20.561082 68.103689
6981 1 26.532075 0.232349 72.264954
6982 1 26.480005 2.467688 74.436357
6983 1 24.600256 30.707104 68.191245
6984 1 26.665055 28.401606 71.700105
6985 1 28.581858 26.583893 71.828783
6986 1 30.715779 25.605449 80.664589
6987 1 26.665475 26.436398 69.879790
6988 1 29.577933 16.312658 70.291311
6989 1 22.349190 20.418236 87.700108
6990 1 27.012276 22.246851 74.182975
6991 1 7.743599 19.903091 83.567464
6992 1 18.625510 14.049706 78.561633
6993 1 22.590708 26.682699 73.850292
6994 1 25.121747 24.916472 91.059902
6995 1 24.527238 21.154414 78.231169
6996 1 22.733919 15.919648 84.698674
6997 1 7.912984 23.161104 88.225900
6998 1 31.047596 26.879648 83.401402
6999 1 30.849434 27.626581 86.146502
7000 1 29.085435 25.581584 84.621500
7001 1 25.169837 21.150293 97.451390
7002 1 20.013174 28.948099 106.418141
7003 1 30.419662 27.890138 93.562073
7004 1 25.223573 18.212938 90.614031
7005 1 30.046196 0.384744 104.734203
7006 1 18.072915 23.502266 106.116819
7007 1 19.699509 32.164024 91.087997
7008 1 28.818624 24.843548 101.856777
7009 1 29.216913 27.981812 91.046175
7010 1 0.760651 2.054126 114.584402
7011 1 16.700989 29.281527 94.063641
7012 1 30.539411 23.498055 107.946560
7013 1 28.119361 31.469814 106.865847
7014 1 20.010914 25.789658 118.746910
7015 1 12.752382 25.447533 101.928375
7016 1 32.398936 29.334982 97.728313
7017 1 27.036359 23.909701 116.936182
7018 1 22.778198 0.836735 111.888724
7019 1 22.209771 26.048793 109.594966
7020 1 21.373689 28.665313 98.831414
7021 1 16.671623 0.844024 117.554458
7022 1 22.453987 4.319906 112.991422
7023 1 24.674892 31.018989 117.397073
7024 1 24.880894 25.550721 120.075170
7025 1 22.835056 26.879517 124.277038
7026 1 17.397839 2.885526 119.406792
7027 1 17.779980 24.237358 118.911242
7028 1 23.880988 30.736682 121.289094
7029 1 19.846623 29.705877 123.637979
7030 1 32.592705 30.672905 125.740437
7031 1 22.399477 20.856874 130.224470
7032 1 20.720090 26.842937 125.972369
7033 1 24.416850 22.498717 129.795690
7034 1 28.693437 26.718096 125.681028
7035 1 18.452555 25.107761 129.972313
7036 1 26.700175 24.576278 129.778003
7037 1 24.751798 22.962561 133.746828
7038 1 24.664449 26.723715 133.817012
7039 1 28.836565 22.655681 133.674676
7040 1 28.757116 28.749464 132.241870
7041 1 24.815023 28.910983 0.952118
7042 1 24.595958 30.758152 3.242435
7043 1 26.855859 29.044660 3.465812
7044 1 26.660228 31.195108 1.402487
7045 1 24.537365 28.696327 5.092850
7046 1 24.553605 31.239613 7.061861
7047 1 26.233695 29.025491 7.389765
7048 1 26.653943 31.093377 5.461075
7049 1 24.460397 28.884494 9.177477
7050 1 24.536870 30.688879 11.468046
7051 1 26.749527 28.952814 11.362184
7052 1 26.688499 30.771754 9.444169
7053 1 25.129962 28.963194 13.403562
7054 1 25.095240 30.650068 15.765049
7055 1 27.017523 28.943736 15.439058
7056 1 26.816340 31.470935 13.399945
7057 1 24.657503 28.574106 17.355093
7058 1 24.918175 30.493721 19.221669
7059 1 27.021142 28.764263 19.444240
7060 1 26.875853 31.040098 17.526767
7061 1 25.014717 28.985756 21.568391
7062 1 24.784140 30.576238 23.823315
7063 1 26.926944 28.793120 23.373776
7064 1 26.558939 31.107226 21.615964
7065 1 24.564592 28.555932 25.570404
7066 1 24.601907 30.779494 27.543660
7067 1 26.392522 28.605373 27.414998
7068 1 26.520829 30.568328 25.616516
7069 1 24.826696 28.451975 29.453536
7070 1 25.153072 31.311941 31.438343
7071 1 26.719759 28.581299 31.408386
7072 1 26.963656 30.394623 29.353189
7073 1 24.866034 28.972792 33.303461
7074 1 24.959521 30.798566 35.932265
7075 1 27.038857 29.038831 35.501970
7076 1 26.847606 30.854779 33.573642
7077 1 24.827979 28.876111 38.064997
7078 1 24.682875 31.097116 39.672743
7079 1 26.809695 28.933818 39.688838
7080 1 27.078100 30.904837 37.799783
7081 1 24.640418 28.931583 41.365021
7082 1 24.590271 30.606961 43.721842
7083 1 26.825090 29.026187 43.720157
7084 1 26.705186 30.985320 41.487586
7085 1 24.671774 28.509077 45.478674
7086 1 24.710252 30.964623 47.469646
7087 1 26.728826 28.900502 47.492445
7088 1 26.945124 30.831707 45.640462
7089 1 24.650041 28.818896 49.840412
7090 1 24.539035 31.008500 51.973576
7091 1 26.781865 28.850516 51.707142
7092 1 26.539519 31.073857 50.065583
7093 1 24.480478 28.925369 53.508403
7094 1 24.495449 31.039386 55.797515
7095 1 26.574915 29.155136 55.663605
7096 1 26.549820 31.028271 53.692476
7097 1 24.661720 28.939272 57.751077
7098 1 24.765771 31.061134 59.638596
7099 1 26.694787 29.020663 60.022947
7100 1 26.791688 31.041265 57.761677
7101 1 24.710132 28.714165 61.891361
7102 1 24.836832 31.015454 64.042119
7103 1 26.504521 28.975560 63.928591
7104 1 26.522264 30.811170 62.022166
7105 1 24.880336 28.997947 65.935581
7106 1 22.283008 6.668695 69.796351
7107 1 26.454608 26.983537 65.980717
7108 1 24.774847 0.124761 66.269759
7109 1 20.436735 30.769839 68.014452
7110 1 22.351939 0.088399 68.100491
7111 1 26.861546 26.533424 74.072750
7112 1 29.119546 2.536158 68.113527
7113 1 24.256802 24.543324 73.743568
7114 1 32.097179 22.206452 75.004974
7115 1 0.228902 22.600480 72.638499
7116 1 31.115320 29.028622 80.604243
7117 1 16.563887 19.667568 88.132226
7118 1 14.682381 22.030698 95.538334
7119 1 20.619778 25.962102 79.997460
7120 1 31.639991 19.270508 76.350028
7121 1 22.228831 22.170745 77.138745
7122 1 25.235034 30.048625 86.923400
7123 1 2.620273 24.506808 83.580905
7124 1 30.106711 26.894398 78.676183
7125 1 28.354747 30.872577 90.473632
7126 1 27.108474 0.428560 91.171635
7127 1 22.966895 26.431249 91.139317
7128 1 31.203458 18.358421 82.001263
7129 1 22.326347 29.262480 85.676529
7130 1 21.850792 0.481358 95.452925
7131 1 27.727995 28.760102 88.405566
7132 1 0.190547 28.596833 87.189435
7133 1 8.905278 18.932309 91.042629
7134 1 20.475652 6.281679 101.822039
7135 1 22.612089 30.504328 96.162683
7136 1 12.122184 28.467013 99.381142
7137 1 21.585061 4.707526 99.503654
7138 1 29.808571 0.477302 110.748062
7139 1 6.335308 29.683175 107.476133
7140 1 0.213283 1.381815 107.338120
7141 1 24.700045 5.748892 107.221002
7142 1 2.730279 32.064399 106.787400
7143 1 29.883694 24.105579 110.252549
7144 1 5.822836 32.095509 105.828223
7145 1 20.619230 2.592331 104.318582
7146 1 24.766752 5.313207 116.838286
7147 1 1.394474 32.395156 116.351312
7148 1 31.515999 28.934161 114.926579
7149 1 0.428057 3.060033 117.076647
7150 1 19.821450 29.000902 118.978604
7151 1 28.861418 24.204414 115.348181
7152 1 9.876306 26.396336 107.603680
7153 1 25.508005 2.555263 118.713274
7154 1 26.847481 1.380381 123.275039
7155 1 31.154865 0.329514 125.593056
7156 1 26.900616 28.866395 110.587909
7157 1 22.615321 6.731809 123.399692
7158 1 27.750583 29.841774 121.744289
7159 1 28.677752 26.558514 130.007445
7160 1 28.682189 3.620001 123.159107
7161 1 28.643466 28.809091 128.194604
7162 1 18.575878 2.442903 132.021599
7163 1 24.754858 28.969878 132.392794
7164 1 31.107560 0.316790 133.913940
7165 1 23.287948 28.531630 130.046922
7166 1 22.541024 2.491595 131.300932
7167 1 26.984914 28.701110 134.125050
7168 1 24.954335 30.949595 130.256534
7169 1 28.825147 0.131439 1.037019
7170 1 28.658660 2.748351 3.454263
7171 1 30.453933 0.418727 3.455801
7172 1 30.521248 2.292862 1.498002
7173 1 28.394745 0.562391 5.409853
7174 1 28.513657 2.897756 7.578017
7175 1 30.775358 0.723690 7.498286
7176 1 30.845140 2.541118 5.553279
7177 1 28.840209 0.442855 9.514271
7178 1 28.844227 2.577760 12.066280
7179 1 31.188667 0.216850 11.362993
7180 1 30.772687 2.779234 9.117716
7181 1 29.113317 0.299973 13.446552
7182 1 28.792836 2.381305 15.524618
7183 1 31.201842 0.072497 15.376049
7184 1 31.023099 2.283621 13.553607
7185 1 28.942554 0.256384 17.409028
7186 1 28.589783 1.847711 19.350195
7187 1 30.836835 0.323564 19.300369
7188 1 31.051469 2.265603 17.283618
7189 1 28.499855 0.052974 21.478686
7190 1 28.667130 2.500388 23.203013
7191 1 30.692251 0.293376 23.267618
7192 1 30.881567 2.347902 21.467052
7193 1 28.412884 32.385818 25.013371
7194 1 28.642714 1.876643 26.922981
7195 1 30.766172 0.170944 27.052758
7196 1 30.795393 2.227748 25.126021
7197 1 28.827621 32.528506 29.299074
7198 1 29.021253 2.183887 31.265092
7199 1 30.736192 0.061045 31.440549
7200 1 30.545229 2.175028 29.057513
7201 1 28.834699 0.189716 33.704129
7202 1 28.664480 2.444499 35.547725
7203 1 30.696446 0.348215 35.596135
7204 1 30.867230 2.337137 33.272778
7205 1 28.695129 0.283714 37.736225
7206 1 28.842923 2.129251 39.887850
7207 1 30.976037 0.413294 39.510521
7208 1 31.020664 2.192784 37.578576
7209 1 28.541268 0.131690 41.518379
7210 1 28.452731 2.042848 43.772248
7211 1 30.685813 0.263441 43.585062
7212 1 30.770978 2.119732 41.743885
7213 1 28.842314 0.153782 45.696449
7214 1 28.407590 2.358404 47.630238
7215 1 30.433067 0.435311 48.068088
7216 1 30.685383 2.162011 45.762608
7217 1 28.437760 0.421401 49.940338
7218 1 28.658863 2.294107 51.653515
7219 1 30.919204 0.104944 51.558040
7220 1 30.906490 2.619155 49.884224
7221 1 28.534527 0.175230 53.756712
7222 1 28.513879 2.724026 55.649724
7223 1 30.605155 0.637659 55.630284
7224 1 30.654193 2.194586 53.736272
7225 1 29.063977 0.236358 57.924771
7226 1 28.895804 2.209877 59.696263
7227 1 31.138161 0.401254 59.567956
7228 1 30.821770 2.240468 57.646006
7229 1 28.485519 32.498816 61.510064
7230 1 28.638144 2.238859 63.910319
7231 1 30.847494 0.372091 64.139431
7232 1 30.874279 2.125706 61.569294
7233 1 26.696252 31.033177 66.073710
7234 1 30.836761 4.324857 71.465707
7235 1 31.172481 2.199217 70.197952
7236 1 29.174922 0.474522 66.006393
7237 1 28.676692 0.495135 70.242051
7238 1 30.983363 0.414110 67.848103
7239 1 24.475153 4.498913 69.931833
7240 1 26.759550 31.067572 78.132983
7241 1 2.218808 30.757213 74.224333
7242 1 24.565116 30.503408 71.816670
7243 1 6.653334 0.504175 75.509331
7244 1 6.632463 31.715427 78.115166
7245 1 24.392375 0.668102 80.702208
7246 1 2.551236 26.619774 86.797034
7247 1 28.863212 24.275612 73.872173
7248 1 30.684513 28.810276 75.910565
7249 1 0.386254 24.482672 92.500466
7250 1 27.551169 3.280131 99.965015
7251 1 27.840277 25.353344 78.199248
7252 1 1.390256 22.083103 83.816969
7253 1 0.430733 24.004985 89.735844
7254 1 28.300526 31.516386 100.186935
7255 1 32.232830 32.532871 84.144909
7256 1 2.474134 29.719374 95.069328
7257 1 30.832894 27.501925 96.623096
7258 1 25.949229 31.507256 96.255436
7259 1 2.541652 32.055870 92.312418
7260 1 28.327148 4.353412 97.221157
7261 1 32.042528 26.180689 94.671884
7262 1 30.137283 30.734506 92.613295
7263 1 26.291156 30.272159 93.499386
7264 1 2.163472 6.491327 99.984312
7265 1 0.926478 31.735714 96.203994
7266 1 4.739011 8.125026 95.579546
7267 1 28.633605 3.409791 114.008536
7268 1 9.858913 6.030782 107.852761
7269 1 9.602348 8.472569 105.589628
7270 1 30.264579 3.792138 121.322103
7271 1 29.792729 8.684497 104.048381
7272 1 0.388268 3.943715 102.496984
7273 1 7.969362 32.015116 107.612626
7274 1 7.441206 0.620892 110.292290
7275 1 23.934904 14.773436 114.953148
7276 1 2.465663 5.913165 94.215503
7277 1 30.762370 30.944015 112.909268
7278 1 28.013434 7.110905 116.486351
7279 1 1.108217 4.082152 90.281577
7280 1 10.998357 31.299442 107.468994
7281 1 1.094036 28.450230 121.010409
7282 1 30.547269 14.419142 118.476939
7283 1 1.507862 6.980373 121.037236
7284 1 24.810381 6.029706 125.167134
7285 1 28.587996 1.675953 121.308809
7286 1 2.455594 4.100293 115.258258
7287 1 4.243388 8.372862 127.878789
7288 1 30.296119 26.433670 123.330585
7289 1 32.637557 0.209352 127.715817
7290 1 30.513318 2.415803 127.648139
7291 1 2.125566 2.045797 131.636950
7292 1 30.686034 31.003601 131.996976
7293 1 32.641684 30.650636 129.570749
7294 1 28.626397 2.184480 133.781916
7295 1 30.655206 28.759533 134.156341
7296 1 0.009595 0.053997 131.649746
7297 1 28.918325 4.560754 1.402006
7298 1 28.558493 6.695822 2.977150
7299 1 30.725397 4.631937 3.298116
7300 1 30.873011 6.417853 1.243958
7301 1 29.026206 4.412760 5.160709
7302 1 28.431029 6.226722 7.304819
7303 1 30.695383 4.705030 7.267110
7304 1 30.696316 6.619758 5.054746
7305 1 28.563967 4.842361 9.375710
7306 1 28.440505 6.573364 11.383600
7307 1 30.753065 4.638042 11.237318
7308 1 30.488054 6.663705 9.174682
7309 1 28.689290 4.741079 13.660122
7310 1 28.657205 6.843384 15.420904
7311 1 30.684369 4.125675 15.413131
7312 1 30.941652 6.218833 13.600050
7313 1 28.698766 4.562844 17.247307
7314 1 28.454163 6.251259 19.617704
7315 1 30.505228 4.107326 19.604863
7316 1 30.723016 6.515872 17.064225
7317 1 28.630090 4.433559 21.447236
7318 1 28.801949 6.641183 23.573226
7319 1 30.730442 4.386825 23.135916
7320 1 30.613352 6.434017 21.155424
7321 1 28.827147 4.505941 25.391786
7322 1 28.994571 6.666394 27.507187
7323 1 30.732944 4.112113 27.158498
7324 1 30.936021 6.564473 25.274363
7325 1 28.839865 4.295697 29.301053
7326 1 29.007937 6.309055 31.468367
7327 1 31.052642 3.932276 31.007414
7328 1 30.707070 6.231465 29.576795
7329 1 28.542903 4.674511 33.648408
7330 1 28.973139 6.216753 35.829254
7331 1 30.836380 4.200071 35.052015
7332 1 30.889711 6.360896 33.666310
7333 1 28.898032 4.123514 37.698478
7334 1 28.723709 6.192726 39.446290
7335 1 30.776603 4.325624 39.672690
7336 1 30.711721 6.252173 37.773494
7337 1 28.930868 4.217824 41.830186
7338 1 28.909467 6.246809 43.421048
7339 1 30.610461 3.998905 43.864446
7340 1 30.628240 6.215318 41.477076
7341 1 28.724832 4.263362 45.571877
7342 1 28.521374 6.033100 47.555184
7343 1 31.022524 4.216074 47.265599
7344 1 31.017111 6.163048 45.729435
7345 1 28.764278 4.330902 49.386323
7346 1 28.582499 6.099102 51.656072
7347 1 30.731495 4.592793 51.623399
7348 1 30.562051 6.287974 49.372413
7349 1 28.559037 4.360111 53.540928
7350 1 28.841891 6.294080 55.767686
7351 1 30.613414 4.198212 55.731747
7352 1 30.720272 6.482781 53.812827
7353 1 28.933718 4.550321 58.043827
7354 1 28.764491 6.302213 59.883783
7355 1 30.845348 4.446917 59.992186
7356 1 31.023782 6.237483 57.782970
7357 1 28.664112 4.229100 61.792246
7358 1 28.423712 6.005940 63.802533
7359 1 30.747868 4.104685 63.626952
7360 1 30.835607 6.230037 61.771138
7361 1 30.504320 6.565627 65.989640
7362 1 31.183922 12.336996 68.099708
7363 1 26.855571 2.040209 65.824226
7364 1 31.033112 2.519810 65.953960
7365 1 26.541403 0.053643 68.218437
7366 1 24.547992 2.492997 68.248892
7367 1 24.509529 1.957776 72.033490
7368 1 0.287693 8.674253 66.266007
7369 1 0.640110 28.491003 82.432518
7370 1 31.019293 2.482509 77.500679
7371 1 28.865448 6.275563 89.350565
7372 1 0.294594 2.771290 72.416237
7373 1 19.880778 29.445921 76.210367
7374 1 2.649073 26.985358 80.770222
7375 1 3.598621 29.151057 87.756268
7376 1 27.383214 6.069152 91.890202
7377 1 15.334472 31.892643 85.097899
7378 1 32.250193 10.051513 89.482630
7379 1 23.031813 1.980326 84.318378
7380 1 32.477513 29.798201 84.739285
7381 1 23.465045 2.151719 104.167118
7382 1 23.220611 0.684756 101.405843
7383 1 29.579053 3.935858 92.595707
7384 1 0.585758 7.755952 88.526449
7385 1 32.656451 7.260208 93.498749
7386 1 31.096993 4.277866 97.145811
7387 1 3.179500 9.979280 100.806466
7388 1 31.564287 1.714437 102.372885
7389 1 29.423352 2.858085 95.515118
7390 1 0.604451 9.061482 98.407776
7391 1 3.700224 12.884267 105.381578
7392 1 5.421205 3.143958 100.255546
7393 1 1.188879 12.776491 98.215290
7394 1 32.060748 16.192904 110.666273
7395 1 30.546418 4.224512 106.760468
7396 1 24.949914 12.688032 99.164091
7397 1 3.363394 13.545732 100.925771
7398 1 32.137937 9.790704 105.693286
7399 1 32.271336 11.274409 108.385629
7400 1 31.020149 16.521483 108.158009
7401 1 26.950322 7.547649 104.793085
7402 1 5.654845 32.013331 108.615600
7403 1 6.800469 9.620386 105.196406
7404 1 27.046267 8.427371 107.291156
7405 1 0.026791 0.902563 110.012017
7406 1 28.188616 2.076775 118.635931
7407 1 29.392206 3.046814 111.182784
7408 1 3.668898 12.249716 119.897968
7409 1 32.146714 5.261201 120.663118
7410 1 25.304618 7.741376 116.009401
7411 1 1.032709 0.699739 122.683502
7412 1 11.384102 6.185916 121.345111
7413 1 26.364327 6.928994 118.802254
7414 1 20.079977 6.475448 129.416409
7415 1 30.413369 10.014194 127.263717
7416 1 24.715068 32.255908 123.541120
7417 1 26.855857 8.859149 121.047427
7418 1 24.900997 6.180653 129.739387
7419 1 30.574554 4.044255 125.314049
7420 1 24.801186 4.517800 127.375118
7421 1 26.510798 6.101266 131.759919
7422 1 30.713460 8.718746 133.697643
7423 1 28.706083 0.197997 127.903683
7424 1 28.910946 6.697363 133.739412
7425 1 28.847997 8.673126 0.923474
7426 1 28.860100 10.497622 3.040325
7427 1 31.239801 8.299979 3.116729
7428 1 30.990968 10.641240 1.219693
7429 1 28.876638 8.580727 5.126061
7430 1 28.580661 10.570255 7.395534
7431 1 30.523462 8.615853 7.336292
7432 1 30.947726 10.142389 5.009891
7433 1 28.558750 8.543101 9.106074
7434 1 28.680702 10.525400 11.331637
7435 1 30.497376 8.235793 11.650193
7436 1 30.916075 10.272978 9.433382
7437 1 28.640276 8.768838 13.174739
7438 1 28.663355 10.394732 15.285225
7439 1 30.518363 8.606232 15.466364
7440 1 30.579291 10.366267 13.355964
7441 1 28.752099 8.278361 17.520651
7442 1 28.714729 10.549206 19.365003
7443 1 30.938066 8.331448 19.428336
7444 1 30.689045 10.656858 17.204737
7445 1 28.530677 8.491883 21.417853
7446 1 29.048145 10.498955 23.652856
7447 1 30.887979 8.532901 23.210249
7448 1 30.563011 10.248925 21.099732
7449 1 28.985892 8.566078 25.508055
7450 1 28.996715 10.758769 27.034581
7451 1 31.201775 8.859226 27.374279
7452 1 31.074956 10.746538 25.304047
7453 1 29.106316 8.747368 29.007525
7454 1 28.756478 10.290911 31.353320
7455 1 31.151408 8.664789 31.363457
7456 1 31.203959 10.617607 29.411595
7457 1 28.850868 7.957966 33.707403
7458 1 28.946517 10.362250 35.678615
7459 1 30.909793 8.389136 35.334039
7460 1 30.585852 10.384594 33.791006
7461 1 28.861528 8.444147 37.650983
7462 1 28.893467 10.294146 39.805898
7463 1 30.984611 8.373577 39.484195
7464 1 30.968098 10.428016 37.478819
7465 1 28.818400 8.119057 41.223748
7466 1 28.713519 10.335453 43.473617
7467 1 30.858544 8.686730 43.316079
7468 1 31.193112 10.444937 41.417072
7469 1 28.995469 8.732612 45.407847
7470 1 28.749185 10.550377 47.670129
7471 1 30.442798 8.385325 47.860289
7472 1 31.184009 10.646369 45.496866
7473 1 28.668175 8.068444 49.976945
7474 1 28.918426 10.487255 51.934699
7475 1 30.409275 8.324119 51.818528
7476 1 30.593676 10.406140 49.673279
7477 1 28.796093 8.423260 53.582386
7478 1 28.629816 10.514226 55.852829
7479 1 30.876333 8.630230 55.643617
7480 1 30.564101 10.586015 53.909143
7481 1 28.818266 8.166967 57.866974
7482 1 28.739404 10.451588 59.673336
7483 1 31.031158 8.128084 59.819268
7484 1 30.751791 10.627771 57.898784
7485 1 28.783876 8.378182 62.157244
7486 1 28.880050 10.298103 63.986187
7487 1 30.591153 8.335710 63.969926
7488 1 30.793093 10.021983 61.746570
7489 1 2.371733 12.464652 72.579398
7490 1 2.455009 10.053466 70.782875
7491 1 26.487732 8.336696 72.312716
7492 1 0.338887 16.898243 69.981910
7493 1 28.873188 31.015936 68.309466
7494 1 0.152494 4.354099 65.908900
7495 1 20.255134 5.937876 72.416213
7496 1 0.549041 8.398652 74.704576
7497 1 22.796246 4.344340 76.178381
7498 1 5.087785 1.414161 77.301653
7499 1 27.612234 29.393244 82.448826
7500 1 28.673802 2.652828 76.241283
7501 1 7.008788 29.681012 85.774756
7502 1 4.155272 6.484635 85.403347
7503 1 4.309417 12.558362 89.791035
7504 1 28.071482 1.248335 83.794661
7505 1 5.133884 27.541684 86.443794
7506 1 26.199593 6.595456 85.643359
7507 1 4.742982 6.609031 82.848259
7508 1 2.981654 31.236706 81.652140
7509 1 23.900019 32.091626 87.967495
7510 1 32.037742 1.424730 88.577878
7511 1 20.054333 1.794435 89.230398
7512 1 23.988344 3.206796 97.252217
7513 1 26.357616 9.193848 98.647354
7514 1 29.961682 7.028485 97.701941
7515 1 4.164117 12.632682 94.697129
7516 1 2.015492 0.276055 89.736728
7517 1 23.884831 0.726133 97.026091
7518 1 17.887189 12.102075 93.567492
7519 1 3.557665 14.139449 97.507993
7520 1 24.741904 7.268963 98.542093
7521 1 27.201261 17.406488 101.253319
7522 1 19.930108 12.992959 96.426504
7523 1 32.567830 10.713168 103.164969
7524 1 2.884995 19.106614 100.765601
7525 1 31.067241 14.077518 101.843445
7526 1 31.492582 9.626322 112.505843
7527 1 29.250991 1.064588 101.015782
7528 1 29.496596 15.177240 104.671992
7529 1 31.757531 7.099369 105.692608
7530 1 11.001966 4.056450 109.204473
7531 1 1.386990 11.344528 105.248091
7532 1 5.015803 8.828630 106.961307
7533 1 27.390798 8.416125 109.818669
7534 1 25.252966 12.653275 116.069938
7535 1 1.864792 0.079432 125.189357
7536 1 6.391333 8.912851 110.094873
7537 1 18.049459 11.340431 113.224355
7538 1 31.124167 4.013751 118.367717
7539 1 28.761136 7.659407 119.457957
7540 1 27.820469 8.264053 123.570158
7541 1 6.497307 6.344905 107.777595
7542 1 26.050188 8.520507 126.052251
7543 1 28.506893 10.361528 125.569952
7544 1 32.403169 12.652843 123.472051
7545 1 22.052777 6.561915 127.872617
7546 1 0.079826 10.529147 125.645369
7547 1 0.290090 6.049773 129.518305
7548 1 28.827942 6.357683 121.687606
7549 1 28.235717 8.528924 127.586868
7550 1 26.592354 12.626508 134.022633
7551 1 1.961354 10.252960 131.223350
7552 1 28.769617 10.784568 133.719726
7553 1 28.865176 12.590021 1.361609
7554 1 28.923870 14.700146 3.360953
7555 1 30.804014 12.372426 3.075529
7556 1 30.869315 14.494856 1.283857
7557 1 28.956109 12.433735 5.016354
7558 1 28.655521 14.470935 7.080077
7559 1 30.914267 12.192730 7.355935
7560 1 30.911472 14.307266 5.236190
7561 1 28.776487 12.689607 8.969581
7562 1 28.670023 14.462478 11.134349
7563 1 30.658881 12.577747 11.326044
7564 1 30.727411 14.350545 9.392154
7565 1 29.007011 12.867167 13.159697
7566 1 28.778395 14.247429 15.430941
7567 1 30.625183 12.253186 15.234028
7568 1 30.944079 14.334260 13.225508
7569 1 28.659933 12.527468 17.440423
7570 1 28.635563 14.301059 19.702337
7571 1 31.142803 12.298961 19.537262
7572 1 30.867493 14.084988 17.333722
7573 1 28.776509 12.373338 21.415428
7574 1 28.714377 14.724828 23.586518
7575 1 30.769476 12.539439 23.250529
7576 1 31.278080 14.746250 21.437397
7577 1 28.829325 12.713097 25.087919
7578 1 28.577949 14.357615 27.558633
7579 1 30.924590 12.733542 27.172628
7580 1 30.868015 14.927789 25.538566
7581 1 28.681006 12.364501 29.540689
7582 1 28.680927 14.618411 31.491590
7583 1 30.868654 12.471241 31.235994
7584 1 30.674725 14.742177 29.477923
7585 1 28.935470 12.607350 33.365158
7586 1 28.731179 14.434774 35.837659
7587 1 31.034994 12.389495 35.544587
7588 1 30.752141 14.721774 33.198636
7589 1 28.954034 12.474930 37.950929
7590 1 28.780526 14.260753 39.911943
7591 1 30.910090 12.184867 39.809095
7592 1 30.811080 14.351824 37.517304
7593 1 28.663150 12.280363 41.534329
7594 1 28.556057 14.385697 43.652259
7595 1 31.006050 12.226866 43.349531
7596 1 30.561329 14.281583 41.690845
7597 1 28.990150 12.092005 45.347300
7598 1 28.439733 14.352674 47.161197
7599 1 30.920498 12.350195 47.821873
7600 1 30.756615 14.347124 45.597186
7601 1 28.786538 12.692438 49.249629
7602 1 28.996889 14.285467 51.223420
7603 1 31.116854 12.675639 51.682916
7604 1 30.512394 14.609486 49.208327
7605 1 28.715598 12.366943 53.904109
7606 1 28.966853 14.332130 55.962645
7607 1 30.959135 12.505539 55.811328
7608 1 30.624620 14.347964 53.624720
7609 1 28.417088 12.558899 57.838029
7610 1 28.835839 14.382837 60.091473
7611 1 30.765535 12.252178 59.789667
7612 1 30.774506 14.545232 57.896750
7613 1 29.000293 12.263331 61.768565
7614 1 28.523623 14.564654 63.907569
7615 1 30.621180 12.083255 64.093747
7616 1 30.672698 14.075949 62.376031
7617 1 28.402760 12.357610 65.862419
7618 1 24.365392 12.479615 65.833952
7619 1 4.683336 7.110304 78.756097
7620 1 30.617171 14.235028 66.097709
7621 1 30.941568 8.465128 68.096815
7622 1 24.773470 12.799476 73.955624
7623 1 29.039523 2.571247 79.123711
7624 1 28.818546 10.975237 75.680070
7625 1 0.668308 3.636409 78.005823
7626 1 24.090733 14.848143 80.289544
7627 1 2.814224 6.981920 80.795153
7628 1 4.630954 13.139915 79.091005
7629 1 4.509596 10.063916 72.548434
7630 1 31.212930 20.199703 79.977238
7631 1 26.466728 4.313275 76.568333
7632 1 25.573417 14.373406 76.688928
7633 1 21.427673 6.124256 85.921202
7634 1 4.842100 8.069348 90.783734
7635 1 1.095008 4.923802 80.189925
7636 1 31.219605 11.782784 86.412583
7637 1 28.350153 7.267202 95.466959
7638 1 29.529103 1.862019 98.246985
7639 1 30.205458 6.689894 87.009796
7640 1 6.087161 16.440474 78.113439
7641 1 1.446942 8.359419 101.612140
7642 1 5.729211 14.855407 80.739811
7643 1 0.658098 9.398092 91.915028
7644 1 0.034278 19.753379 104.627338
7645 1 30.548127 9.892670 97.956976
7646 1 31.711357 16.656274 104.256284
7647 1 1.484502 15.573386 92.571375
7648 1 4.570306 10.878573 92.195808
7649 1 8.370780 17.120821 103.786386
7650 1 29.520719 12.153994 105.504855
7651 1 24.739157 4.259652 99.480992
7652 1 1.045088 13.238778 107.188755
7653 1 30.029079 11.222439 102.844605
7654 1 30.319850 12.971693 109.523181
7655 1 29.351434 15.198481 100.281322
7656 1 1.290202 18.526318 115.968491
7657 1 25.716928 14.749577 111.006316
7658 1 3.748402 31.801320 115.558450
7659 1 28.082772 13.722894 113.041341
7660 1 29.559312 19.155386 113.853488
7661 1 28.550471 6.417169 113.641711
7662 1 31.393959 5.170269 109.411530
7663 1 0.520181 8.252976 123.771933
7664 1 6.352804 12.497489 118.000967
7665 1 6.470840 14.401982 119.707736
7666 1 20.328437 14.370511 125.782061
7667 1 30.686720 10.572412 120.263463
7668 1 25.110956 3.527018 123.472242
7669 1 26.760028 9.365135 117.254297
7670 1 0.186193 12.117059 127.887730
7671 1 26.273989 5.884274 122.800777
7672 1 30.648009 10.217390 123.789977
7673 1 31.021551 15.031788 123.202547
7674 1 24.585875 14.621005 129.906201
7675 1 2.410989 8.501419 125.774731
7676 1 5.718370 8.097537 121.377558
7677 1 0.240549 10.284616 133.694050
7678 1 29.012525 15.057628 133.570804
7679 1 0.163004 12.497058 131.657257
7680 1 3.866008 18.164494 117.697270
7681 1 28.913550 16.526749 1.400026
7682 1 28.720268 18.543628 3.159240
7683 1 30.954747 16.554733 3.544096
7684 1 30.983394 19.004185 1.031924
7685 1 28.883177 16.612264 5.713921
7686 1 28.779893 18.494643 7.462074
7687 1 30.758962 16.103224 7.246047
7688 1 30.642665 18.583994 5.054205
7689 1 28.883507 16.279327 9.229166
7690 1 28.766037 18.732432 11.388677
7691 1 30.827495 16.357253 11.397327
7692 1 30.774739 18.267123 9.360066
7693 1 28.739202 16.555616 13.379246
7694 1 28.709210 18.559650 15.353722
7695 1 30.780506 16.314332 15.071965
7696 1 30.861226 18.443628 13.414290
7697 1 28.723728 16.584788 17.454185
7698 1 28.831802 18.358046 19.415732
7699 1 30.780079 16.077339 19.279118
7700 1 30.954435 18.160691 17.513300
7701 1 28.989298 16.431539 21.663048
7702 1 28.725391 18.532228 23.450587
7703 1 30.981299 16.403996 23.438415
7704 1 30.709649 18.611606 21.427807
7705 1 28.609601 16.414265 25.550075
7706 1 28.599889 18.387984 27.373697
7707 1 30.394140 16.574348 27.504617
7708 1 30.619564 18.191130 25.504593
7709 1 28.402100 16.455570 29.577998
7710 1 28.418245 18.360568 31.339137
7711 1 30.587156 16.799463 31.472788
7712 1 30.578379 18.334989 29.454738
7713 1 28.584002 16.436378 33.803707
7714 1 28.666633 18.882619 35.698877
7715 1 30.595695 16.508073 35.404660
7716 1 30.641291 18.439953 33.439937
7717 1 28.451920 16.557147 37.473679
7718 1 28.556397 18.587969 39.527181
7719 1 30.452377 16.413063 39.703068
7720 1 30.845966 18.430097 37.629286
7721 1 28.662414 16.565574 41.682054
7722 1 28.708221 18.528313 43.931601
7723 1 30.635654 16.234669 43.708644
7724 1 30.700880 19.024672 41.642460
7725 1 28.859079 16.437731 45.539368
7726 1 28.589988 18.614303 47.973958
7727 1 30.511042 16.845942 47.666828
7728 1 31.045751 18.685834 45.629590
7729 1 28.282465 16.391350 49.570374
7730 1 28.718832 18.535199 51.430089
7731 1 30.691440 16.417321 51.406699
7732 1 30.547984 18.896387 49.744305
7733 1 28.864075 16.667868 53.936400
7734 1 28.404682 18.471865 55.766417
7735 1 30.654001 16.233708 55.547740
7736 1 30.929978 18.539970 53.525859
7737 1 28.799313 16.722277 57.752543
7738 1 28.746723 18.740022 60.111063
7739 1 30.910132 16.907887 59.496221
7740 1 30.392430 18.831423 57.455706
7741 1 28.828364 16.406591 61.962860
7742 1 28.548697 18.125595 64.134003
7743 1 30.658774 16.375632 64.431787
7744 1 30.653705 18.396501 62.040527
7745 1 28.167718 16.413287 66.049356
7746 1 26.589919 10.217041 74.184959
7747 1 29.082813 14.227786 68.070277
7748 1 30.658498 18.769651 65.827956
7749 1 27.090155 16.248404 68.506158
7750 1 31.156363 13.971521 70.261232
7751 1 0.563490 11.280425 76.421866
7752 1 28.367841 8.314953 74.574046
7753 1 25.067584 11.362188 84.279037
7754 1 30.953848 20.637313 72.498781
7755 1 26.097970 13.093339 79.126992
7756 1 27.168089 12.218317 72.341240
7757 1 26.555879 14.255810 88.645315
7758 1 28.138797 16.507887 90.178497
7759 1 2.163476 7.957453 72.492938
7760 1 6.052544 14.463002 70.180814
7761 1 0.095146 18.248761 86.173144
7762 1 2.305285 9.939962 80.763682
7763 1 23.812656 5.506358 94.777848
7764 1 22.606559 16.481760 75.482816
7765 1 26.620153 10.623747 95.518523
7766 1 25.353462 20.090159 88.455436
7767 1 0.772380 16.938611 90.052956
7768 1 23.977522 22.759728 89.994927
7769 1 31.200104 29.513517 104.248144
7770 1 26.793742 14.331838 97.168440
7771 1 25.032048 25.883374 110.576111
7772 1 2.564805 21.613339 88.516666
7773 1 6.137992 12.644760 93.142747
7774 1 27.286581 14.128069 91.497768
7775 1 1.778136 15.486730 100.696990
7776 1 29.928214 14.282957 86.390788
7777 1 3.071805 8.591624 98.621549
7778 1 32.020824 18.532190 106.821495
7779 1 31.688492 16.671357 101.553588
7780 1 1.091272 27.608996 109.866995
7781 1 23.618595 19.476304 110.977908
7782 1 22.589470 14.966621 119.148363
7783 1 4.203636 20.390815 116.183131
7784 1 30.333539 27.554496 105.998684
7785 1 20.649545 18.891597 126.031088
7786 1 25.668246 22.114758 119.153876
7787 1 30.027864 22.679052 117.648999
7788 1 1.086991 14.003577 111.960589
7789 1 4.064682 4.003145 107.982803
7790 1 30.872470 17.004056 112.801999
7791 1 28.418452 10.791742 122.255711
7792 1 30.900219 7.476262 114.470874
7793 1 24.001113 18.869442 121.733004
7794 1 28.112688 16.237866 113.133478
7795 1 4.846301 10.390936 114.220648
7796 1 6.079119 19.288885 110.996551
7797 1 30.833781 13.123711 121.297543
7798 1 31.775672 10.124786 115.310242
7799 1 30.466690 12.250172 129.515107
7800 1 20.860995 24.677899 128.056399
7801 1 28.564239 12.642696 131.819795
7802 1 22.330210 14.278192 131.765619
7803 1 1.946448 12.248381 125.789366
7804 1 28.357851 16.681457 123.468859
7805 1 22.404795 12.465273 129.954378
7806 1 30.682111 20.622202 133.842952
7807 1 28.808252 16.816188 131.809365
7808 1 30.478731 12.872003 133.705100
7809 1 28.685214 20.362742 1.212781
7810 1 28.835240 22.691382 3.233697
7811 1 30.567393 20.693796 3.339899
7812 1 30.963671 22.574287 1.344668
7813 1 28.690007 20.599519 5.578690
7814 1 28.393202 22.847275 7.464944
7815 1 30.730216 20.457334 7.490055
7816 1 30.858051 22.693668 5.437893
7817 1 28.683383 20.608348 9.530391
7818 1 28.764649 22.629446 11.353251
7819 1 31.189175 20.631065 11.370765
7820 1 30.835197 22.570935 9.207645
7821 1 28.837386 20.686025 13.249019
7822 1 28.591731 22.661714 15.202434
7823 1 30.735165 20.732538 15.178366
7824 1 30.771135 22.599339 13.149475
7825 1 29.118338 20.626169 17.390696
7826 1 28.871801 22.812245 19.646092
7827 1 30.772146 20.546096 19.373009
7828 1 30.904611 22.688864 17.487902
7829 1 28.931476 20.743775 21.436711
7830 1 28.802291 22.353135 23.619742
7831 1 30.511653 20.241486 23.447706
7832 1 30.832077 22.527480 21.778691
7833 1 28.861681 20.477125 25.633466
7834 1 28.898670 23.048312 27.854114
7835 1 30.487850 20.462087 27.514447
7836 1 30.560256 22.506082 25.779143
7837 1 28.343450 20.604164 29.397658
7838 1 28.709387 22.451761 31.307741
7839 1 30.710648 20.110304 31.579776
7840 1 30.793966 22.419701 29.677325
7841 1 29.253665 20.518374 33.902423
7842 1 28.414516 22.213079 35.692625
7843 1 30.975049 20.713313 36.014412
7844 1 30.465232 22.931407 33.268497
7845 1 28.735131 20.656368 37.979561
7846 1 28.736975 22.667561 39.525025
7847 1 30.985573 20.616747 39.316754
7848 1 30.855013 22.670854 37.847573
7849 1 29.005999 20.708146 41.560779
7850 1 28.706543 22.530603 43.916724
7851 1 30.504370 20.583333 43.700535
7852 1 30.816870 22.750504 41.495536
7853 1 28.592761 20.538507 45.565552
7854 1 28.168643 22.545255 48.010316
7855 1 30.666812 20.480880 47.716245
7856 1 30.538760 22.413502 45.764666
7857 1 28.557160 20.681428 49.717052
7858 1 28.438127 22.194606 51.743904
7859 1 30.640102 20.586967 51.968390
7860 1 30.617586 22.472212 49.830122
7861 1 28.648353 20.812016 53.807406
7862 1 28.694425 23.106934 55.919215
7863 1 30.686318 20.667679 55.778207
7864 1 30.417207 22.420857 53.731324
7865 1 28.421415 20.857962 57.996708
7866 1 28.691853 22.793974 60.161379
7867 1 30.814704 20.744607 59.877751
7868 1 30.730332 22.584739 57.888120
7869 1 28.686695 20.508265 62.398314
7870 1 28.603683 22.497611 64.004154
7871 1 30.715653 20.521037 63.693338
7872 1 30.681648 22.534762 61.764287
7873 1 28.918654 20.632789 65.906215
7874 1 30.723734 26.796968 69.642929
7875 1 2.127814 16.528515 68.103426
7876 1 30.843169 22.548559 65.906658
7877 1 26.949345 22.705508 70.185353
7878 1 31.646516 16.006376 72.090792
7879 1 3.017472 14.297517 74.240569
7880 1 28.242253 15.294636 76.411815
7881 1 25.117216 22.485606 72.213982
7882 1 22.935093 24.490943 76.521178
7883 1 25.176554 16.486924 83.607330
7884 1 23.055015 16.255084 71.953639
7885 1 28.837437 7.090304 81.081157
7886 1 27.039518 8.265143 78.579710
7887 1 7.425814 17.146431 82.305078
7888 1 1.462200 22.551425 77.783706
7889 1 2.309714 20.717103 76.075530
7890 1 26.012193 25.642427 84.053748
7891 1 29.281971 14.228889 89.691372
7892 1 26.344284 24.664559 75.773962
7893 1 6.239584 22.763614 81.641826
7894 1 25.664452 31.283537 89.817035
7895 1 31.934143 13.723356 96.469745
7896 1 28.275832 19.776819 92.149467
7897 1 28.284980 19.228071 95.334262
7898 1 29.469656 14.532101 93.694931
7899 1 1.614971 11.315877 85.440017
7900 1 32.029922 15.220363 88.664551
7901 1 24.448506 15.303993 89.325182
7902 1 4.198349 7.587663 109.109126
7903 1 27.174660 22.494634 102.092458
7904 1 6.884337 24.289658 103.812541
7905 1 1.259938 18.015792 102.391718
7906 1 1.792005 14.534690 95.412005
7907 1 3.142177 23.829021 95.968602
7908 1 27.837680 22.054255 98.022438
7909 1 4.908675 23.202964 101.793540
7910 1 0.548679 23.567536 111.991745
7911 1 28.715456 30.972477 116.940720
7912 1 28.784955 18.826571 97.813356
7913 1 26.332692 32.244929 121.356972
7914 1 22.281085 25.317734 121.210845
7915 1 30.599934 26.783907 119.314706
7916 1 1.085547 23.713804 103.148417
7917 1 4.266124 22.905928 125.490854
7918 1 29.051458 8.765347 112.780791
7919 1 29.648053 11.729161 114.575856
7920 1 23.792304 28.945405 116.285625
7921 1 4.124773 14.928306 121.265084
7922 1 21.040400 32.389921 118.495550
7923 1 1.362682 21.052031 110.867488
7924 1 30.034743 28.849109 116.952621
7925 1 26.144225 22.824445 123.511763
7926 1 23.491441 27.834561 121.977520
7927 1 14.343096 20.886723 112.629885
7928 1 30.612324 16.792752 125.221716
7929 1 24.498753 20.600833 132.011695
7930 1 30.876565 22.833259 131.878848
7931 1 30.958424 25.082644 129.916851
7932 1 30.885277 28.649102 129.849462
7933 1 18.855966 26.821706 127.974835
7934 1 30.800213 24.617393 134.483627
7935 1 31.139625 16.649054 133.834674
7936 1 28.747077 20.279809 131.467027
7937 1 28.871817 24.777312 1.554275
7938 1 28.509606 26.690879 3.639292
7939 1 30.922039 25.057616 3.577163
7940 1 30.639615 26.906610 1.710259
7941 1 28.632660 24.306956 5.311795
7942 1 28.778966 27.084104 7.532276
7943 1 30.804250 24.566562 7.458790
7944 1 30.656803 26.675623 5.663258
7945 1 28.976919 24.862111 9.398858
7946 1 28.797881 26.908584 11.390908
7947 1 31.113182 24.935400 11.466870
7948 1 30.826355 26.767470 9.292695
7949 1 28.834803 24.853501 13.519935
7950 1 29.089430 26.966823 15.211812
7951 1 30.761365 24.638584 15.370632
7952 1 31.029394 26.883448 13.350734
7953 1 28.695285 24.607508 17.155030
7954 1 28.756919 26.677046 19.261971
7955 1 30.532254 24.768526 19.575779
7956 1 30.897896 26.498625 17.244587
7957 1 28.801334 24.626362 21.775904
7958 1 28.421827 26.595260 23.902384
7959 1 30.599810 24.488429 23.886103
7960 1 30.796363 26.708490 21.384695
7961 1 28.611393 24.210725 25.411410
7962 1 29.126284 26.639461 27.361281
7963 1 31.062665 24.420098 27.676017
7964 1 30.701771 26.781519 25.391031
7965 1 28.907114 25.277082 29.600575
7966 1 28.872270 26.721597 31.561518
7967 1 30.858705 24.650398 31.254887
7968 1 30.730815 26.988055 29.739961
7969 1 28.459960 24.469549 33.227374
7970 1 28.722142 26.586985 35.832419
7971 1 30.631401 24.560268 35.439546
7972 1 30.560360 26.855178 33.587337
7973 1 28.764460 24.535953 37.712544
7974 1 28.462058 26.525300 39.227132
7975 1 30.966527 24.735521 39.708496
7976 1 30.730771 26.666568 37.384638
7977 1 28.927924 24.787236 41.657549
7978 1 28.799350 26.652535 43.438174
7979 1 31.055538 24.488664 43.559250
7980 1 30.897546 26.676475 41.448585
7981 1 28.714151 24.567215 45.774338
7982 1 28.932150 26.843605 47.691282
7983 1 30.599141 24.697727 47.702381
7984 1 31.129707 26.623929 45.751498
7985 1 28.639358 24.386115 49.763511
7986 1 28.758678 26.548995 51.770049
7987 1 30.434236 24.720283 51.771269
7988 1 31.002714 26.674835 49.565136
7989 1 28.738452 25.110072 54.094106
7990 1 28.534243 27.333946 55.764523
7991 1 30.743222 24.722861 56.041088
7992 1 30.938819 26.861401 54.010338
7993 1 28.599960 24.663020 57.946675
7994 1 28.995049 26.647559 60.005698
7995 1 30.939141 25.046723 59.914902
7996 1 31.104810 26.610532 57.669270
7997 1 28.351963 24.684312 61.924082
7998 1 28.704387 26.647602 63.949422
7999 1 30.814318 24.494311 63.765476
8000 1 30.834420 26.939190 62.215254
8001 1 29.154205 24.911312 65.896527
8002 1 29.081324 22.784899 68.103389
8003 1 2.237476 16.651449 72.410163
8004 1 28.397492 28.992348 65.976737
8005 1 28.702406 20.157715 74.315043
8006 1 27.165515 20.865971 68.155258
8007 1 28.667689 18.120692 76.395379
8008 1 30.963992 24.840816 67.804965
8009 1 31.247688 30.975387 70.009785
8010 1 26.793647 20.219054 72.058737
8011 1 17.647264 18.470810 80.958960
8012 1 29.577716 13.210371 74.508786
8013 1 30.563996 24.925393 71.706492
8014 1 27.000288 22.478986 80.744585
8015 1 30.898837 24.187572 76.153687
8016 1 5.110846 23.706891 83.776039
8017 1 22.039493 18.324653 83.497169
8018 1 24.628066 22.559716 75.858746
8019 1 22.463872 24.197262 79.241210
8020 1 25.791770 4.052029 80.383471
8021 1 31.483582 21.635183 77.513604
8022 1 1.915851 20.013028 85.349892
8023 1 30.705099 20.264476 90.168886
8024 1 6.485791 25.435805 88.719796
8025 1 26.482796 21.504871 90.374487
8026 1 3.411955 14.769646 103.571888
8027 1 29.392256 21.551367 95.623506
8028 1 24.297205 18.457814 100.650469
8029 1 20.998599 19.660059 98.003926
8030 1 0.319153 24.821373 97.010163
8031 1 25.414991 23.629867 98.794871
8032 1 23.384529 25.439155 97.305144
8033 1 30.452305 20.904057 92.715739
8034 1 24.454750 29.620363 103.477357
8035 1 6.339362 28.787149 97.760213
8036 1 27.635455 24.665582 97.768576
8037 1 24.050579 31.489999 94.213063
8038 1 31.055160 20.307270 97.249929
8039 1 2.655641 5.738823 102.712165
8040 1 26.758376 30.282690 102.705014
8041 1 4.246438 1.680814 109.484461
8042 1 5.790382 29.055987 121.148587
8043 1 3.860355 19.719022 112.997281
8044 1 25.390734 29.450571 106.082043
8045 1 28.534971 29.294204 119.073701
8046 1 29.166231 19.746981 111.557526
8047 1 27.797433 26.622887 115.000353
8048 1 32.444976 28.313604 123.861684
8049 1 17.679037 25.659239 114.915740
8050 1 28.003018 22.470320 121.569592
8051 1 21.343383 30.077896 121.070060
8052 1 22.815823 0.055056 126.487847
8053 1 22.999945 26.892890 127.565688
8054 1 21.907003 0.412381 121.161151
8055 1 22.288752 23.607179 119.074674
8056 1 26.353093 22.378910 127.948437
8057 1 27.155212 27.041716 123.686279
8058 1 20.943948 26.749969 129.840297
8059 1 31.001095 18.792547 131.536329
8060 1 26.210772 24.573097 125.622493
8061 1 26.758766 26.685369 127.747713
8062 1 26.597009 24.591880 133.697816
8063 1 0.045553 22.865444 129.670855
8064 1 26.416789 22.718013 131.700933
8065 1 29.001453 28.714585 1.633968
8066 1 28.895182 31.092918 3.682374
8067 1 30.875077 28.822899 3.551456
8068 1 30.706054 30.756445 1.236246
8069 1 28.810831 28.750884 5.279992
8070 1 28.363471 31.319895 7.488887
8071 1 30.721616 29.039125 7.752540
8072 1 30.365374 31.080416 5.878357
8073 1 28.720643 28.983845 9.650698
8074 1 28.945257 30.755164 11.327203
8075 1 30.659278 28.864481 11.777699
8076 1 30.974483 31.133419 9.081821
8077 1 28.789706 29.214685 13.504766
8078 1 28.812139 30.967726 15.345478
8079 1 30.762368 29.066018 15.328542
8080 1 31.032506 30.982091 13.735264
8081 1 29.037682 28.654041 17.473034
8082 1 28.495709 31.149466 19.439856
8083 1 31.164123 28.664633 19.142229
8084 1 30.872883 30.866094 17.327131
8085 1 29.295472 28.801719 21.143772
8086 1 28.633773 30.576926 23.152977
8087 1 30.788057 28.645483 23.416968
8088 1 30.613229 30.993520 21.392040
8089 1 28.800590 28.646453 25.583585
8090 1 29.020272 30.511605 27.508466
8091 1 31.021116 29.076081 27.243507
8092 1 30.653953 30.837954 25.294806
8093 1 28.830735 28.410142 29.388620
8094 1 28.754424 30.777173 31.654056
8095 1 30.921028 28.943854 31.727826
8096 1 30.677264 30.535580 29.647454
8097 1 28.728227 28.960605 33.524231
8098 1 28.920238 30.832906 35.757497
8099 1 30.865742 28.730862 35.740662
8100 1 30.686884 30.923204 33.745056
8101 1 28.792486 28.554548 37.773963
8102 1 29.090244 30.855741 39.881753
8103 1 30.721988 28.844244 39.819606
8104 1 30.806919 30.821203 37.876050
8105 1 28.864878 28.808164 41.854716
8106 1 28.945120 30.832685 43.311423
8107 1 31.202605 28.712251 43.039299
8108 1 31.408213 31.116141 41.521169
8109 1 28.913612 28.693857 45.571433
8110 1 28.556071 31.025027 47.839207
8111 1 31.073426 28.646274 47.343911
8112 1 30.863503 30.836576 45.823834
8113 1 28.941338 28.707204 49.823348
8114 1 28.908548 31.021079 51.714795
8115 1 30.713216 28.852753 51.677731
8116 1 30.897253 30.539151 49.359023
8117 1 28.537507 29.288492 53.505609
8118 1 28.862091 30.935870 55.581316
8119 1 30.569380 28.827431 55.941767
8120 1 30.772575 31.100282 53.807082
8121 1 28.625117 28.596201 58.022144
8122 1 28.930356 30.752885 59.688919
8123 1 30.909343 29.172077 59.226531
8124 1 30.927073 31.122500 57.329488
8125 1 28.598245 28.767063 61.938281
8126 1 28.736932 31.217475 64.139919
8127 1 30.406433 28.997797 64.093666
8128 1 30.514753 30.440827 61.882660
8129 1 26.645944 28.935237 68.130446
8130 1 2.308132 0.442672 71.660810
8131 1 0.355833 30.744671 68.071769
8132 1 30.957579 30.751014 65.977516
8133 1 30.519905 28.862690 67.822250
8134 1 2.298228 2.250680 69.801180
8135 1 0.381283 20.839973 70.276503
8136 1 28.815059 29.052164 70.285195
8137 1 22.480349 30.725665 74.156604
8138 1 28.579584 23.351317 89.718806
8139 1 28.736747 24.814745 69.865380
8140 1 31.125006 0.576281 72.246242
8141 1 19.595592 30.495318 79.598499
8142 1 31.468217 22.966043 80.188020
8143 1 2.525229 20.781913 80.201494
8144 1 24.708025 28.504176 77.820760
8145 1 32.365888 28.604483 73.842974
8146 1 25.053375 25.558489 78.092197
8147 1 10.605362 2.179130 80.076526
8148 1 28.283119 28.567332 77.671897
8149 1 32.425574 0.191589 77.933891
8150 1 6.110177 28.903109 88.662839
8151 1 26.542282 21.064449 94.721342
8152 1 2.285725 21.033646 91.440979
8153 1 26.686211 14.833878 94.571399
8154 1 2.555451 1.386193 96.154014
8155 1 31.252647 22.413588 88.047753
8156 1 30.462947 23.965863 93.928469
8157 1 28.026182 30.249038 97.407089
8158 1 27.992237 0.041618 93.847408
8159 1 1.740734 23.066693 81.359593
8160 1 19.046730 2.015165 92.259383
8161 1 27.549466 26.080436 89.807751
8162 1 6.370672 3.049248 109.799525
8163 1 31.318472 27.161191 109.460905
8164 1 0.137146 17.485195 93.860866
8165 1 29.172173 26.119891 95.190298
8166 1 2.234681 7.233249 106.445967
8167 1 30.599833 26.639254 114.802170
8168 1 1.037747 26.222698 104.363265
8169 1 4.738987 4.238416 116.602470
8170 1 10.631585 27.649710 114.100217
8171 1 1.048662 29.710969 116.585665
8172 1 3.460174 0.304508 104.214135
8173 1 29.321160 32.108953 119.473558
8174 1 22.832745 1.805331 117.419793
8175 1 31.802773 1.799615 120.197950
8176 1 15.258854 5.907931 110.049024
8177 1 3.397924 4.770648 118.964287
8178 1 2.125706 4.563186 121.765470
8179 1 28.348804 27.086268 120.423460
8180 1 7.368441 3.369934 123.365112
8181 1 18.061496 29.187025 120.988882
8182 1 27.998340 18.838477 121.672534
8183 1 26.909862 3.717050 121.228772
8184 1 28.363449 4.876909 119.237347
8185 1 24.681317 31.123226 133.850298
8186 1 28.740523 30.779462 133.942422
8187 1 6.165649 31.305509 122.610533
8188 1 30.567252 0.521289 129.720239
8189 1 28.564863 0.178016 131.781914
8190 1 32.575215 2.141204 129.661880
8191 1 30.668183 26.914960 131.956659
8192 1 26.838564 26.735642 131.781908
