LAMMPS (10 Sep 2025)
  using 1 OpenMP thread(s) per MPI task
package gpu 1
# E4 — seeding at zero thermal-field gradient: a spherical fcc seed of radius R in undercooled liquid Al at T.
# The seed grows if R > r_c(T) and melts if R < r_c(T); bracketing T for each R gives ΔT(r_c) and the
# Gibbs–Thomson reference Γ = ΔT·r_c/2 at ∇T = 0 (baseline for the NEMD runs with an imposed gradient).
#   lmp -sf gpu -pk gpu 1 -in in.seed -var pot borovikov -var T 820 -var R 20 -var seed 1
# Lengths Å, time ps, energy eV. Solid atoms: ten Wolde q6 bonds (see below).
variable pot   index borovikov
variable T     index 820
variable R     index 20          # seed radius [Å]
variable n     index 32          # box = n fcc cells per side
variable seed  index 1
variable neq   index 5000        # 10 ps per preparation stage
variable nprod index 30000       # 60 ps production
variable ncool index 2500        # 5 ps quench of the liquid to T (short: the seed can already grow here)
variable Tmelt index 1500
variable qdot  index 0.5
variable nbond index 7
variable a0 equal 4.05
if "${pot} == borovikov" then "variable a0 equal 4.016"
variable a0 equal 4.016
if "${pot} == mendelev" then "variable a0 equal 4.045"

units        metal
atom_style   atomic
boundary     p p p
lattice      fcc ${a0}
lattice      fcc 4.016
Lattice spacing in x,y,z = 4.016 4.016 4.016
region       box block 0 ${n} 0 ${n} 0 ${n}
region       box block 0 32 0 ${n} 0 ${n}
region       box block 0 32 0 32 0 ${n}
region       box block 0 32 0 32 0 32
create_box   1 box
Created orthogonal box = (0 0 0) to (128.512 128.512 128.512)
  1 by 1 by 1 MPI processor grid
create_atoms 1 box
Created 131072 atoms
  using lattice units in orthogonal box = (0 0 0) to (128.512 128.512 128.512)
  create_atoms CPU = 0.006 seconds
mass         1 26.982
include      ../e2_melting/pot_${pot}.lmp
include      ../e2_melting/pot_borovikov.lmp
# Borovikov, Mendelev, Zarkevich, Smith, Lawson, Int. J. Plast. 178 (2024) 104004 — EAM/FS Ni-Al-Nb (NIST IPR)
pair_style eam/fs
pair_coeff * * ../../potentials/NiAlNb_Borovikov2024/Ni-Al-Nb.eam.fs Al
timestep     0.002
thermo       500

# 1) solid at T, zero stress: box at the solid density of T (the seed keeps this lattice)
velocity     all create ${T} $(1000+v_seed) mom yes rot yes dist gaussian
velocity     all create 850 $(1000+v_seed) mom yes rot yes dist gaussian
velocity     all create 850 1001 mom yes rot yes dist gaussian
fix          eq all npt temp ${T} ${T} 0.2 iso 0.0 0.0 2.0
fix          eq all npt temp 850 ${T} 0.2 iso 0.0 0.0 2.0
fix          eq all npt temp 850 850 0.2 iso 0.0 0.0 2.0
run          ${neq}
run          5000

CITE-CITE-CITE-CITE-CITE-CITE-CITE-CITE-CITE-CITE-CITE-CITE-CITE

Your simulation uses code contributions which should be cited:

- GPU package (short-range, long-range and three-body potentials): doi:10.1016/j.cpc.2010.12.021, doi:10.1016/j.cpc.2011.10.012, doi:10.1016/j.cpc.2013.08.002, doi:10.1016/j.commatsci.2014.10.068, doi:10.1016/j.cpc.2016.10.020, doi:10.3233/APC200086

@Article{Brown11,
 author = {W. M. Brown and P. Wang and S. J. Plimpton and A. N. Tharrington},
 title = {Implementing Molecular Dynamics on Hybrid High Performance Computers---Short Range Forces},
 journal = {Comput.\ Phys.\ Commun.},
 year =    2011,
 volume =  182,
 pages =   {898--911},
 doi =     {10.1016/j.cpc.2010.12.021}
}

@Article{Brown12,
 author = {W. M. Brown and A. Kohlmeyer and S. J. Plimpton and A. N. Tharrington},
 title = {Implementing Molecular Dynamics on Hybrid High Performance Computers - Particle-Particle Particle-Mesh},
 journal = {Comput.\ Phys.\ Commun.},
 year =    2012,
 volume =  183,
 doi =     {10.1016/j.cpc.2011.10.012},
 pages =   {449--459}
}

@Article{Brown13,
 author = {W. M. Brown and Y. Masako},
 title = {Implementing Molecular Dynamics on Hybrid High Performance Computers---Three-Body Potentials},
 journal = {Comput.\ Phys.\ Commun.},
 year =    2013,
 volume =  184,
 pages =   {2785--2793},
 doi =     {10.1016/j.cpc.2013.08.002},
}

@Article{Trung15,
 author = {T. D. Nguyen and S. J. Plimpton},
 title = {Accelerating Dissipative Particle Dynamics Simulations for Soft Matter Systems},
 journal = {Comput.\ Mater.\ Sci.},
 year =    2015,
 doi =     {10.1016/j.commatsci.2014.10.068},
 volume =  100,
 pages =   {173--180}
}

@Article{Trung17,
 author = {T. D. Nguyen},
 title = {{GPU}-Accelerated {T}ersoff Potentials for Massively Parallel
    Molecular Dynamics Simulations},
 journal = {Comput.\ Phys.\ Commun.},
 year =    2017,
 doi =     {10.1016/j.cpc.2016.10.020},
 volume =  212,
 pages =   {113--122}
}

@inproceedings{Nikolskiy19,
 author = {V. Nikolskiy and V. Stegailov},
 title = {{GPU} Acceleration of Four-Site Water Models in {LAMMPS}},
 booktitle = {Proceedings of the International Conference on Parallel
    Computing (ParCo 2019), Prague, Czech Republic},
 doi =     {10.3233/APC200086},
 year =    2019
}

CITE-CITE-CITE-CITE-CITE-CITE-CITE-CITE-CITE-CITE-CITE-CITE-CITE

Per MPI rank memory allocation (min/avg/max) = 36.82 | 36.82 | 36.82 Mbytes
   Step          Temp          E_pair         E_mol          TotEng         Press          Volume    
         0   850           -467185.92      0             -452785         7240.5925      2122418.6    
       500   552.34977     -458299.72      0             -448941.67      1367.4956      2214316.5    
      1000   728.87702     -454767.36      0             -442418.54      1439.7535      2249471.1    
      1500   855.07941     -451847.68      0             -437360.71      524.72416      2280789.2    
      2000   843.78501     -452163.03      0             -437867.41      76.59528       2278716.6    
      2500   847.35195     -451830.14      0             -437474.09     -79.657765      2282187.1    
      3000   853.28826     -451850.53      0             -437393.91     -46.250839      2282127.4    
      3500   847.05184     -451976.4       0             -437625.43      177.16014      2280256.7    
      4000   848.01832     -451943.82      0             -437576.48     -39.477541      2281000.4    
      4500   852.4644      -451891.4       0             -437448.73     -208.13043      2282201.5    
      5000   850.46431     -451949.93      0             -437541.14     -49.941186      2281258.3    
Loop time of 51.6985 on 1 procs for 5000 steps with 131072 atoms

Performance: 16.712 ns/day, 1.436 hours/ns, 96.715 timesteps/s, 12.677 Matom-step/s
110.3% CPU use with 1 MPI tasks x 1 OpenMP threads

MPI task timing breakdown:
Section |  min time  |  avg time  |  max time  |%varavg| %total
---------------------------------------------------------------
Pair    | 37.348     | 37.348     | 37.348     |   0.0 | 72.24
Neigh   | 0.058878   | 0.058878   | 0.058878   |   0.0 |  0.11
Comm    | 2.0121     | 2.0121     | 2.0121     |   0.0 |  3.89
Output  | 0.0030735  | 0.0030735  | 0.0030735  |   0.0 |  0.01
Modify  | 10.105     | 10.105     | 10.105     |   0.0 | 19.55
Other   |            | 2.171      |            |       |  4.20

Nlocal:         131072 ave      131072 max      131072 min
Histogram: 1 0 0 0 0 0 0 0 0 0
Nghost:          63420 ave       63420 max       63420 min
Histogram: 1 0 0 0 0 0 0 0 0 0
Neighs:              0 ave           0 max           0 min
Histogram: 1 0 0 0 0 0 0 0 0 0

Total # of neighbors = 0
Ave neighs/atom = 0
Neighbor list builds = 228
Dangerous builds = 0
unfix        eq
# Solid atoms by the ten Wolde criterion: q6 vectors over the 12 nearest neighbours; a bond i-j is solid-like
# if q6(i)·q6(j) > qdot; an atom is solid if it has >= nbond such bonds. Cutoff 0.854·a(T) (between the 1st
# and 2nd shells of the solid at T). CNA was tried and rejected: at 820 K it labels only 56 % of a perfect crystal.
variable     aT equal (vol/(${n}^3))^(1/3)
variable     aT equal (vol/(32^3))^(1/3)
print        "lattice at T: a = $(v_aT:%.4f) A, neighbour cutoff = $(0.854*v_aT:%.4f) A"
lattice at T: a = 4.1138 A, neighbour cutoff = 3.5132 A
compute      q6 all orientorder/atom degrees 1 6 components 6 nnn 12 cutoff $(0.854*v_aT)
compute      q6 all orientorder/atom degrees 1 6 components 6 nnn 12 cutoff 3.5131717067922028086
compute      nb all coord/atom orientorder q6 ${qdot}
compute      nb all coord/atom orientorder q6 0.5
variable     issol atom c_nb>=${nbond}
variable     issol atom c_nb>=7
compute      nsol all reduce sum v_issol
variable     Nsol equal c_nsol
thermo_style custom step temp press pe vol v_Nsol
run          0
WARNING: No fixes with time integration, atoms won't move
For more information see https://docs.lammps.org/err0028 (src/lammps-10Sep2025/src/verlet.cpp:60)
Neighbor list info ...
  update: every = 1 steps, delay = 0 steps, check = yes
  max neighbors/atom: 2000, page size: 100000
  master list distance cutoff = 8.9
  ghost atom cutoff = 8.9
  binsize = 4.45, bins = 30 30 30
  2 neighbor lists, perpetual/occasional/extra = 0 2 0
  (1) compute orientorder/atom, occasional
      attributes: full, newton on
      pair build: full/bin/atomonly
      stencil: full/bin/3d
      bin: standard
  (2) compute coord/atom, occasional
      attributes: full, newton on
      pair build: full/bin/atomonly
      stencil: full/bin/3d
      bin: standard
Per MPI rank memory allocation (min/avg/max) = 47.25 | 47.25 | 47.25 Mbytes
   Step          Temp          Press          PotEng         Volume         v_Nsol    
      5000   850.46431     -49.941193     -451949.93      2281258.3      115972       
Loop time of 8.54e-07 on 1 procs for 0 steps with 131072 atoms

585.5% CPU use with 1 MPI tasks x 1 OpenMP threads

MPI task timing breakdown:
Section |  min time  |  avg time  |  max time  |%varavg| %total
---------------------------------------------------------------
Pair    | 0          | 0          | 0          |   0.0 |  0.00
Neigh   | 0          | 0          | 0          |   0.0 |  0.00
Comm    | 0          | 0          | 0          |   0.0 |  0.00
Output  | 0          | 0          | 0          |   0.0 |  0.00
Modify  | 0          | 0          | 0          |   0.0 |  0.00
Other   |            | 8.54e-07   |            |       |100.00

Nlocal:         131072 ave      131072 max      131072 min
Histogram: 1 0 0 0 0 0 0 0 0 0
Nghost:          63423 ave       63423 max       63423 min
Histogram: 1 0 0 0 0 0 0 0 0 0
Neighs:              0 ave           0 max           0 min
Histogram: 1 0 0 0 0 0 0 0 0 0
FullNghs:  2.21834e+07 ave 2.21834e+07 max 2.21834e+07 min
Histogram: 1 0 0 0 0 0 0 0 0 0

Total # of neighbors = 22183372
Ave neighs/atom = 169.2457
Neighbor list builds = 0
Dangerous builds = 0

# 2) melt everything outside the sphere with the seed frozen, then bring the liquid to T. Both stages at P = 0:
#    only the liquid is integrated and dilated, and thermostat/barostat use the liquid temperature
#    (fix npt on 'all' would thermostat the frozen seed too — HANDOFF §7; at fixed volume the liquid sits at
#    the solid density, ~4 GPa, and crystallises on cooling).
variable     xc equal (xlo+xhi)/2
variable     yc equal (ylo+yhi)/2
variable     zc equal (zlo+zhi)/2
region       ball sphere ${xc} ${yc} ${zc} ${R} units box
region       ball sphere 64.256000000001 ${yc} ${zc} ${R} units box
region       ball sphere 64.256000000001 64.256000000001 ${zc} ${R} units box
region       ball sphere 64.256000000001 64.256000000001 64.256000000001 ${R} units box
region       ball sphere 64.256000000001 64.256000000001 64.256000000001 30 units box
group        sol region ball
6524 atoms in group sol
group        liq subtract all sol
124548 atoms in group liq
compute      tliq liq temp
velocity     sol set 0 0 0
fix          freeze sol setforce 0 0 0
velocity     liq create ${Tmelt} $(2000+v_seed) mom yes rot yes dist gaussian
velocity     liq create 1500 $(2000+v_seed) mom yes rot yes dist gaussian
velocity     liq create 1500 2001 mom yes rot yes dist gaussian
fix          melt liq npt temp ${Tmelt} ${Tmelt} 0.2 iso 0.0 0.0 2.0 dilate liq
fix          melt liq npt temp 1500 ${Tmelt} 0.2 iso 0.0 0.0 2.0 dilate liq
fix          melt liq npt temp 1500 1500 0.2 iso 0.0 0.0 2.0 dilate liq
fix_modify   melt temp tliq
WARNING: Temperature for fix modify is not for group all (src/lammps-10Sep2025/src/fix_nh.cpp:1402)
run          ${neq}
run          5000
Per MPI rank memory allocation (min/avg/max) = 266.8 | 266.8 | 266.8 Mbytes
   Step          Temp          Press          PotEng         Volume         v_Nsol    
      5000   1425.3382      4510.3068     -451949.93      2281258.3      115972       
      5500   1198.3359      4435.9108     -441756.9       2373389.2      44786        
      6000   1280.8045      6913.0318     -435126.08      2441868.1      10468        
      6500   1332.2714      6968.7016     -428149.39      2533580        4987         
      7000   1430.2704      2700.3962     -424298.14      2600037.2      4575         
      7500   1427.2927      82.790596     -423531.8       2621750        4532         
      8000   1425.1565      52.262774     -423566.66      2621696.5      4507         
      8500   1421.6337      2.8605231     -423546.5       2621405.2      4535         
      9000   1424.692       72.22344      -423489.88      2622437.9      4514         
      9500   1423.204       254.16404     -423608.3       2620518.3      4541         
     10000   1426.4153     -93.19448      -423481.15      2623354.5      4490         
Loop time of 59.0785 on 1 procs for 5000 steps with 131072 atoms

Performance: 14.625 ns/day, 1.641 hours/ns, 84.633 timesteps/s, 11.093 Matom-step/s
110.3% CPU use with 1 MPI tasks x 1 OpenMP threads

MPI task timing breakdown:
Section |  min time  |  avg time  |  max time  |%varavg| %total
---------------------------------------------------------------
Pair    | 35.253     | 35.253     | 35.253     |   0.0 | 59.67
Neigh   | 0.33302    | 0.33302    | 0.33302    |   0.0 |  0.56
Comm    | 1.9237     | 1.9237     | 1.9237     |   0.0 |  3.26
Output  | 7.6642     | 7.6642     | 7.6642     |   0.0 | 12.97
Modify  | 11.77      | 11.77      | 11.77      |   0.0 | 19.92
Other   |            | 2.134      |            |       |  3.61

Nlocal:         131072 ave      131072 max      131072 min
Histogram: 1 0 0 0 0 0 0 0 0 0
Nghost:          57190 ave       57190 max       57190 min
Histogram: 1 0 0 0 0 0 0 0 0 0
Neighs:              0 ave           0 max           0 min
Histogram: 1 0 0 0 0 0 0 0 0 0
FullNghs:  1.92079e+07 ave 1.92079e+07 max 1.92079e+07 min
Histogram: 1 0 0 0 0 0 0 0 0 0

Total # of neighbors = 19207945
Ave neighs/atom = 146.54499
Neighbor list builds = 326
Dangerous builds = 0
unfix        melt
fix          cool liq npt temp ${T} ${T} 0.2 iso 0.0 0.0 2.0 dilate liq
fix          cool liq npt temp 850 ${T} 0.2 iso 0.0 0.0 2.0 dilate liq
fix          cool liq npt temp 850 850 0.2 iso 0.0 0.0 2.0 dilate liq
fix_modify   cool temp tliq
WARNING: Temperature for fix modify is not for group all (src/lammps-10Sep2025/src/fix_nh.cpp:1402)
run          ${ncool}
run          2500
Per MPI rank memory allocation (min/avg/max) = 266.8 | 266.8 | 266.8 Mbytes
   Step          Temp          Press          PotEng         Volume         v_Nsol    
     10000   1426.4153     -93.194598     -423481.15      2623354.5      4490         
     10500   1070.6191     -3706.0481     -431608.76      2535301.8      4695         
     11000   875.46025     -1985.1717     -438008.57      2454939.3      4992         
     11500   799.49874     -149.63182     -441074.13      2415872.9      5294         
     12000   812.08618     -339.93335     -441175.62      2414712.8      5554         
     12500   806.76156      78.418419     -441373.88      2411173.7      5749         
Loop time of 29.89 on 1 procs for 2500 steps with 131072 atoms

Performance: 14.453 ns/day, 1.661 hours/ns, 83.640 timesteps/s, 10.963 Matom-step/s
110.5% CPU use with 1 MPI tasks x 1 OpenMP threads

MPI task timing breakdown:
Section |  min time  |  avg time  |  max time  |%varavg| %total
---------------------------------------------------------------
Pair    | 17.886     | 17.886     | 17.886     |   0.0 | 59.84
Neigh   | 0.13254    | 0.13254    | 0.13254    |   0.0 |  0.44
Comm    | 0.89258    | 0.89258    | 0.89258    |   0.0 |  2.99
Output  | 3.9695     | 3.9695     | 3.9695     |   0.0 | 13.28
Modify  | 5.958      | 5.958      | 5.958      |   0.0 | 19.93
Other   |            | 1.052      |            |       |  3.52

Nlocal:         131072 ave      131072 max      131072 min
Histogram: 1 0 0 0 0 0 0 0 0 0
Nghost:          59127 ave       59127 max       59127 min
Histogram: 1 0 0 0 0 0 0 0 0 0
Neighs:              0 ave           0 max           0 min
Histogram: 1 0 0 0 0 0 0 0 0 0
FullNghs:  2.07874e+07 ave 2.07874e+07 max 2.07874e+07 min
Histogram: 1 0 0 0 0 0 0 0 0 0

Total # of neighbors = 20787415
Ave neighs/atom = 158.59539
Neighbor list builds = 132
Dangerous builds = 0
unfix        cool
unfix        freeze

# 3) production: everything free, NPT iso at T
velocity     sol create ${T} $(3000+v_seed) mom yes rot yes dist gaussian
velocity     sol create 850 $(3000+v_seed) mom yes rot yes dist gaussian
velocity     sol create 850 3001 mom yes rot yes dist gaussian
fix          prod all npt temp ${T} ${T} 0.2 iso 0.0 0.0 2.0
fix          prod all npt temp 850 ${T} 0.2 iso 0.0 0.0 2.0
fix          prod all npt temp 850 850 0.2 iso 0.0 0.0 2.0
run          ${nprod}
run          30000
Per MPI rank memory allocation (min/avg/max) = 266.8 | 266.8 | 266.8 Mbytes
   Step          Temp          Press          PotEng         Volume         v_Nsol    
     12500   849.06344      395.90218     -441373.88      2411173.7      5749         
     13000   849.84198      131.71219     -441282.85      2413363.1      5397         
     13500   848.37648     -89.493342     -441201.48      2415008.7      5174         
     14000   849.79059      158.26004     -441296.71      2412982.6      5356         
     14500   849.91361      49.37252      -441392.26      2412508.9      5357         
     15000   852.05762      32.375859     -441306.19      2412997.5      5133         
     15500   854.78191     -38.878999     -441195.99      2414495.9      5137         
     16000   848.99394     -176.46141     -441330.63      2413682.4      5107         
     16500   850.9818       214.41557     -441260.81      2413188.3      5232         
     17000   848.84243     -238.07295     -441304.18      2413768.2      5266         
     17500   851.77163     -55.551052     -441241.63      2414431.3      5118         
     18000   848.4738       3.5163451     -441234.44      2414035.3      5211         
     18500   852.78286     -14.836761     -441238.99      2414239.5      4974         
     19000   848.60758     -106.28217     -441270.81      2414159.3      5271         
     19500   848.7807       153.09402     -441307.7       2412894.3      5290         
     20000   850.42315      24.181673     -441273.24      2414034.9      5223         
     20500   850.3188       155.51825     -441236.97      2413502        5247         
     21000   850.25178     -52.733318     -441305.87      2413713.9      5227         
     21500   849.65817     -133.80513     -441283.96      2413626.8      5104         
     22000   854.48982     -27.023104     -441239.51      2414224.4      5154         
     22500   847.38642     -123.02606     -441284.07      2413739.7      5201         
     23000   849.46416      161.29308     -441255.31      2413176.5      5295         
     23500   849.48872     -72.151325     -441236.52      2414226.9      5308         
     24000   847.00674      285.4201      -441300.22      2412571.8      5137         
     24500   846.55042     -109.96668     -441294.85      2413883        5158         
     25000   851.49361      132.77508     -441255.2       2413208.6      5365         
     25500   852.74656      51.432201     -441239.55      2413915.1      5212         
     26000   849.92149     -55.971704     -441267.94      2414251.5      5215         
     26500   850.93175      142.44627     -441259.89      2413513.4      5227         
     27000   848.28347     -18.841911     -441312.47      2413525.9      5371         
     27500   848.29431      69.44319      -441312.31      2413039.1      5397         
     28000   853.00331      1.2741678     -441210.36      2414891.9      5304         
     28500   850.43999     -221.46925     -441297.35      2414113.7      5348         
     29000   852.3454       309.08436     -441321.65      2412280.9      5316         
     29500   849.61405     -171.57078     -441274.73      2414509.8      5222         
     30000   848.47721      28.823138     -441247.11      2413679.4      5473         
     30500   849.67667      26.017873     -441315.89      2413002.7      5506         
     31000   850.28482     -34.086194     -441318.06      2413513.2      5484         
     31500   853.18467     -145.00039     -441343.69      2413327.5      5439         
     32000   849.9441       50.909189     -441212.45      2414523.1      5368         
     32500   848.99011      21.448023     -441265.56      2413913.5      5448         
     33000   849.21779     -23.432995     -441199.51      2414722.2      5221         
     33500   847.84672      30.095836     -441265.11      2413916.8      5237         
     34000   850.35664      41.642664     -441350.91      2413000        5395         
     34500   851.46337     -361.41653     -441287.23      2414743.2      5267         
     35000   849.66515      47.163915     -441323.6       2413486.3      5170         
     35500   848.14325      148.06295     -441241.48      2413658.2      5286         
     36000   848.51306     -103.19933     -441259.32      2414237        5187         
     36500   848.65636      308.19746     -441297.11      2412736.6      5169         
     37000   846.9999      -141.27943     -441298.45      2413208        5230         
     37500   847.75781      151.60582     -441336.35      2412562.9      5377         
     38000   849.84031      100.35934     -441286.52      2413214.6      5292         
     38500   849.35469     -173.92249     -441219.83      2414902.3      5398         
     39000   851.82035     -15.489127     -441343.15      2413068.6      5463         
     39500   851.37505      177.88523     -441368.22      2412216.5      5628         
     40000   850.33331      153.05563     -441459.68      2411202.5      5463         
     40500   849.27994     -197.16814     -441331.33      2413557.3      5300         
     41000   849.40387      111.40572     -441413.56      2412181.3      5507         
     41500   851.64273     -4.1800781     -441266.12      2413613.9      5348         
     42000   849.7565       89.385071     -441394.25      2412422.7      5373         
     42500   850.26908     -146.84853     -441272.53      2413893.5      5233         
Loop time of 348.216 on 1 procs for 30000 steps with 131072 atoms

Performance: 14.887 ns/day, 1.612 hours/ns, 86.153 timesteps/s, 11.292 Matom-step/s
110.4% CPU use with 1 MPI tasks x 1 OpenMP threads

MPI task timing breakdown:
Section |  min time  |  avg time  |  max time  |%varavg| %total
---------------------------------------------------------------
Pair    | 217.28     | 217.28     | 217.28     |   0.0 | 62.40
Neigh   | 1.475      | 1.475      | 1.475      |   0.0 |  0.42
Comm    | 10.624     | 10.624     | 10.624     |   0.0 |  3.05
Output  | 48.178     | 48.178     | 48.178     |   0.0 | 13.84
Modify  | 58.167     | 58.167     | 58.167     |   0.0 | 16.70
Other   |            | 12.5       |            |       |  3.59

Nlocal:         131072 ave      131072 max      131072 min
Histogram: 1 0 0 0 0 0 0 0 0 0
Nghost:          59299 ave       59299 max       59299 min
Histogram: 1 0 0 0 0 0 0 0 0 0
Neighs:              0 ave           0 max           0 min
Histogram: 1 0 0 0 0 0 0 0 0 0
FullNghs:  2.07603e+07 ave 2.07603e+07 max 2.07603e+07 min
Histogram: 1 0 0 0 0 0 0 0 0 0

Total # of neighbors = 20760344
Ave neighs/atom = 158.38885
Neighbor list builds = 1446
Dangerous builds = 0
Total wall time: 0:08:15
