LAMMPS (10 Sep 2025)
  using 1 OpenMP thread(s) per MPI task
package gpu 1
# E4 — seeding at zero thermal-field gradient: a spherical fcc seed of radius R in undercooled liquid Al at T.
# The seed grows if R > r_c(T) and melts if R < r_c(T); bracketing T for each R gives ΔT(r_c) and the
# Gibbs–Thomson reference Γ = ΔT·r_c/2 at ∇T = 0 (baseline for the NEMD runs with an imposed gradient).
#   lmp -sf gpu -pk gpu 1 -in in.seed -var pot borovikov -var T 820 -var R 20 -var seed 1
# Lengths Å, time ps, energy eV. Solid atoms: ten Wolde q6 bonds (see below).
variable pot   index borovikov
variable T     index 820
variable R     index 20          # seed radius [Å]
variable n     index 32          # box = n fcc cells per side
variable seed  index 1
variable neq   index 5000        # 10 ps per preparation stage
variable nprod index 30000       # 60 ps production
variable ncool index 2500        # 5 ps quench of the liquid to T (short: the seed can already grow here)
variable Tmelt index 1500
variable qdot  index 0.5
variable nbond index 7
variable a0 equal 4.05
if "${pot} == borovikov" then "variable a0 equal 4.016"
variable a0 equal 4.016
if "${pot} == mendelev" then "variable a0 equal 4.045"

units        metal
atom_style   atomic
boundary     p p p
lattice      fcc ${a0}
lattice      fcc 4.016
Lattice spacing in x,y,z = 4.016 4.016 4.016
region       box block 0 ${n} 0 ${n} 0 ${n}
region       box block 0 32 0 ${n} 0 ${n}
region       box block 0 32 0 32 0 ${n}
region       box block 0 32 0 32 0 32
create_box   1 box
Created orthogonal box = (0 0 0) to (128.512 128.512 128.512)
  1 by 1 by 1 MPI processor grid
create_atoms 1 box
Created 131072 atoms
  using lattice units in orthogonal box = (0 0 0) to (128.512 128.512 128.512)
  create_atoms CPU = 0.011 seconds
mass         1 26.982
include      ../e2_melting/pot_${pot}.lmp
include      ../e2_melting/pot_borovikov.lmp
# Borovikov, Mendelev, Zarkevich, Smith, Lawson, Int. J. Plast. 178 (2024) 104004 — EAM/FS Ni-Al-Nb (NIST IPR)
pair_style eam/fs
pair_coeff * * ../../potentials/NiAlNb_Borovikov2024/Ni-Al-Nb.eam.fs Al
timestep     0.002
thermo       500

# 1) solid at T, zero stress: box at the solid density of T (the seed keeps this lattice)
velocity     all create ${T} $(1000+v_seed) mom yes rot yes dist gaussian
velocity     all create 870 $(1000+v_seed) mom yes rot yes dist gaussian
velocity     all create 870 1001 mom yes rot yes dist gaussian
fix          eq all npt temp ${T} ${T} 0.2 iso 0.0 0.0 2.0
fix          eq all npt temp 870 ${T} 0.2 iso 0.0 0.0 2.0
fix          eq all npt temp 870 870 0.2 iso 0.0 0.0 2.0
run          ${neq}
run          5000

CITE-CITE-CITE-CITE-CITE-CITE-CITE-CITE-CITE-CITE-CITE-CITE-CITE

Your simulation uses code contributions which should be cited:

- GPU package (short-range, long-range and three-body potentials): doi:10.1016/j.cpc.2010.12.021, doi:10.1016/j.cpc.2011.10.012, doi:10.1016/j.cpc.2013.08.002, doi:10.1016/j.commatsci.2014.10.068, doi:10.1016/j.cpc.2016.10.020, doi:10.3233/APC200086

@Article{Brown11,
 author = {W. M. Brown and P. Wang and S. J. Plimpton and A. N. Tharrington},
 title = {Implementing Molecular Dynamics on Hybrid High Performance Computers---Short Range Forces},
 journal = {Comput.\ Phys.\ Commun.},
 year =    2011,
 volume =  182,
 pages =   {898--911},
 doi =     {10.1016/j.cpc.2010.12.021}
}

@Article{Brown12,
 author = {W. M. Brown and A. Kohlmeyer and S. J. Plimpton and A. N. Tharrington},
 title = {Implementing Molecular Dynamics on Hybrid High Performance Computers - Particle-Particle Particle-Mesh},
 journal = {Comput.\ Phys.\ Commun.},
 year =    2012,
 volume =  183,
 doi =     {10.1016/j.cpc.2011.10.012},
 pages =   {449--459}
}

@Article{Brown13,
 author = {W. M. Brown and Y. Masako},
 title = {Implementing Molecular Dynamics on Hybrid High Performance Computers---Three-Body Potentials},
 journal = {Comput.\ Phys.\ Commun.},
 year =    2013,
 volume =  184,
 pages =   {2785--2793},
 doi =     {10.1016/j.cpc.2013.08.002},
}

@Article{Trung15,
 author = {T. D. Nguyen and S. J. Plimpton},
 title = {Accelerating Dissipative Particle Dynamics Simulations for Soft Matter Systems},
 journal = {Comput.\ Mater.\ Sci.},
 year =    2015,
 doi =     {10.1016/j.commatsci.2014.10.068},
 volume =  100,
 pages =   {173--180}
}

@Article{Trung17,
 author = {T. D. Nguyen},
 title = {{GPU}-Accelerated {T}ersoff Potentials for Massively Parallel
    Molecular Dynamics Simulations},
 journal = {Comput.\ Phys.\ Commun.},
 year =    2017,
 doi =     {10.1016/j.cpc.2016.10.020},
 volume =  212,
 pages =   {113--122}
}

@inproceedings{Nikolskiy19,
 author = {V. Nikolskiy and V. Stegailov},
 title = {{GPU} Acceleration of Four-Site Water Models in {LAMMPS}},
 booktitle = {Proceedings of the International Conference on Parallel
    Computing (ParCo 2019), Prague, Czech Republic},
 doi =     {10.3233/APC200086},
 year =    2019
}

CITE-CITE-CITE-CITE-CITE-CITE-CITE-CITE-CITE-CITE-CITE-CITE-CITE

Per MPI rank memory allocation (min/avg/max) = 36.82 | 36.82 | 36.82 Mbytes
   Step          Temp          E_pair         E_mol          TotEng         Press          Volume    
         0   870           -467185.92      0             -452446.15      7411.118       2122418.6    
       500   563.99701     -458089.32      0             -448533.93      1439.1825      2216238.3    
      1000   744.81842     -454471.05      0             -441852.15      1483.254       2252343.1    
      1500   874.52939     -451420.81      0             -436604.31      607.65885      2284958.8    
      2000   859.84269     -451625.84      0             -437058.16      191.90189      2283696.8    
      2500   871.03636     -451404.14      0             -436646.81     -180.42182      2286848.8    
      3000   870.43284     -451327.64      0             -436580.54      155.52133      2286748.9    
      3500   866.82964     -451527.04      0             -436840.99      33.703604      2285219.6    
      4000   869.29549     -451494.47      0             -436766.64      5.1941474      2285624.7    
      4500   873.48287     -451426.08      0             -436627.31     -125.24829      2286668.7    
      5000   867.86349     -451460.45      0             -436756.89      56.590798      2285812      
Loop time of 51.1826 on 1 procs for 5000 steps with 131072 atoms

Performance: 16.881 ns/day, 1.422 hours/ns, 97.689 timesteps/s, 12.804 Matom-step/s
110.3% CPU use with 1 MPI tasks x 1 OpenMP threads

MPI task timing breakdown:
Section |  min time  |  avg time  |  max time  |%varavg| %total
---------------------------------------------------------------
Pair    | 37.685     | 37.685     | 37.685     |   0.0 | 73.63
Neigh   | 0.056402   | 0.056402   | 0.056402   |   0.0 |  0.11
Comm    | 1.852      | 1.852      | 1.852      |   0.0 |  3.62
Output  | 0.0030633  | 0.0030633  | 0.0030633  |   0.0 |  0.01
Modify  | 9.5159     | 9.5159     | 9.5159     |   0.0 | 18.59
Other   |            | 2.07       |            |       |  4.05

Nlocal:         131072 ave      131072 max      131072 min
Histogram: 1 0 0 0 0 0 0 0 0 0
Nghost:          63420 ave       63420 max       63420 min
Histogram: 1 0 0 0 0 0 0 0 0 0
Neighs:              0 ave           0 max           0 min
Histogram: 1 0 0 0 0 0 0 0 0 0

Total # of neighbors = 0
Ave neighs/atom = 0
Neighbor list builds = 231
Dangerous builds = 0
unfix        eq
# Solid atoms by the ten Wolde criterion: q6 vectors over the 12 nearest neighbours; a bond i-j is solid-like
# if q6(i)·q6(j) > qdot; an atom is solid if it has >= nbond such bonds. Cutoff 0.854·a(T) (between the 1st
# and 2nd shells of the solid at T). CNA was tried and rejected: at 820 K it labels only 56 % of a perfect crystal.
variable     aT equal (vol/(${n}^3))^(1/3)
variable     aT equal (vol/(32^3))^(1/3)
print        "lattice at T: a = $(v_aT:%.4f) A, neighbour cutoff = $(0.854*v_aT:%.4f) A"
lattice at T: a = 4.1165 A, neighbour cutoff = 3.5155 A
compute      q6 all orientorder/atom degrees 1 6 components 6 nnn 12 cutoff $(0.854*v_aT)
compute      q6 all orientorder/atom degrees 1 6 components 6 nnn 12 cutoff 3.5155077440293371893
compute      nb all coord/atom orientorder q6 ${qdot}
compute      nb all coord/atom orientorder q6 0.5
variable     issol atom c_nb>=${nbond}
variable     issol atom c_nb>=7
compute      nsol all reduce sum v_issol
variable     Nsol equal c_nsol
thermo_style custom step temp press pe vol v_Nsol
run          0
WARNING: No fixes with time integration, atoms won't move
For more information see https://docs.lammps.org/err0028 (src/lammps-10Sep2025/src/verlet.cpp:60)
Neighbor list info ...
  update: every = 1 steps, delay = 0 steps, check = yes
  max neighbors/atom: 2000, page size: 100000
  master list distance cutoff = 8.9
  ghost atom cutoff = 8.9
  binsize = 4.45, bins = 30 30 30
  2 neighbor lists, perpetual/occasional/extra = 0 2 0
  (1) compute orientorder/atom, occasional
      attributes: full, newton on
      pair build: full/bin/atomonly
      stencil: full/bin/3d
      bin: standard
  (2) compute coord/atom, occasional
      attributes: full, newton on
      pair build: full/bin/atomonly
      stencil: full/bin/3d
      bin: standard
Per MPI rank memory allocation (min/avg/max) = 47.24 | 47.24 | 47.24 Mbytes
   Step          Temp          Press          PotEng         Volume         v_Nsol    
      5000   867.86349      56.591236     -451460.45      2285812        114442       
Loop time of 2.079e-06 on 1 procs for 0 steps with 131072 atoms

336.7% CPU use with 1 MPI tasks x 1 OpenMP threads

MPI task timing breakdown:
Section |  min time  |  avg time  |  max time  |%varavg| %total
---------------------------------------------------------------
Pair    | 0          | 0          | 0          |   0.0 |  0.00
Neigh   | 0          | 0          | 0          |   0.0 |  0.00
Comm    | 0          | 0          | 0          |   0.0 |  0.00
Output  | 0          | 0          | 0          |   0.0 |  0.00
Modify  | 0          | 0          | 0          |   0.0 |  0.00
Other   |            | 2.079e-06  |            |       |100.00

Nlocal:         131072 ave      131072 max      131072 min
Histogram: 1 0 0 0 0 0 0 0 0 0
Nghost:          63415 ave       63415 max       63415 min
Histogram: 1 0 0 0 0 0 0 0 0 0
Neighs:              0 ave           0 max           0 min
Histogram: 1 0 0 0 0 0 0 0 0 0
FullNghs:  2.21297e+07 ave 2.21297e+07 max 2.21297e+07 min
Histogram: 1 0 0 0 0 0 0 0 0 0

Total # of neighbors = 22129718
Ave neighs/atom = 168.83635
Neighbor list builds = 0
Dangerous builds = 0

# 2) melt everything outside the sphere with the seed frozen, then bring the liquid to T. Both stages at P = 0:
#    only the liquid is integrated and dilated, and thermostat/barostat use the liquid temperature
#    (fix npt on 'all' would thermostat the frozen seed too — HANDOFF §7; at fixed volume the liquid sits at
#    the solid density, ~4 GPa, and crystallises on cooling).
variable     xc equal (xlo+xhi)/2
variable     yc equal (ylo+yhi)/2
variable     zc equal (zlo+zhi)/2
region       ball sphere ${xc} ${yc} ${zc} ${R} units box
region       ball sphere 64.2559999999997 ${yc} ${zc} ${R} units box
region       ball sphere 64.2559999999997 64.2559999999997 ${zc} ${R} units box
region       ball sphere 64.2559999999997 64.2559999999997 64.2559999999997 ${R} units box
region       ball sphere 64.2559999999997 64.2559999999997 64.2559999999997 30 units box
group        sol region ball
6511 atoms in group sol
group        liq subtract all sol
124561 atoms in group liq
compute      tliq liq temp
velocity     sol set 0 0 0
fix          freeze sol setforce 0 0 0
velocity     liq create ${Tmelt} $(2000+v_seed) mom yes rot yes dist gaussian
velocity     liq create 1500 $(2000+v_seed) mom yes rot yes dist gaussian
velocity     liq create 1500 2001 mom yes rot yes dist gaussian
fix          melt liq npt temp ${Tmelt} ${Tmelt} 0.2 iso 0.0 0.0 2.0 dilate liq
fix          melt liq npt temp 1500 ${Tmelt} 0.2 iso 0.0 0.0 2.0 dilate liq
fix          melt liq npt temp 1500 1500 0.2 iso 0.0 0.0 2.0 dilate liq
fix_modify   melt temp tliq
WARNING: Temperature for fix modify is not for group all (src/lammps-10Sep2025/src/fix_nh.cpp:1402)
run          ${neq}
run          5000
Per MPI rank memory allocation (min/avg/max) = 266 | 266 | 266 Mbytes
   Step          Temp          Press          PotEng         Volume         v_Nsol    
      5000   1425.4869      4471.1864     -451460.45      2285812        114442       
      5500   1208.5217      4194.52       -441504.59      2376909.1      43633        
      6000   1284.1016      6778.9316     -434855.57      2445967.1      9993         
      6500   1338.2724      6432.8578     -427996.63      2536739.8      5049         
      7000   1433.6036      2290.4281     -424287.83      2601622.3      4573         
      7500   1424.2405      133.7286      -423555.22      2620865.7      4466         
      8000   1422.4498     -60.565652     -423584.7       2621460.5      4461         
      8500   1423.6859      49.710217     -423471.08      2622215.3      4421         
      9000   1428.0641     -27.018811     -423567.63      2621845.5      4458         
      9500   1428.1051      139.57137     -423591.25      2621192.3      4429         
     10000   1424.7664     -119.99208     -423576.33      2621794.8      4459         
Loop time of 59.5991 on 1 procs for 5000 steps with 131072 atoms

Performance: 14.497 ns/day, 1.656 hours/ns, 83.894 timesteps/s, 10.996 Matom-step/s
110.4% CPU use with 1 MPI tasks x 1 OpenMP threads

MPI task timing breakdown:
Section |  min time  |  avg time  |  max time  |%varavg| %total
---------------------------------------------------------------
Pair    | 35.616     | 35.616     | 35.616     |   0.0 | 59.76
Neigh   | 0.33423    | 0.33423    | 0.33423    |   0.0 |  0.56
Comm    | 1.9741     | 1.9741     | 1.9741     |   0.0 |  3.31
Output  | 7.7274     | 7.7274     | 7.7274     |   0.0 | 12.97
Modify  | 11.84      | 11.84      | 11.84      |   0.0 | 19.87
Other   |            | 2.108      |            |       |  3.54

Nlocal:         131072 ave      131072 max      131072 min
Histogram: 1 0 0 0 0 0 0 0 0 0
Nghost:          57198 ave       57198 max       57198 min
Histogram: 1 0 0 0 0 0 0 0 0 0
Neighs:              0 ave           0 max           0 min
Histogram: 1 0 0 0 0 0 0 0 0 0
FullNghs:  1.92219e+07 ave 1.92219e+07 max 1.92219e+07 min
Histogram: 1 0 0 0 0 0 0 0 0 0

Total # of neighbors = 19221900
Ave neighs/atom = 146.65146
Neighbor list builds = 328
Dangerous builds = 0
unfix        melt
fix          cool liq npt temp ${T} ${T} 0.2 iso 0.0 0.0 2.0 dilate liq
fix          cool liq npt temp 870 ${T} 0.2 iso 0.0 0.0 2.0 dilate liq
fix          cool liq npt temp 870 870 0.2 iso 0.0 0.0 2.0 dilate liq
fix_modify   cool temp tliq
WARNING: Temperature for fix modify is not for group all (src/lammps-10Sep2025/src/fix_nh.cpp:1402)
run          ${ncool}
run          2500
Per MPI rank memory allocation (min/avg/max) = 266 | 266 | 266 Mbytes
   Step          Temp          Press          PotEng         Volume         v_Nsol    
     10000   1424.7664     -119.99207     -423576.33      2621794.8      4459         
     10500   1076.8237     -3572.6402     -431367.24      2536709.6      4607         
     11000   888.80726     -1853.4808     -437611.97      2458585.7      4865         
     11500   819.68474     -252.03812     -440547.14      2421380.8      5182         
     12000   829.82774     -12.204678     -440581.85      2420247.2      5293         
     12500   827.84809     -207.14216     -440701.54      2419118.1      5372         
Loop time of 30.2391 on 1 procs for 2500 steps with 131072 atoms

Performance: 14.286 ns/day, 1.680 hours/ns, 82.675 timesteps/s, 10.836 Matom-step/s
110.5% CPU use with 1 MPI tasks x 1 OpenMP threads

MPI task timing breakdown:
Section |  min time  |  avg time  |  max time  |%varavg| %total
---------------------------------------------------------------
Pair    | 18.052     | 18.052     | 18.052     |   0.0 | 59.70
Neigh   | 0.13712    | 0.13712    | 0.13712    |   0.0 |  0.45
Comm    | 0.96181    | 0.96181    | 0.96181    |   0.0 |  3.18
Output  | 3.9918     | 3.9918     | 3.9918     |   0.0 | 13.20
Modify  | 6.0177     | 6.0177     | 6.0177     |   0.0 | 19.90
Other   |            | 1.078      |            |       |  3.57

Nlocal:         131072 ave      131072 max      131072 min
Histogram: 1 0 0 0 0 0 0 0 0 0
Nghost:          59129 ave       59129 max       59129 min
Histogram: 1 0 0 0 0 0 0 0 0 0
Neighs:              0 ave           0 max           0 min
Histogram: 1 0 0 0 0 0 0 0 0 0
FullNghs:  2.07225e+07 ave 2.07225e+07 max 2.07225e+07 min
Histogram: 1 0 0 0 0 0 0 0 0 0

Total # of neighbors = 20722506
Ave neighs/atom = 158.10017
Neighbor list builds = 134
Dangerous builds = 0
unfix        cool
unfix        freeze

# 3) production: everything free, NPT iso at T
velocity     sol create ${T} $(3000+v_seed) mom yes rot yes dist gaussian
velocity     sol create 870 $(3000+v_seed) mom yes rot yes dist gaussian
velocity     sol create 870 3001 mom yes rot yes dist gaussian
fix          prod all npt temp ${T} ${T} 0.2 iso 0.0 0.0 2.0
fix          prod all npt temp 870 ${T} 0.2 iso 0.0 0.0 2.0
fix          prod all npt temp 870 870 0.2 iso 0.0 0.0 2.0
run          ${nprod}
run          30000
Per MPI rank memory allocation (min/avg/max) = 266 | 266 | 266 Mbytes
   Step          Temp          Press          PotEng         Volume         v_Nsol    
     12500   871.05902      116.09915     -440701.54      2419118.1      5372         
     13000   870.18121     -181.46891     -440601.54      2421244.3      5019         
     13500   873.97587      139.89307     -440637.96      2420086.4      4858         
     14000   870.11085     -404.10711     -440525.25      2422608.6      4794         
     14500   872.27915      103.76247     -440660.73      2420112.5      4757         
     15000   866.89783      7.5709919     -440595.81      2420812.1      4754         
     15500   873.63917      23.135117     -440634.58      2420632.1      4508         
     16000   872.17684     -83.223961     -440537.46      2421914        4385         
     16500   871.1308       25.224396     -440558.15      2420999.9      4380         
     17000   868.02316      108.79986     -440555.12      2421130.7      4437         
     17500   870.75539      354.95241     -440506.76      2420866.5      4331         
     18000   868.26776      63.762962     -440448.66      2422282.1      4271         
     18500   868.60556      131.10095     -440558.13      2421027.6      4296         
     19000   869.88088      137.101       -440525.64      2421176.4      4250         
     19500   865.88866     -168.0253      -440568.77      2421552.6      4301         
     20000   870.31376      369.24824     -440495.88      2421108.9      4333         
     20500   869.61305     -20.858182     -440550.49      2421408.8      4085         
     21000   871.56076     -186.05553     -440539.31      2422086.2      4343         
     21500   871.57345      2.909802      -440593.98      2421004.9      4214         
     22000   869.3623      -272.67221     -440448.47      2423063.2      4026         
     22500   870.5522       195.45548     -440510.86      2421267.8      3851         
     23000   867.60474     -84.454561     -440482.27      2422563.8      3916         
     23500   868.94648     -129.85964     -440514.22      2421830        3769         
     24000   870.75435     -145.30991     -440534.62      2422128        3804         
     24500   867.9577       66.005617     -440581.43      2420935        3820         
     25000   867.07766      220.16056     -440477.67      2421349.2      3666         
     25500   871.4571      -220.86113     -440457.95      2423560.5      3672         
     26000   869.15917      219.53341     -440462.42      2421688.5      3636         
     26500   872.11962     -123.31231     -440458.95      2423203.7      3506         
     27000   870.4427       239.66775     -440415.72      2422273.6      3503         
     27500   869.03352     -347.68066     -440468.52      2423728.4      3516         
     28000   875.55757      56.621184     -440373.47      2423396.9      3437         
     28500   866.79799     -303.19209     -440386.97      2424054.1      3341         
     29000   871.78638      447.30921     -440426.12      2421551.4      3405         
     29500   871.09373     -364.74831     -440438.91      2423605.8      3237         
     30000   869.05436      238.24245     -440535.86      2420626.9      3370         
     30500   870.42986     -136.82253     -440416.02      2423670.4      3250         
     31000   871.41779      233.44016     -440474.11      2421516.1      3329         
     31500   870.15257     -167.22794     -440415.08      2423191.2      3336         
     32000   869.64261      111.0902      -440365.03      2422741.2      3208         
     32500   868.17141     -169.7656      -440372.65      2423883.3      3247         
     33000   869.80934      225.37493     -440458.39      2421770.1      3318         
     33500   869.78702      209.35997     -440380.45      2423250        3116         
     34000   867.52579     -261.10519     -440429.75      2422926.2      3001         
     34500   868.00627      146.12663     -440538.59      2421553.3      3020         
     35000   866.14845     -345.59667     -440440.83      2423956.5      3033         
     35500   871.51203      471.30353     -440351.26      2422229.8      3064         
     36000   866.16568     -136.77873     -440368.09      2423832.4      2997         
     36500   870.42819     -207.67597     -440321.08      2424512.1      2779         
     37000   870.65204      217.65868     -440352.82      2422762        2946         
     37500   867.98861     -291.44674     -440352.69      2424408.4      2880         
     38000   869.7314       319.65447     -440400.9       2422438.7      2722         
     38500   870.07382      19.46154      -440339.63      2423975.7      2697         
     39000   868.5145       101.12273     -440407.14      2423012.9      2722         
     39500   869.7907      -38.844588     -440343.31      2423552.1      2522         
     40000   869.89948      99.65129      -440322.19      2424051.3      2424         
     40500   868.57459     -45.468277     -440365.16      2423812.3      2458         
     41000   875.14908      46.127586     -440347.34      2423810.7      2373         
     41500   870.41979     -141.27334     -440311.15      2424588.7      2329         
     42000   870.77708      44.598608     -440357.19      2423476.5      2211         
     42500   867.45404     -147.25724     -440332.96      2424342.3      2326         
Loop time of 348.222 on 1 procs for 30000 steps with 131072 atoms

Performance: 14.887 ns/day, 1.612 hours/ns, 86.152 timesteps/s, 11.292 Matom-step/s
110.4% CPU use with 1 MPI tasks x 1 OpenMP threads

MPI task timing breakdown:
Section |  min time  |  avg time  |  max time  |%varavg| %total
---------------------------------------------------------------
Pair    | 217.67     | 217.67     | 217.67     |   0.0 | 62.51
Neigh   | 1.4992     | 1.4992     | 1.4992     |   0.0 |  0.43
Comm    | 10.732     | 10.732     | 10.732     |   0.0 |  3.08
Output  | 48.576     | 48.576     | 48.576     |   0.0 | 13.95
Modify  | 57.41      | 57.41      | 57.41      |   0.0 | 16.49
Other   |            | 12.33      |            |       |  3.54

Nlocal:         131072 ave      131072 max      131072 min
Histogram: 1 0 0 0 0 0 0 0 0 0
Nghost:          59216 ave       59216 max       59216 min
Histogram: 1 0 0 0 0 0 0 0 0 0
Neighs:              0 ave           0 max           0 min
Histogram: 1 0 0 0 0 0 0 0 0 0
FullNghs:  2.06702e+07 ave 2.06702e+07 max 2.06702e+07 min
Histogram: 1 0 0 0 0 0 0 0 0 0

Total # of neighbors = 20670150
Ave neighs/atom = 157.70073
Neighbor list builds = 1466
Dangerous builds = 0
Total wall time: 0:08:15
