LAMMPS (10 Sep 2025)
  using 1 OpenMP thread(s) per MPI task
package gpu 1
# Calibration of the ten Wolde solid criterion: fraction labelled solid in bulk solid and in bulk liquid at T,
# for several (qdot, nbond). Same neighbour definition as in.seed (12 nearest, cutoff 0.854·a(T)).
#   lmp -sf gpu -pk gpu 1 -in in.calib -var T 820 -var phase solid|liquid
variable pot   index borovikov
variable T     index 820
variable phase index solid
variable n     index 10
variable seed  index 5
variable a0 equal 4.016
units        metal
atom_style   atomic
boundary     p p p
lattice      fcc ${a0}
lattice      fcc 4.016
Lattice spacing in x,y,z = 4.016 4.016 4.016
region       box block 0 ${n} 0 ${n} 0 ${n}
region       box block 0 10 0 ${n} 0 ${n}
region       box block 0 10 0 10 0 ${n}
region       box block 0 10 0 10 0 10
create_box   1 box
Created orthogonal box = (0 0 0) to (40.16 40.16 40.16)
  1 by 1 by 1 MPI processor grid
create_atoms 1 box
Created 4000 atoms
  using lattice units in orthogonal box = (0 0 0) to (40.16 40.16 40.16)
  create_atoms CPU = 0.002 seconds
mass         1 26.982
include      ../e2_melting/pot_${pot}.lmp
include      ../e2_melting/pot_borovikov.lmp
# Borovikov, Mendelev, Zarkevich, Smith, Lawson, Int. J. Plast. 178 (2024) 104004 — EAM/FS Ni-Al-Nb (NIST IPR)
pair_style eam/fs
pair_coeff * * ../../potentials/NiAlNb_Borovikov2024/Ni-Al-Nb.eam.fs Al
timestep     0.002
thermo       1000
velocity     all create ${T} ${seed} mom yes rot yes dist gaussian
velocity     all create 820 ${seed} mom yes rot yes dist gaussian
velocity     all create 820 5 mom yes rot yes dist gaussian
fix          eq all npt temp ${T} ${T} 0.2 iso 0.0 0.0 2.0
fix          eq all npt temp 820 ${T} 0.2 iso 0.0 0.0 2.0
fix          eq all npt temp 820 820 0.2 iso 0.0 0.0 2.0
run          5000

CITE-CITE-CITE-CITE-CITE-CITE-CITE-CITE-CITE-CITE-CITE-CITE-CITE

Your simulation uses code contributions which should be cited:

- GPU package (short-range, long-range and three-body potentials): doi:10.1016/j.cpc.2010.12.021, doi:10.1016/j.cpc.2011.10.012, doi:10.1016/j.cpc.2013.08.002, doi:10.1016/j.commatsci.2014.10.068, doi:10.1016/j.cpc.2016.10.020, doi:10.3233/APC200086

@Article{Brown11,
 author = {W. M. Brown and P. Wang and S. J. Plimpton and A. N. Tharrington},
 title = {Implementing Molecular Dynamics on Hybrid High Performance Computers---Short Range Forces},
 journal = {Comput.\ Phys.\ Commun.},
 year =    2011,
 volume =  182,
 pages =   {898--911},
 doi =     {10.1016/j.cpc.2010.12.021}
}

@Article{Brown12,
 author = {W. M. Brown and A. Kohlmeyer and S. J. Plimpton and A. N. Tharrington},
 title = {Implementing Molecular Dynamics on Hybrid High Performance Computers - Particle-Particle Particle-Mesh},
 journal = {Comput.\ Phys.\ Commun.},
 year =    2012,
 volume =  183,
 doi =     {10.1016/j.cpc.2011.10.012},
 pages =   {449--459}
}

@Article{Brown13,
 author = {W. M. Brown and Y. Masako},
 title = {Implementing Molecular Dynamics on Hybrid High Performance Computers---Three-Body Potentials},
 journal = {Comput.\ Phys.\ Commun.},
 year =    2013,
 volume =  184,
 pages =   {2785--2793},
 doi =     {10.1016/j.cpc.2013.08.002},
}

@Article{Trung15,
 author = {T. D. Nguyen and S. J. Plimpton},
 title = {Accelerating Dissipative Particle Dynamics Simulations for Soft Matter Systems},
 journal = {Comput.\ Mater.\ Sci.},
 year =    2015,
 doi =     {10.1016/j.commatsci.2014.10.068},
 volume =  100,
 pages =   {173--180}
}

@Article{Trung17,
 author = {T. D. Nguyen},
 title = {{GPU}-Accelerated {T}ersoff Potentials for Massively Parallel
    Molecular Dynamics Simulations},
 journal = {Comput.\ Phys.\ Commun.},
 year =    2017,
 doi =     {10.1016/j.cpc.2016.10.020},
 volume =  212,
 pages =   {113--122}
}

@inproceedings{Nikolskiy19,
 author = {V. Nikolskiy and V. Stegailov},
 title = {{GPU} Acceleration of Four-Site Water Models in {LAMMPS}},
 booktitle = {Proceedings of the International Conference on Parallel
    Computing (ParCo 2019), Prague, Czech Republic},
 doi =     {10.3233/APC200086},
 year =    2019
}

CITE-CITE-CITE-CITE-CITE-CITE-CITE-CITE-CITE-CITE-CITE-CITE-CITE

Per MPI rank memory allocation (min/avg/max) = 3.044 | 3.044 | 3.044 Mbytes
   Step          Temp          E_pair         E_mol          TotEng         Press          Volume    
         0   820           -14257.383      0             -13833.516      6983.015       64771.076    
      1000   839.20736     -13786.214      0             -13352.418      122.48341      69659.022    
      2000   816.88438     -13830.394      0             -13408.138     -654.56922      69299.968    
      3000   846.08934     -13812.701      0             -13375.348     -1160.7845      69492.87     
      4000   819.19964     -13813.368      0             -13389.914     -544.2554       69453.036    
      5000   800.69014     -13809.692      0             -13395.806     -789.0782       69490.076    
Loop time of 2.59392 on 1 procs for 5000 steps with 4000 atoms

Performance: 333.087 ns/day, 0.072 hours/ns, 1927.588 timesteps/s, 7.710 Matom-step/s
101.2% CPU use with 1 MPI tasks x 1 OpenMP threads

MPI task timing breakdown:
Section |  min time  |  avg time  |  max time  |%varavg| %total
---------------------------------------------------------------
Pair    | 2.2225     | 2.2225     | 2.2225     |   0.0 | 85.68
Neigh   | 0.0006134  | 0.0006134  | 0.0006134  |   0.0 |  0.02
Comm    | 0.10063    | 0.10063    | 0.10063    |   0.0 |  3.88
Output  | 0.00059901 | 0.00059901 | 0.00059901 |   0.0 |  0.02
Modify  | 0.22387    | 0.22387    | 0.22387    |   0.0 |  8.63
Other   |            | 0.04572    |            |       |  1.76

Nlocal:           4000 ave        4000 max        4000 min
Histogram: 1 0 0 0 0 0 0 0 0 0
Nghost:           8194 ave        8194 max        8194 min
Histogram: 1 0 0 0 0 0 0 0 0 0
Neighs:              0 ave           0 max           0 min
Histogram: 1 0 0 0 0 0 0 0 0 0

Total # of neighbors = 0
Ave neighs/atom = 0
Neighbor list builds = 182
Dangerous builds = 0
variable     aT equal (vol/(${n}^3))^(1/3)
variable     aT equal (vol/(10^3))^(1/3)
variable     rc equal $(0.854*v_aT)
variable     rc equal 3.511010537024168876
if "${phase} == liquid" then "unfix eq" "fix m all nvt temp 1500 1500 0.2" "run 5000" "unfix m" "fix eq all npt temp ${T} ${T} 0.2 iso 0.0 0.0 2.0" "run 5000"
compute      q6 all orientorder/atom degrees 1 6 components 6 nnn 12 cutoff ${rc}
compute      q6 all orientorder/atom degrees 1 6 components 6 nnn 12 cutoff 3.51101053702417
compute      b5 all coord/atom orientorder q6 0.5
compute      b6 all coord/atom orientorder q6 0.6
compute      b7 all coord/atom orientorder q6 0.7
variable     s5_6 atom c_b5>=6
variable     s5_7 atom c_b5>=7
variable     s5_8 atom c_b5>=8
variable     s6_6 atom c_b6>=6
variable     s6_7 atom c_b6>=7
variable     s6_8 atom c_b6>=8
variable     s7_6 atom c_b7>=6
variable     s7_7 atom c_b7>=7
compute      f all reduce ave v_s5_6 v_s5_7 v_s5_8 v_s6_6 v_s6_7 v_s6_8 v_s7_6 v_s7_7
fix          avg all ave/time 500 20 10000 c_f[*] file calib_${phase}_${T}.txt
fix          avg all ave/time 500 20 10000 c_f[*] file calib_solid_${T}.txt
fix          avg all ave/time 500 20 10000 c_f[*] file calib_solid_820.txt
thermo_style custom step temp press pe c_f[1] c_f[2] c_f[3] c_f[5] c_f[6]
run          10000
Neighbor list info ...
  update: every = 1 steps, delay = 0 steps, check = yes
  max neighbors/atom: 2000, page size: 100000
  master list distance cutoff = 8.9
  ghost atom cutoff = 8.9
  binsize = 4.45, bins = 10 10 10
  4 neighbor lists, perpetual/occasional/extra = 0 4 0
  (1) compute orientorder/atom, occasional
      attributes: full, newton on
      pair build: full/bin/atomonly
      stencil: full/bin/3d
      bin: standard
  (2) compute coord/atom, occasional
      attributes: full, newton on
      pair build: full/bin/atomonly
      stencil: full/bin/3d
      bin: standard
  (3) compute coord/atom, occasional
      attributes: full, newton on
      pair build: full/bin/atomonly
      stencil: full/bin/3d
      bin: standard
  (4) compute coord/atom, occasional
      attributes: full, newton on
      pair build: full/bin/atomonly
      stencil: full/bin/3d
      bin: standard
Per MPI rank memory allocation (min/avg/max) = 6.52 | 6.52 | 6.52 Mbytes
   Step          Temp          Press          PotEng         c_f[1]         c_f[2]         c_f[3]         c_f[5]         c_f[6]    
      5000   800.69014     -789.07805     -13809.692      0.8945         0.89225        0.88475        0.892          0.88375      
      6000   822.73343     -649.93626     -13804.085      0.8985         0.896          0.8905         0.8955         0.89         
      7000   806.83395      1410.2188     -13814.087      0.90325        0.902          0.89525        0.90175        0.89425      
      8000   827.5804       843.43939     -13809.896      0.89225        0.88975        0.88125        0.88925        0.8805       
      9000   811.27915      218.16799     -13811.653      0.9035         0.902          0.8955         0.9015         0.89475      
     10000   807.2535       236.33579     -13803.11       0.88875        0.88675        0.878          0.8865         0.878        
     11000   818.7009      -1817.4861     -13804.023      0.879          0.876          0.86375        0.87475        0.863        
     12000   815.75621      646.97109     -13817.853      0.90675        0.904          0.899          0.90375        0.8975       
     13000   828.31636      670.46729     -13804.015      0.89825        0.89525        0.8895         0.895          0.889        
     14000   835.87414      1820.7223     -13823.169      0.91425        0.913          0.9075         0.913          0.9075       
     15000   822.22726      922.18324     -13813.717      0.889          0.886          0.87625        0.88525        0.8755       
Loop time of 6.10327 on 1 procs for 10000 steps with 4000 atoms

Performance: 283.127 ns/day, 0.085 hours/ns, 1638.467 timesteps/s, 6.554 Matom-step/s
101.5% CPU use with 1 MPI tasks x 1 OpenMP threads

MPI task timing breakdown:
Section |  min time  |  avg time  |  max time  |%varavg| %total
---------------------------------------------------------------
Pair    | 4.5018     | 4.5018     | 4.5018     |   0.0 | 73.76
Neigh   | 0.020723   | 0.020723   | 0.020723   |   0.0 |  0.34
Comm    | 0.20155    | 0.20155    | 0.20155    |   0.0 |  3.30
Output  | 0.31274    | 0.31274    | 0.31274    |   0.0 |  5.12
Modify  | 0.97379    | 0.97379    | 0.97379    |   0.0 | 15.96
Other   |            | 0.09269    |            |       |  1.52

Nlocal:           4000 ave        4000 max        4000 min
Histogram: 1 0 0 0 0 0 0 0 0 0
Nghost:           8194 ave        8194 max        8194 min
Histogram: 1 0 0 0 0 0 0 0 0 0
Neighs:              0 ave           0 max           0 min
Histogram: 1 0 0 0 0 0 0 0 0 0
FullNghs:       680671 ave      680671 max      680671 min
Histogram: 1 0 0 0 0 0 0 0 0 0

Total # of neighbors = 680671
Ave neighs/atom = 170.16775
Neighbor list builds = 379
Dangerous builds = 0
Total wall time: 0:00:11
