LAMMPS (10 Sep 2025)
  using 1 OpenMP thread(s) per MPI task
package gpu 1
# Calibration of the ten Wolde solid criterion: fraction labelled solid in bulk solid and in bulk liquid at T,
# for several (qdot, nbond). Same neighbour definition as in.seed (12 nearest, cutoff 0.854·a(T)).
#   lmp -sf gpu -pk gpu 1 -in in.calib -var T 820 -var phase solid|liquid
variable pot   index borovikov
variable T     index 820
variable phase index solid
variable n     index 10
variable seed  index 5
variable a0 equal 4.016
units        metal
atom_style   atomic
boundary     p p p
lattice      fcc ${a0}
lattice      fcc 4.016
Lattice spacing in x,y,z = 4.016 4.016 4.016
region       box block 0 ${n} 0 ${n} 0 ${n}
region       box block 0 10 0 ${n} 0 ${n}
region       box block 0 10 0 10 0 ${n}
region       box block 0 10 0 10 0 10
create_box   1 box
Created orthogonal box = (0 0 0) to (40.16 40.16 40.16)
  1 by 1 by 1 MPI processor grid
create_atoms 1 box
Created 4000 atoms
  using lattice units in orthogonal box = (0 0 0) to (40.16 40.16 40.16)
  create_atoms CPU = 0.001 seconds
mass         1 26.982
include      ../e2_melting/pot_${pot}.lmp
include      ../e2_melting/pot_borovikov.lmp
# Borovikov, Mendelev, Zarkevich, Smith, Lawson, Int. J. Plast. 178 (2024) 104004 — EAM/FS Ni-Al-Nb (NIST IPR)
pair_style eam/fs
pair_coeff * * ../../potentials/NiAlNb_Borovikov2024/Ni-Al-Nb.eam.fs Al
timestep     0.002
thermo       1000
velocity     all create ${T} ${seed} mom yes rot yes dist gaussian
velocity     all create 880 ${seed} mom yes rot yes dist gaussian
velocity     all create 880 5 mom yes rot yes dist gaussian
fix          eq all npt temp ${T} ${T} 0.2 iso 0.0 0.0 2.0
fix          eq all npt temp 880 ${T} 0.2 iso 0.0 0.0 2.0
fix          eq all npt temp 880 880 0.2 iso 0.0 0.0 2.0
run          5000

CITE-CITE-CITE-CITE-CITE-CITE-CITE-CITE-CITE-CITE-CITE-CITE-CITE

Your simulation uses code contributions which should be cited:

- GPU package (short-range, long-range and three-body potentials): doi:10.1016/j.cpc.2010.12.021, doi:10.1016/j.cpc.2011.10.012, doi:10.1016/j.cpc.2013.08.002, doi:10.1016/j.commatsci.2014.10.068, doi:10.1016/j.cpc.2016.10.020, doi:10.3233/APC200086

@Article{Brown11,
 author = {W. M. Brown and P. Wang and S. J. Plimpton and A. N. Tharrington},
 title = {Implementing Molecular Dynamics on Hybrid High Performance Computers---Short Range Forces},
 journal = {Comput.\ Phys.\ Commun.},
 year =    2011,
 volume =  182,
 pages =   {898--911},
 doi =     {10.1016/j.cpc.2010.12.021}
}

@Article{Brown12,
 author = {W. M. Brown and A. Kohlmeyer and S. J. Plimpton and A. N. Tharrington},
 title = {Implementing Molecular Dynamics on Hybrid High Performance Computers - Particle-Particle Particle-Mesh},
 journal = {Comput.\ Phys.\ Commun.},
 year =    2012,
 volume =  183,
 doi =     {10.1016/j.cpc.2011.10.012},
 pages =   {449--459}
}

@Article{Brown13,
 author = {W. M. Brown and Y. Masako},
 title = {Implementing Molecular Dynamics on Hybrid High Performance Computers---Three-Body Potentials},
 journal = {Comput.\ Phys.\ Commun.},
 year =    2013,
 volume =  184,
 pages =   {2785--2793},
 doi =     {10.1016/j.cpc.2013.08.002},
}

@Article{Trung15,
 author = {T. D. Nguyen and S. J. Plimpton},
 title = {Accelerating Dissipative Particle Dynamics Simulations for Soft Matter Systems},
 journal = {Comput.\ Mater.\ Sci.},
 year =    2015,
 doi =     {10.1016/j.commatsci.2014.10.068},
 volume =  100,
 pages =   {173--180}
}

@Article{Trung17,
 author = {T. D. Nguyen},
 title = {{GPU}-Accelerated {T}ersoff Potentials for Massively Parallel
    Molecular Dynamics Simulations},
 journal = {Comput.\ Phys.\ Commun.},
 year =    2017,
 doi =     {10.1016/j.cpc.2016.10.020},
 volume =  212,
 pages =   {113--122}
}

@inproceedings{Nikolskiy19,
 author = {V. Nikolskiy and V. Stegailov},
 title = {{GPU} Acceleration of Four-Site Water Models in {LAMMPS}},
 booktitle = {Proceedings of the International Conference on Parallel
    Computing (ParCo 2019), Prague, Czech Republic},
 doi =     {10.3233/APC200086},
 year =    2019
}

CITE-CITE-CITE-CITE-CITE-CITE-CITE-CITE-CITE-CITE-CITE-CITE-CITE

Per MPI rank memory allocation (min/avg/max) = 3.044 | 3.044 | 3.044 Mbytes
   Step          Temp          E_pair         E_mol          TotEng         Press          Volume    
         0   880           -14257.383      0             -13802.501      7494.4674      64771.076    
      1000   900.53232     -13736.783      0             -13271.288      836.23733      70077.724    
      2000   874.0057      -13781.459      0             -13329.676     -319.65049      69745.08     
      3000   891.07692     -13774.681      0             -13314.073     -535.53355      69858.17     
      4000   878.82218     -13767.064      0             -13312.791     -538.97499      69906.176    
      5000   873.71876     -13773.126      0             -13321.491      715.12462      69780.253    
Loop time of 2.55582 on 1 procs for 5000 steps with 4000 atoms

Performance: 338.052 ns/day, 0.071 hours/ns, 1956.319 timesteps/s, 7.825 Matom-step/s
97.2% CPU use with 1 MPI tasks x 1 OpenMP threads

MPI task timing breakdown:
Section |  min time  |  avg time  |  max time  |%varavg| %total
---------------------------------------------------------------
Pair    | 2.1848     | 2.1848     | 2.1848     |   0.0 | 85.48
Neigh   | 0.00062923 | 0.00062923 | 0.00062923 |   0.0 |  0.02
Comm    | 0.10039    | 0.10039    | 0.10039    |   0.0 |  3.93
Output  | 0.00041    | 0.00041    | 0.00041    |   0.0 |  0.02
Modify  | 0.22323    | 0.22323    | 0.22323    |   0.0 |  8.73
Other   |            | 0.04638    |            |       |  1.81

Nlocal:           4000 ave        4000 max        4000 min
Histogram: 1 0 0 0 0 0 0 0 0 0
Nghost:           8189 ave        8189 max        8189 min
Histogram: 1 0 0 0 0 0 0 0 0 0
Neighs:              0 ave           0 max           0 min
Histogram: 1 0 0 0 0 0 0 0 0 0

Total # of neighbors = 0
Ave neighs/atom = 0
Neighbor list builds = 190
Dangerous builds = 0
variable     aT equal (vol/(${n}^3))^(1/3)
variable     aT equal (vol/(10^3))^(1/3)
variable     rc equal $(0.854*v_aT)
variable     rc equal 3.515890851100692327
if "${phase} == liquid" then "unfix eq" "fix m all npt temp 1500 1500 0.2 iso 0.0 0.0 2.0" "run 5000" "unfix m" "fix eq all npt temp ${T} ${T} 0.2 iso 0.0 0.0 2.0" "run 5000"
unfix eq
fix m all npt temp 1500 1500 0.2 iso 0.0 0.0 2.0
run 5000
Per MPI rank memory allocation (min/avg/max) = 3.044 | 3.044 | 3.044 Mbytes
   Step          Temp          E_pair         E_mol          TotEng         Press          Volume    
      5000   873.71876     -13773.126      0             -13321.491      715.12399      69780.253    
      6000   1425.009      -13037.274      0             -12300.671      2754.5912      78115.106    
      7000   1486.3613     -12894.873      0             -12126.556      149.8219       80412.812    
      8000   1479.4646     -12860.96       0             -12096.208      923.61893      80779.281    
      9000   1518.4956     -12879.16       0             -12094.233     -1217.8014      80745.468    
     10000   1520.4722     -12881.977      0             -12096.028      1067.1732      80567.035    
Loop time of 2.44993 on 1 procs for 5000 steps with 4000 atoms

Performance: 352.664 ns/day, 0.068 hours/ns, 2040.878 timesteps/s, 8.164 Matom-step/s
98.1% CPU use with 1 MPI tasks x 1 OpenMP threads

MPI task timing breakdown:
Section |  min time  |  avg time  |  max time  |%varavg| %total
---------------------------------------------------------------
Pair    | 2.0788     | 2.0788     | 2.0788     |   0.0 | 84.85
Neigh   | 0.00089743 | 0.00089743 | 0.00089743 |   0.0 |  0.04
Comm    | 0.10123    | 0.10123    | 0.10123    |   0.0 |  4.13
Output  | 0.00034871 | 0.00034871 | 0.00034871 |   0.0 |  0.01
Modify  | 0.22274    | 0.22274    | 0.22274    |   0.0 |  9.09
Other   |            | 0.0459     |            |       |  1.87

Nlocal:           4000 ave        4000 max        4000 min
Histogram: 1 0 0 0 0 0 0 0 0 0
Nghost:           7214 ave        7214 max        7214 min
Histogram: 1 0 0 0 0 0 0 0 0 0
Neighs:              0 ave           0 max           0 min
Histogram: 1 0 0 0 0 0 0 0 0 0

Total # of neighbors = 0
Ave neighs/atom = 0
Neighbor list builds = 274
Dangerous builds = 0
unfix m
fix eq all npt temp ${T} ${T} 0.2 iso 0.0 0.0 2.0
fix eq all npt temp 880 ${T} 0.2 iso 0.0 0.0 2.0
fix eq all npt temp 880 880 0.2 iso 0.0 0.0 2.0
run 5000
Per MPI rank memory allocation (min/avg/max) = 3.044 | 3.044 | 3.044 Mbytes
   Step          Temp          E_pair         E_mol          TotEng         Press          Volume    
     10000   1520.4722     -12881.977      0             -12096.028      1067.1733      80567.035    
     11000   862.99204     -13422.296      0             -12976.205      797.71179      74145.995    
     12000   882.48521     -13410.54       0             -12954.374     -980.45322      74316.277    
     13000   885.64306     -13432.718      0             -12974.919     -754.69864      74133.091    
     14000   887.99754     -13425.388      0             -12966.372     -719.16386      74160.457    
     15000   869.06622     -13424.225      0             -12974.995     -783.50984      74177.473    
Loop time of 2.4633 on 1 procs for 5000 steps with 4000 atoms

Performance: 350.749 ns/day, 0.068 hours/ns, 2029.798 timesteps/s, 8.119 Matom-step/s
97.9% CPU use with 1 MPI tasks x 1 OpenMP threads

MPI task timing breakdown:
Section |  min time  |  avg time  |  max time  |%varavg| %total
---------------------------------------------------------------
Pair    | 2.0978     | 2.0978     | 2.0978     |   0.0 | 85.16
Neigh   | 0.00068956 | 0.00068956 | 0.00068956 |   0.0 |  0.03
Comm    | 0.096651   | 0.096651   | 0.096651   |   0.0 |  3.92
Output  | 0.00053894 | 0.00053894 | 0.00053894 |   0.0 |  0.02
Modify  | 0.22196    | 0.22196    | 0.22196    |   0.0 |  9.01
Other   |            | 0.04562    |            |       |  1.85

Nlocal:           4000 ave        4000 max        4000 min
Histogram: 1 0 0 0 0 0 0 0 0 0
Nghost:           7547 ave        7547 max        7547 min
Histogram: 1 0 0 0 0 0 0 0 0 0
Neighs:              0 ave           0 max           0 min
Histogram: 1 0 0 0 0 0 0 0 0 0

Total # of neighbors = 0
Ave neighs/atom = 0
Neighbor list builds = 209
Dangerous builds = 0
compute      q6 all orientorder/atom degrees 1 6 components 6 nnn 12 cutoff ${rc}
compute      q6 all orientorder/atom degrees 1 6 components 6 nnn 12 cutoff 3.51589085110069
compute      b5 all coord/atom orientorder q6 0.5
compute      b6 all coord/atom orientorder q6 0.6
compute      b7 all coord/atom orientorder q6 0.7
variable     s5_6 atom c_b5>=6
variable     s5_7 atom c_b5>=7
variable     s5_8 atom c_b5>=8
variable     s6_6 atom c_b6>=6
variable     s6_7 atom c_b6>=7
variable     s6_8 atom c_b6>=8
variable     s7_6 atom c_b7>=6
variable     s7_7 atom c_b7>=7
compute      f all reduce ave v_s5_6 v_s5_7 v_s5_8 v_s6_6 v_s6_7 v_s6_8 v_s7_6 v_s7_7
fix          avg all ave/time 500 20 10000 c_f[*] file calib_${phase}_${T}.txt
fix          avg all ave/time 500 20 10000 c_f[*] file calib_liquid_${T}.txt
fix          avg all ave/time 500 20 10000 c_f[*] file calib_liquid_880.txt
thermo_style custom step temp press pe c_f[1] c_f[2] c_f[3] c_f[5] c_f[6]
run          10000
Neighbor list info ...
  update: every = 1 steps, delay = 0 steps, check = yes
  max neighbors/atom: 2000, page size: 100000
  master list distance cutoff = 8.9
  ghost atom cutoff = 8.9
  binsize = 4.45, bins = 10 10 10
  4 neighbor lists, perpetual/occasional/extra = 0 4 0
  (1) compute orientorder/atom, occasional
      attributes: full, newton on
      pair build: full/bin/atomonly
      stencil: full/bin/3d
      bin: standard
  (2) compute coord/atom, occasional
      attributes: full, newton on
      pair build: full/bin/atomonly
      stencil: full/bin/3d
      bin: standard
  (3) compute coord/atom, occasional
      attributes: full, newton on
      pair build: full/bin/atomonly
      stencil: full/bin/3d
      bin: standard
  (4) compute coord/atom, occasional
      attributes: full, newton on
      pair build: full/bin/atomonly
      stencil: full/bin/3d
      bin: standard
Per MPI rank memory allocation (min/avg/max) = 6.405 | 6.405 | 6.405 Mbytes
   Step          Temp          Press          PotEng         c_f[1]         c_f[2]         c_f[3]         c_f[5]         c_f[6]    
     15000   869.06622     -783.50971     -13424.225      0.00025        0              0              0              0            
     16000   882.36024      1342.7647     -13424.833      0.0005         0.00025        0              0              0            
     17000   884.98506      1016.0932     -13432.315      0.00025        0              0              0              0            
     18000   864.64344     -1264.4812     -13408.653      0.00025        0.00025        0.00025        0.00025        0.00025      
     19000   873.04618     -336.99914     -13417.575      0              0              0              0              0            
     20000   886.21751      129.39589     -13409.048      0.00025        0              0              0              0            
     21000   908.37743     -307.93875     -13415.866      0              0              0              0              0            
     22000   879.82801      1301.4233     -13430.847      0.0015         0.00125        0.00025        0.00025        0            
     23000   872.23874      767.94462     -13414.276      0              0              0              0              0            
     24000   861.44151     -316.95582     -13416.052      0              0              0              0              0            
     25000   879.29249     -1559.5208     -13415.327      0              0              0              0              0            
Loop time of 5.76446 on 1 procs for 10000 steps with 4000 atoms

Performance: 299.768 ns/day, 0.080 hours/ns, 1734.767 timesteps/s, 6.939 Matom-step/s
100.3% CPU use with 1 MPI tasks x 1 OpenMP threads

MPI task timing breakdown:
Section |  min time  |  avg time  |  max time  |%varavg| %total
---------------------------------------------------------------
Pair    | 4.2336     | 4.2336     | 4.2336     |   0.0 | 73.44
Neigh   | 0.020714   | 0.020714   | 0.020714   |   0.0 |  0.36
Comm    | 0.19124    | 0.19124    | 0.19124    |   0.0 |  3.32
Output  | 0.28461    | 0.28461    | 0.28461    |   0.0 |  4.94
Modify  | 0.94171    | 0.94171    | 0.94171    |   0.0 | 16.34
Other   |            | 0.09258    |            |       |  1.61

Nlocal:           4000 ave        4000 max        4000 min
Histogram: 1 0 0 0 0 0 0 0 0 0
Nghost:           7492 ave        7492 max        7492 min
Histogram: 1 0 0 0 0 0 0 0 0 0
Neighs:              0 ave           0 max           0 min
Histogram: 1 0 0 0 0 0 0 0 0 0
FullNghs:       627581 ave      627581 max      627581 min
Histogram: 1 0 0 0 0 0 0 0 0 0

Total # of neighbors = 627581
Ave neighs/atom = 156.89525
Neighbor list builds = 410
Dangerous builds = 0
Total wall time: 0:00:15
