LAMMPS (10 Sep 2025)
  using 1 OpenMP thread(s) per MPI task
# Capillary fluctuation method (Hoyt, Asta, Karma 2001): quasi-2D solid-liquid ribbon at T_m.
# Interface normal z, fluctuation direction x, thin y.  orient: 100 | 110 | 111 (interface plane)
#   mpirun -np 4 lmp -in in.cfm -var pot borovikov -var Tm 930 -var orient 100
variable pot    index borovikov
variable Tm     index 930
variable orient index 100
variable seed   index 3301
variable neq    index 25000
variable nprod  index 200000
variable nstage index 10000
variable ndump  index 2000
variable a0 equal 4.05
if "${pot} == borovikov" then "variable a0 equal 4.016"
variable a0 equal 4.016
if "${pot} == mendelev" then "variable a0 equal 4.045"
units        metal
atom_style   atomic
boundary     p p p
# (x, y, z) = (fluctuation, thin, interface normal)
if "${orient} == 100" then "lattice fcc ${a0} orient x 1 0 0 orient y 0 1 0 orient z 0 0 1" "region box block 0 60 0 3 0 30"
lattice fcc ${a0} orient x 1 0 0 orient y 0 1 0 orient z 0 0 1
lattice fcc 4.016 orient x 1 0 0 orient y 0 1 0 orient z 0 0 1
Lattice spacing in x,y,z = 4.016 4.016 4.016
region box block 0 60 0 3 0 30
if "${orient} == 110" then "lattice fcc ${a0} orient x 0 0 1 orient y 1 -1 0 orient z 1 1 0" "region box block 0 60 0 2 0 21"
if "${orient} == 111" then "lattice fcc ${a0} orient x 1 -1 0 orient y 1 1 -2 orient z 1 1 1" "region box block 0 42 0 1 0 17"
create_box   1 box
Created orthogonal box = (0 0 0) to (240.96 12.048 120.48)
  2 by 1 by 2 MPI processor grid
create_atoms 1 box
Created 21600 atoms
  using lattice units in orthogonal box = (0 0 0) to (240.96 12.048 120.48)
  create_atoms CPU = 0.007 seconds
mass         1 26.982
include      pot_${pot}.lmp
include      pot_borovikov.lmp
# Borovikov, Mendelev, Zarkevich, Smith, Lawson, Int. J. Plast. 178 (2024) 104004 — EAM/FS Ni-Al-Nb (NIST IPR)
pair_style eam/fs
pair_coeff * * ../../potentials/NiAlNb_Borovikov2024/Ni-Al-Nb.eam.fs Al
timestep     0.002
thermo       1000
# solid at Tm, lateral lattice fixed afterwards
velocity     all create ${Tm} ${seed} mom yes rot yes dist gaussian
velocity     all create 936 ${seed} mom yes rot yes dist gaussian
velocity     all create 936 3301 mom yes rot yes dist gaussian
fix          eq all npt temp ${Tm} ${Tm} 0.2 aniso 0 0 2.0
fix          eq all npt temp 936 ${Tm} 0.2 aniso 0 0 2.0
fix          eq all npt temp 936 936 0.2 aniso 0 0 2.0
run          ${nstage}
run          10000
Neighbor list info ...
  update: every = 1 steps, delay = 0 steps, check = yes
  max neighbors/atom: 2000, page size: 100000
  master list distance cutoff = 8.9
  ghost atom cutoff = 8.9
  binsize = 4.45, bins = 55 3 28
  1 neighbor lists, perpetual/occasional/extra = 1 0 0
  (1) pair eam/fs, perpetual
      attributes: half, newton on
      pair build: half/bin/atomonly/newton
      stencil: half/bin/3d
      bin: standard
Per MPI rank memory allocation (min/avg/max) = 8.247 | 8.247 | 8.247 Mbytes
   Step          Temp          E_pair         E_mol          TotEng         Press          Volume    
         0   936           -76989.867      0             -74376.658      7973.4875      349763.81    
      1000   902.58531     -74291.96       0             -71772.041      731.65362      377464.89    
      2000   949.13855     -74098.479      0             -71448.589     -679.05959      380043.58    
      3000   935.92562     -74170.831      0             -71557.83      -255.08647      379128.04    
      4000   929.92281     -74146.263      0             -71550.021     -270.6692       379402.31    
      5000   938.28314     -74103.362      0             -71483.779     -621.6875       379954.03    
      6000   928.10083     -74150.659      0             -71559.504     -467.93638      379431.61    
      7000   943.05748     -74162.184      0             -71529.272     -392.1426       379365.33    
      8000   938.1559      -74120.449      0             -71501.221      134.09221      379496.51    
      9000   936.42732     -74161.845      0             -71547.443      486.08369      378952.28    
     10000   935.44307     -74137.754      0             -71526.1        512.0053       379116.55    
Loop time of 674.462 on 4 procs for 10000 steps with 21600 atoms

Performance: 2.562 ns/day, 9.368 hours/ns, 14.827 timesteps/s, 320.255 katom-step/s
90.5% CPU use with 4 MPI tasks x 1 OpenMP threads

MPI task timing breakdown:
Section |  min time  |  avg time  |  max time  |%varavg| %total
---------------------------------------------------------------
Pair    | 525.52     | 545.59     | 559.53     |  55.9 | 80.89
Neigh   | 21.732     | 22.806     | 23.479     |  13.7 |  3.38
Comm    | 74.534     | 89.429     | 110.42     | 145.0 | 13.26
Output  | 0.0016826  | 0.0033245  | 0.0075445  |   4.3 |  0.00
Modify  | 13.188     | 13.489     | 13.833     |   7.2 |  2.00
Other   |            | 3.15       |            |       |  0.47

Nlocal:           5400 ave        5431 max        5385 min
Histogram: 1 2 0 0 0 0 0 0 0 1
Nghost:        14754.5 ave       14769 max       14724 min
Histogram: 1 0 0 0 0 0 0 1 0 2
Neighs:         452595 ave      459153 max      448244 min
Histogram: 2 0 0 0 0 1 0 0 0 1

Total # of neighbors = 1810381
Ave neighs/atom = 83.813935
Neighbor list builds = 461
Dangerous builds = 0
unfix        eq
variable     zmid equal (zlo+zhi)/2
region       up block INF INF INF INF ${zmid} INF units box
region       up block INF INF INF INF 60.24 INF units box
group        liq region up
10824 atoms in group liq
group        sol subtract all liq
10776 atoms in group sol
velocity     sol set 0 0 0
fix          fr sol setforce 0 0 0
fix          m liq nvt temp 1500 1500 0.2
run          ${nstage}
run          10000
Per MPI rank memory allocation (min/avg/max) = 8.252 | 8.443 | 8.634 Mbytes
   Step          Temp          E_pair         E_mol          TotEng         Press     
     10000   469.0341      -74137.754      0             -72828.263     -3156.6891    
     11000   759.04622     -73268.958      0             -71149.784      16924.76     
     12000   745.30161     -73358.077      0             -71277.277      14846.953    
     13000   757.93118     -73282.913      0             -71166.852      16887.277    
     14000   754.9801      -73155.14       0             -71047.318      19563.008    
     15000   755.42094     -72995.036      0             -70885.984      23387.012    
     16000   745.58184     -72788.588      0             -70707.006      27227.84     
     17000   748.97051     -72657.971      0             -70566.928      29721.415    
     18000   757.61241     -72616.51       0             -70501.339      30833.78     
     19000   759.333       -72596.085      0             -70476.111      31269.729    
     20000   749.45815     -72598.715      0             -70506.311      31181.542    
Loop time of 634.728 on 4 procs for 10000 steps with 21600 atoms

Performance: 2.722 ns/day, 8.816 hours/ns, 15.755 timesteps/s, 340.303 katom-step/s
90.5% CPU use with 4 MPI tasks x 1 OpenMP threads

MPI task timing breakdown:
Section |  min time  |  avg time  |  max time  |%varavg| %total
---------------------------------------------------------------
Pair    | 500.22     | 513.4      | 528.57     |  51.1 | 80.89
Neigh   | 26.179     | 26.782     | 27.576     |  11.2 |  4.22
Comm    | 71.198     | 86.688     | 99.954     | 125.4 | 13.66
Output  | 0.0038867  | 0.0059175  | 0.010611   |   3.6 |  0.00
Modify  | 3.4922     | 4.6814     | 5.8294     |  53.0 |  0.74
Other   |            | 3.165      |            |       |  0.50

Nlocal:           5400 ave        5463 max        5322 min
Histogram: 1 0 1 0 0 0 0 0 0 2
Nghost:        14454.5 ave       14517 max       14388 min
Histogram: 1 0 1 0 0 0 0 0 1 1
Neighs:         450927 ave      455028 max      444736 min
Histogram: 1 0 0 0 1 0 0 0 0 2

Total # of neighbors = 1803708
Ave neighs/atom = 83.505
Neighbor list builds = 573
Dangerous builds = 0
unfix        m
fix          c liq nvt temp ${Tm} ${Tm} 0.2
fix          c liq nvt temp 936 ${Tm} 0.2
fix          c liq nvt temp 936 936 0.2
run          ${nstage}
run          10000
Per MPI rank memory allocation (min/avg/max) = 8.252 | 8.443 | 8.634 Mbytes
   Step          Temp          E_pair         E_mol          TotEng         Press     
     20000   749.45815     -72598.715      0             -70506.311      31181.542    
     21000   468.57582     -73564.283      0             -72256.071      13186.389    
     22000   461.88458     -73601.698      0             -72312.168      12325.747    
     23000   471.97441     -73622.898      0             -72305.198      11635.989    
     24000   466.06455     -73688.023      0             -72386.823      10244.039    
     25000   475.77361     -73684.38       0             -72356.072      10340.323    
     26000   464.73826     -73752.505      0             -72455.007      8415.7371    
     27000   476.15813     -73767.719      0             -72438.338      8109.629     
     28000   470.15976     -73815.303      0             -72502.669      6823.7007    
     29000   468.25476     -73849.586      0             -72542.27       5836.1314    
     30000   470.23474     -73865.416      0             -72552.572      5469.6412    
Loop time of 614.643 on 4 procs for 10000 steps with 21600 atoms

Performance: 2.811 ns/day, 8.537 hours/ns, 16.270 timesteps/s, 351.424 katom-step/s
90.6% CPU use with 4 MPI tasks x 1 OpenMP threads

MPI task timing breakdown:
Section |  min time  |  avg time  |  max time  |%varavg| %total
---------------------------------------------------------------
Pair    | 496.12     | 503.19     | 523.89     |  53.3 | 81.87
Neigh   | 20.027     | 20.484     | 21.542     |  13.6 |  3.33
Comm    | 61.956     | 83.74      | 91.338     | 137.5 | 13.62
Output  | 0.0014504  | 0.0031983  | 0.0082238  |   5.1 |  0.00
Modify  | 3.4839     | 4.2057     | 4.8943     |  32.3 |  0.68
Other   |            | 3.019      |            |       |  0.49

Nlocal:           5400 ave        5451 max        5351 min
Histogram: 2 0 0 0 0 0 0 0 0 2
Nghost:        14688.8 ave       14724 max       14647 min
Histogram: 1 0 0 1 0 0 0 0 1 1
Neighs:         451961 ave      453979 max      449935 min
Histogram: 1 1 0 0 0 0 0 0 1 1

Total # of neighbors = 1807845
Ave neighs/atom = 83.696528
Neighbor list builds = 440
Dangerous builds = 0
unfix        c
unfix        fr
velocity     sol create ${Tm} $(v_seed+1) mom yes rot yes dist gaussian
velocity     sol create 936 $(v_seed+1) mom yes rot yes dist gaussian
velocity     sol create 936 3302 mom yes rot yes dist gaussian
fix          rel all npt temp ${Tm} ${Tm} 0.2 z 0 0 2.0
fix          rel all npt temp 936 ${Tm} 0.2 z 0 0 2.0
fix          rel all npt temp 936 936 0.2 z 0 0 2.0
run          ${neq}
run          25000
Per MPI rank memory allocation (min/avg/max) = 8.252 | 8.443 | 8.634 Mbytes
   Step          Temp          E_pair         E_mol          TotEng         Press          Volume    
     30000   937.17303     -73865.416      0             -71248.932      9142.4991      379116.55    
     31000   935.4126      -73718.866      0             -71107.297      335.79463      384369.3     
     32000   932.74024     -73668.109      0             -71064.001     -97.153838      385075.39    
     33000   932.91571     -73682.939      0             -71078.341     -41.70961       384964.56    
     34000   947.89073     -73700.369      0             -71053.962      470.99575      384622.86    
     35000   943.21669     -73713.236      0             -71079.879      45.152562      384678.72    
     36000   932.43024     -73713.404      0             -71110.162      415.86457      384406.81    
     37000   934.79591     -73720.385      0             -71110.538     -342.39305      384734.69    
     38000   924.36002     -73736.121      0             -71155.409     -525.02136      384559.83    
     39000   923.16125     -73698.162      0             -71120.797      458.82702      384568.58    
     40000   936.61977     -73712.162      0             -71097.222     -88.502965      384710.02    
     41000   937.49869     -73722.109      0             -71104.716     -122.23587      384599.08    
     42000   947.17489     -73698.901      0             -71054.493      121.35868      384796.39    
     43000   931.48613     -73712.758      0             -71112.151      714.12166      384336.39    
     44000   937.69443     -73692.162      0             -71074.222     -128.04207      384949.88    
     45000   934.8783      -73699.292      0             -71089.214      67.243318      384777.78    
     46000   938.68087     -73689.818      0             -71069.125      355.45338      384748.32    
     47000   944.14107     -73715.041      0             -71079.103      650.78867      384434.72    
     48000   931.69684     -73684.525      0             -71083.33       570.48572      384650.12    
     49000   934.0937      -73689.714      0             -71081.828      667.87274      384578.52    
     50000   938.57559     -73684.416      0             -71064.016      108.63087      384947.74    
     51000   934.09269     -73660.128      0             -71052.244      295.70748      385075.78    
     52000   934.09579     -73698.123      0             -71090.23       1009.4319      384411.17    
     53000   934.66612     -73669.911      0             -71060.426      125.79341      385043.26    
     54000   942.25172     -73658.662      0             -71027.999     -304.94414      385402.39    
     55000   930.86309     -73662.976      0             -71064.109     -108.5118       385261.5     
Loop time of 1587.2 on 4 procs for 25000 steps with 21600 atoms

Performance: 2.722 ns/day, 8.818 hours/ns, 15.751 timesteps/s, 340.221 katom-step/s
90.5% CPU use with 4 MPI tasks x 1 OpenMP threads

MPI task timing breakdown:
Section |  min time  |  avg time  |  max time  |%varavg| %total
---------------------------------------------------------------
Pair    | 1229       | 1285.7     | 1333.4     | 103.8 | 81.00
Neigh   | 51.862     | 55.455     | 58.468     |  33.6 |  3.49
Comm    | 160.3      | 211        | 271.47     | 272.7 | 13.29
Output  | 0.0049794  | 0.014733   | 0.043784   |  13.8 |  0.00
Modify  | 27.97      | 28.146     | 28.284     |   2.5 |  1.77
Other   |            | 6.873      |            |       |  0.43

Nlocal:           5400 ave        5556 max        5227 min
Histogram: 1 1 0 0 0 0 0 0 0 2
Nghost:        14444.5 ave       14472 max       14410 min
Histogram: 1 0 0 0 0 1 0 1 0 1
Neighs:         444925 ave      465318 max      422279 min
Histogram: 1 1 0 0 0 0 0 0 0 2

Total # of neighbors = 1779701
Ave neighs/atom = 82.393565
Neighbor list builds = 1164
Dangerous builds = 0
unfix        rel
# production: NPH along z (interface position drifts slowly if T != T_m)
compute      cna all cna/atom $(0.854*v_a0)
compute      cna all cna/atom 3.4296639999999998238
variable     issol atom c_cna==1
compute      ns all reduce sum v_issol
variable     fsol equal c_ns/atoms
fix          prod all nph z 0 0 2.0
thermo_style custom step temp press pzz pe lz v_fsol
dump         d all custom ${ndump} cfm_${pot}_${orient}.dump id x y z c_cna
dump         d all custom 2000 cfm_${pot}_${orient}.dump id x y z c_cna
dump         d all custom 2000 cfm_borovikov_${orient}.dump id x y z c_cna
dump         d all custom 2000 cfm_borovikov_100.dump id x y z c_cna
dump_modify  d sort id
run          ${nprod}
run          200000
Neighbor list info ...
  update: every = 1 steps, delay = 0 steps, check = yes
  max neighbors/atom: 2000, page size: 100000
  master list distance cutoff = 8.9
  ghost atom cutoff = 8.9
  binsize = 4.45, bins = 56 3 29
  2 neighbor lists, perpetual/occasional/extra = 1 1 0
  (1) pair eam/fs, perpetual
      attributes: half, newton on
      pair build: half/bin/atomonly/newton
      stencil: half/bin/3d
      bin: standard
  (2) compute cna/atom, occasional
      attributes: full, newton on
      pair build: full/bin/atomonly
      stencil: full/bin/3d
      bin: standard
Per MPI rank memory allocation (min/avg/max) = 9.395 | 9.397 | 9.398 Mbytes
   Step          Temp          Press           Pzz           PotEng           Lz           v_fsol    
     55000   930.86309     -108.5118      -353.21043     -73662.976      125.67921      0.18662037   
     56000   936.47368      117.81092      84.812837     -73678.643      125.59999      0.20013889   
     57000   936.84658      569.16911      682.3793      -73679.561      125.56684      0.19763889   
     58000   935.80903     -621.88542     -345.53592     -73676.657      125.73004      0.20212963   
     59000   932.05831     -478.41347     -941.54596     -73666.122      125.72025      0.20467593   
     60000   937.3533       434.93335      997.55116     -73680.951      125.5631       0.20592593   
     61000   938.47667     -61.122749     -142.8077      -73684.091      125.6068       0.20138889   
     62000   932.2239      -421.49637     -323.93649     -73666.658      125.67677      0.20597222   
     63000   930.72829     -573.54197     -490.90447     -73662.543      125.73604      0.20546296   
     64000   936.49363      195.22919      308.89966     -73678.61       125.5993       0.19833333   
     65000   931.42274      208.80272      534.01715     -73664.409      125.61789      0.19458333   
     66000   932.13789     -166.84711      279.05024     -73666.349      125.63574      0.19328704   
     67000   927.6809      -1163.6758     -1413.3434     -73653.748      125.87929      0.18916667   
     68000   933.33899      577.51213      664.5079      -73669.617      125.60434      0.19393519   
     69000   934.74185      404.49744      469.36077     -73673.52       125.59244      0.20912037   
     70000   936.95379      396.45844      529.97207     -73679.729      125.55819      0.20296296   
     71000   927.72964      400.73656      764.77794     -73653.924      125.60634      0.19638889   
     72000   940.82013     -196.75856     -302.51696     -73690.544      125.65058      0.19416667   
     73000   937.68766      85.855007      207.47217     -73681.781      125.58334      0.19203704   
     74000   935.09305      992.15934      972.8588      -73674.395      125.48723      0.20578704   
     75000   940.5154       122.58989      193.60825     -73689.559      125.60108      0.2037963    
     76000   933.76902      358.60393      332.98808     -73670.702      125.61767      0.20060185   
     77000   936.27176      313.31243      814.30498     -73677.622      125.58435      0.21037037   
     78000   926.0259      -430.46705     -514.44678     -73648.95       125.7829       0.19384259   
     79000   928.79778     -507.71257     -481.22338     -73656.791      125.75822      0.20203704   
     80000   931.02828      206.56464      198.27866     -73663.021      125.63424      0.20791667   
     81000   931.55161      342.89644      400.15651     -73664.477      125.61166      0.19986111   
     82000   932.54893     -316.90415     -368.03173     -73667.337      125.73256      0.20037037   
     83000   929.04751      739.1245       817.52638     -73657.583      125.61063      0.18203704   
     84000   922.04656     -265.24648     -162.5595      -73638.01       125.79772      0.19287037   
     85000   934.66805     -85.435111     -370.98911     -73673.335      125.69355      0.20240741   
     86000   923.08071      100.73116      82.491361     -73641.008      125.77996      0.19773148   
     87000   929.58857     -297.23383     -39.347407     -73659.303      125.72511      0.19148148   
     88000   927.4772       640.0177       668.37766     -73653.36       125.64444      0.19069444   
     89000   927.92751     -202.38438     -304.74712     -73654.645      125.754        0.19615741   
     90000   928.16105      479.38103      175.08254     -73655.238      125.62219      0.20203704   
     91000   924.74295     -181.63346     -140.93843     -73645.586      125.7744       0.19796296   
     92000   929.26431     -86.06257       279.62365     -73658.205      125.73676      0.19712963   
     93000   931.73752     -604.6617      -415.5532      -73665.088      125.78001      0.20310185   
     94000   932.03197     -1233.6845     -1291.5368     -73665.87       125.88775      0.19398148   
     95000   927.74858     -164.74083      55.006259     -73653.941      125.73808      0.20208333   
     96000   924.06517      388.37863      306.15003     -73643.575      125.64416      0.19986111   
     97000   921.85489     -740.42815     -779.20843     -73637.37       125.86826      0.18944444   
     98000   929.55782     -817.98297     -780.34333     -73658.986      125.82857      0.20231481   
     99000   931.54124      390.97194      575.61319     -73664.406      125.63449      0.2074537    
    100000   928.5943      -958.30558     -664.12452     -73656.235      125.84265      0.20847222   
    101000   923.76484     -262.4689      -629.47366     -73642.766      125.82406      0.19916667   
    102000   930.92427      74.302017      304.38249     -73662.771      125.68615      0.20675926   
    103000   922.42012     -44.856155      193.57191     -73639.146      125.76541      0.19768519   
    104000   923.7369       499.53767      717.46416     -73642.889      125.69563      0.19768519   
    105000   931.31571      352.25089      469.34611     -73664.043      125.63655      0.20152778   
    106000   924.38533     -499.78014     -399.99373     -73644.804      125.81588      0.19638889   
    107000   923.83924      149.01611      490.59291     -73643.373      125.72911      0.18907407   
    108000   928.1864       336.36556     -101.07959     -73655.531      125.67341      0.19319444   
    109000   924.91639      85.895896      247.3332      -73646.396      125.744        0.19462963   
    110000   931.49648      420.71456      720.0539      -73664.754      125.63663      0.20611111   
    111000   928.40391     -151.04836     -116.45101     -73656.386      125.76727      0.19916667   
    112000   923.2426      -600.56856     -467.35158     -73641.724      125.89469      0.19037037   
    113000   930.13185      382.12555      1061.165      -73660.95       125.63733      0.20430556   
    114000   922.62182      365.67982      576.24474     -73640.063      125.70998      0.19824074   
    115000   919.61013     -255.10432      98.329712     -73631.641      125.82202      0.19583333   
    116000   929.15895      73.612594      198.93098     -73658.368      125.69033      0.19050926   
    117000   928.69195      128.07339      1.6430039     -73657.083      125.72361      0.19449074   
    118000   929.73709     -129.7464       488.01052     -73660.036      125.71951      0.19833333   
    119000   930.94878      919.29553      1269.017      -73663.396      125.55802      0.20078704   
    120000   932.25955     -699.10669     -354.06064     -73667.127      125.78386      0.20305556   
    121000   925.94086     -13.351089      302.17886     -73649.464      125.71471      0.20226852   
    122000   933.9612       119.22434      264.4376      -73671.861      125.64232      0.18685185   
    123000   940.36426     -21.53788       146.47835     -73689.69       125.58601      0.20189815   
    124000   938.41063      126.18166      217.31516     -73684.149      125.59662      0.19759259   
    125000   926.99721     -38.297444     -156.57953     -73652.229      125.70977      0.19796296   
    126000   934.80583     -629.29546     -817.88225     -73674.179      125.70575      0.20194444   
    127000   940.63819     -315.8978      -123.5025      -73690.553      125.59331      0.20064815   
    128000   942.355        479.13805      765.56527     -73695.264      125.50587      0.20847222   
    129000   930.9958      -116.1098       500.0334      -73663.515      125.66576      0.19388889   
    130000   936.89365     -249.67482     -265.02711     -73680.024      125.64442      0.20481481   
    131000   935.30895      641.25024      641.37908     -73675.611      125.56587      0.20550926   
    132000   929.65519      63.628317      597.60184     -73659.815      125.69504      0.20324074   
    133000   928.25723     -527.4702      -428.2675      -73656.041      125.75569      0.20222222   
    134000   932.68955     -31.721179      434.85048     -73668.506      125.69137      0.21037037   
    135000   931.37799      551.64367      703.20063     -73664.878      125.61601      0.19416667   
    136000   930.94289     -373.27977      39.382222     -73663.638      125.75411      0.1950463    
    137000   925.55502      133.51754      448.74701     -73648.558      125.71692      0.20050926   
    138000   925.90369      1346.1061      1712.6914     -73649.198      125.54134      0.20689815   
    139000   929.97242     -279.51288     -46.138012     -73661.095      125.76409      0.20421296   
    140000   920.94825     -588.04376     -593.56357     -73635.844      125.89503      0.19175926   
    141000   927.1822       292.61188      164.37862     -73653.302      125.69768      0.20449074   
    142000   923.01537      263.87307      277.72744     -73641.769      125.73785      0.20143519   
    143000   924.66438     -1350.791      -955.43454     -73646.439      125.95801      0.20356481   
    144000   924.98625     -117.4901      -393.59814     -73647.422      125.81775      0.19425926   
    145000   918.89642     -594.09634     -339.84336     -73630.426      125.88327      0.19731481   
    146000   922.91638      1278.8021      1329.8496     -73641.607      125.55802      0.1924537    
    147000   918.23731      369.99155      482.89129     -73628.637      125.82904      0.18587963   
    148000   922.26588     -459.96132     -55.859633     -73639.947      125.80935      0.2075       
    149000   924.44227     -282.62114     -337.15784     -73646.071      125.82054      0.19833333   
    150000   934.12191      115.50251      205.01696     -73673.114      125.68472      0.20800926   
    151000   922.37031     -16.565138      160.0235      -73640.2        125.81072      0.19180556   
    152000   925.89892     -428.65181     -177.33517     -73650.023      125.80132      0.2075463    
    153000   926.20052     -555.99845     -509.35688     -73650.815      125.84026      0.20412037   
    154000   930.10736      377.10167      300.24004     -73661.694      125.72053      0.20009259   
    155000   924.88299      103.07775      717.42365     -73646.968      125.77038      0.19967593   
    156000   928.15463      599.53917      608.64662     -73656.054      125.63798      0.20763889   
    157000   921.88968      511.54922      458.28115     -73638.558      125.73838      0.19930556   
    158000   929.21215     -683.62209     -377.65633     -73658.937      125.85113      0.19726852   
    159000   927.6087       921.04157      999.47509     -73654.447      125.62491      0.19893519   
    160000   924.0911      -630.42657     -800.12433     -73644.761      125.86375      0.1949537    
    161000   922.07672     -76.059497      37.073161     -73639.116      125.77622      0.19893519   
    162000   928.8951       187.35997      146.86129     -73658.23       125.70207      0.1874537    
    163000   919.34902     -306.32134     -228.63093     -73631.518      125.83828      0.18962963   
    164000   919.13849     -682.0578      -364.45251     -73630.819      125.8889       0.19981481   
    165000   921.86298     -85.270357      148.01871     -73638.436      125.80433      0.19037037   
    166000   930.57166     -169.47552      174.09181     -73662.678      125.72484      0.20148148   
    167000   929.74888     -240.1388      -108.02833     -73660.362      125.7605       0.20967593   
    168000   924.78741     -523.42984     -572.58016     -73646.505      125.84122      0.19782407   
    169000   921.26453      409.51619      152.33251     -73636.653      125.76578      0.19944444   
    170000   924.92932      741.87309      1316.736      -73646.915      125.62076      0.19888889   
    171000   926.76153     -782.0028      -1027.7457     -73652.074      125.8589       0.2050463    
    172000   931.44677     -568.93034     -277.95827     -73665.193      125.76767      0.18699074   
    173000   930.98852      477.44562      276.12732     -73663.941      125.59251      0.20319444   
    174000   924.34916      340.36607      406.45173     -73645.515      125.68731      0.19319444   
    175000   927.32782     -655.50764     -725.09193     -73653.76       125.79484      0.19449074   
    176000   925.07968      392.03512      583.68495     -73647.63       125.72577      0.19819444   
    177000   921.37085     -130.55366      92.187936     -73637.274      125.77574      0.19402778   
    178000   927.99103     -146.57374     -448.14965     -73655.924      125.7382       0.19962963   
    179000   924.64437      764.72218      880.61882     -73646.499      125.67064      0.18814815   
    180000   923.05544      420.71585      578.32654     -73642.119      125.73596      0.19458333   
    181000   924.04333     -108.95543      7.1262158     -73644.863      125.77868      0.19643519   
    182000   931.38738      77.380369      548.28082     -73665.457      125.69081      0.20453704   
    183000   922.75598      421.70363      845.40563     -73641.358      125.72039      0.19101852   
    184000   928.79453     -563.52087     -768.17119     -73658.326      125.77955      0.20328704   
    185000   918.80632     -655.38327     -815.36969     -73630.442      125.90356      0.19615741   
    186000   929.2446      -466.66766     -365.13897     -73659.629      125.75531      0.20342593   
    187000   931.03992     -6.5025764      46.603653     -73664.645      125.69186      0.19875      
    188000   921.66656     -798.68653     -678.91062     -73638.354      125.88864      0.18537037   
    189000   930.58187      317.82452      637.90454     -73663.212      125.60808      0.20736111   
    190000   933.95329      623.49544      368.24434     -73672.677      125.63014      0.20652778   
    191000   929.65347     -478.68126     -216.4612      -73660.726      125.78038      0.19148148   
    192000   924.99369      8.5640656      434.13739     -73647.761      125.71818      0.19740741   
    193000   934.94486     -61.161434      163.68891     -73675.546      125.69787      0.19412037   
    194000   928.17307      389.55835      782.97267     -73656.634      125.66749      0.19898148   
    195000   922.86615     -138.2959       511.66332     -73641.819      125.78009      0.19453704   
    196000   928.67272     -805.04055     -312.61438     -73658.091      125.84821      0.19925926   
    197000   919.14001     -1254.9575     -1363.0074     -73631.43       125.94763      0.20532407   
    198000   923.30278     -30.335515     -141.79338     -73643.107      125.79841      0.19611111   
    199000   926.5721      -83.086135      194.30853     -73652.265      125.74398      0.1999537    
    200000   929.63491     -443.93461     -393.90243     -73660.855      125.76306      0.1974537    
    201000   921.28093     -670.16437     -1125.2051     -73637.438      125.88464      0.19569444   
    202000   922.44577      271.33702      556.58578     -73640.729      125.76964      0.19412037   
    203000   927.72288      451.18862      785.59033     -73655.338      125.66393      0.20986111   
    204000   923.29777     -322.99929     -12.320656     -73642.966      125.8532       0.20143519   
    205000   921.37333      268.63319      277.44119     -73637.522      125.71996      0.20361111   
    206000   921.79683     -482.12266     -453.50765     -73638.795      125.84921      0.19773148   
    207000   925.40619     -699.86614     -928.92514     -73648.798      125.85687      0.20314815   
    208000   922.69161      499.26556      1034.4833     -73641.159      125.67276      0.19847222   
    209000   930.87207     -570.56175     -481.87022     -73664.055      125.7962       0.19509259   
    210000   932.07541     -503.85696     -526.97262     -73667.34       125.7563       0.19680556   
    211000   921.89468      570.75297      690.01289     -73638.771      125.6829       0.20291667   
    212000   919.13659     -81.247263     -48.397561     -73631.132      125.83717      0.18893519   
    213000   926.66234     -547.95996     -353.7036      -73652.254      125.8157       0.19856481   
    214000   931.05676      551.63939      657.58418     -73664.386      125.62379      0.18967593   
    215000   928.91859     -291.55939     -632.80852     -73658.438      125.73725      0.20092593   
    216000   930.80355     -22.510435      389.17186     -73663.631      125.66563      0.1999537    
    217000   929.36591      131.78386      94.749509     -73659.663      125.69995      0.19115741   
    218000   925.8323      -92.807878     -344.749       -73649.664      125.7486       0.18759259   
    219000   929.04891     -601.73564     -378.9293      -73658.641      125.81506      0.19986111   
    220000   932.90816      891.99087      1411.0264     -73669.363      125.54129      0.20037037   
    221000   934.06602      29.469381      458.26703     -73672.556      125.65405      0.19546296   
    222000   926.58931     -25.199254      237.88245     -73651.72       125.72559      0.19157407   
    223000   922.273        230.82434      252.22747     -73639.614      125.71764      0.18787037   
    224000   921.39888     -226.8446       84.743643     -73637.221      125.78842      0.19666667   
    225000   921.51107     -1152.1466     -1209.696      -73637.346      125.92267      0.19759259   
    226000   929.565       -617.10532     -872.19144     -73659.947      125.81571      0.19648148   
    227000   934.15813     -740.32815     -737.02267     -73672.788      125.76368      0.20634259   
    228000   941.12695     -304.1285      -377.67252     -73692.263      125.66562      0.20027778   
    229000   924.98348      81.669675      621.72712     -73647.085      125.72435      0.1962037    
    230000   928.84315      102.11657      405.8039      -73657.883      125.73366      0.20060185   
    231000   931.30788      229.79147      423.77194     -73664.779      125.63752      0.20828704   
    232000   929.17453     -693.45194     -1118.3922     -73658.837      125.81649      0.18805556   
    233000   924.5501      -871.40237     -832.85753     -73645.957      125.8382       0.19953704   
    234000   927.33928      536.9943       786.43298     -73653.833      125.63964      0.19657407   
    235000   927.08607      324.94613      498.67255     -73653.153      125.72743      0.21074074   
    236000   930.65835     -19.934228      419.83041     -73663.186      125.69845      0.20606481   
    237000   929.57348     -1102.4798     -1280.6883     -73660.111      125.86423      0.20712963   
    238000   928.96824     -267.77681     -324.85919     -73658.508      125.75867      0.18902778   
    239000   926.11227      196.36419      345.23979     -73650.624      125.69041      0.19430556   
    240000   932.83951      238.49024      165.25438     -73669.401      125.59862      0.20592593   
    241000   914.24235      727.58404      725.1325      -73617.51       125.72776      0.18541667   
    242000   931.67169     -594.69114     -667.31992     -73666.225      125.75615      0.20421296   
    243000   930.47684      487.12333      704.94102     -73662.93       125.64543      0.19921296   
    244000   935.60794     -464.39476     -99.485876     -73677.272      125.70101      0.20273148   
    245000   926.9827       132.01226     -432.67091     -73653.155      125.71162      0.19361111   
    246000   924.91783      11.111349      336.34522     -73647.373      125.74785      0.19319444   
    247000   930.53243      21.5678       -100.28496     -73663.1        125.67944      0.18731481   
    248000   933.70386      714.18809      645.25902     -73671.88       125.53312      0.19824074   
    249000   932.50987      965.41573      818.7999      -73668.487      125.55135      0.19907407   
    250000   932.01881     -486.82781     -395.24506     -73667.091      125.7312       0.19037037   
    251000   939.57132     -286.57678      188.00712     -73688.238      125.64875      0.20314815   
    252000   935.90754      797.82114      1392.9483     -73678.159      125.55649      0.20421296   
    253000   927.6296      -674.82492     -607.16071     -73655.061      125.79374      0.19791667   
    254000   935.10154     -451.47027     -441.02097     -73675.969      125.72026      0.19930556   
    255000   929.0692       378.15306      539.91127     -73659.072      125.63184      0.20273148   
Loop time of 14294.1 on 4 procs for 200000 steps with 21600 atoms

Performance: 2.418 ns/day, 9.926 hours/ns, 13.992 timesteps/s, 302.223 katom-step/s
91.2% CPU use with 4 MPI tasks x 1 OpenMP threads

MPI task timing breakdown:
Section |  min time  |  avg time  |  max time  |%varavg| %total
---------------------------------------------------------------
Pair    | 10083      | 10651      | 11057      | 380.0 | 74.51
Neigh   | 383.33     | 411.92     | 432.71     |  97.5 |  2.88
Comm    | 2242.4     | 2662.8     | 3254.5     | 787.7 | 18.63
Output  | 53.286     | 68.489     | 84.989     | 141.5 |  0.48
Modify  | 383.81     | 406        | 425.17     |  73.2 |  2.84
Other   |            | 94.09      |            |       |  0.66

Nlocal:           5400 ave        5416 max        5382 min
Histogram: 1 0 0 0 1 0 0 1 0 1
Nghost:        13894.2 ave       14200 max       13649 min
Histogram: 2 0 0 0 0 0 0 1 0 1
Neighs:         445065 ave      454153 max      434211 min
Histogram: 1 1 0 0 0 0 0 0 0 2
FullNghs:       889810 ave      908077 max      867682 min
Histogram: 1 0 1 0 0 0 0 0 0 2

Total # of neighbors = 3559242
Ave neighs/atom = 164.77972
Neighbor list builds = 9255
Dangerous builds = 0
Total wall time: 4:56:56
