LAMMPS (10 Sep 2025)
  using 1 OpenMP thread(s) per MPI task
# Capillary fluctuation method (Hoyt, Asta, Karma 2001): quasi-2D solid-liquid ribbon at T_m.
# Interface normal z, fluctuation direction x, thin y.  orient: 100 | 110 | 111 (interface plane)
#   mpirun -np 4 lmp -in in.cfm -var pot borovikov -var Tm 930 -var orient 100
variable pot    index borovikov
variable Tm     index 930
variable orient index 100
variable seed   index 3301
variable neq    index 25000
variable nprod  index 200000
variable nstage index 10000
variable ndump  index 2000
variable a0 equal 4.05
if "${pot} == borovikov" then "variable a0 equal 4.016"
variable a0 equal 4.016
if "${pot} == mendelev" then "variable a0 equal 4.045"
units        metal
atom_style   atomic
boundary     p p p
# (x, y, z) = (fluctuation, thin, interface normal)
if "${orient} == 100" then "lattice fcc ${a0} orient x 1 0 0 orient y 0 1 0 orient z 0 0 1" "region box block 0 60 0 3 0 30"
if "${orient} == 110" then "lattice fcc ${a0} orient x 0 0 1 orient y 1 -1 0 orient z 1 1 0" "region box block 0 60 0 2 0 21"
if "${orient} == 111" then "lattice fcc ${a0} orient x 1 -1 0 orient y 1 1 -2 orient z 1 1 1" "region box block 0 42 0 3 0 17"
lattice fcc ${a0} orient x 1 -1 0 orient y 1 1 -2 orient z 1 1 1
lattice fcc 4.016 orient x 1 -1 0 orient y 1 1 -2 orient z 1 1 1
Lattice spacing in x,y,z = 5.6794817 6.5581005 6.955916
region box block 0 42 0 3 0 17
create_box   1 box
Created orthogonal box = (0 0 0) to (238.53823 19.674302 118.25057)
  3 by 1 by 2 MPI processor grid
create_atoms 1 box
Created 34272 atoms
  using lattice units in orthogonal box = (0 0 0) to (238.53823 19.674302 118.25057)
  create_atoms CPU = 0.040 seconds
mass         1 26.982
include      pot_${pot}.lmp
include      pot_borovikov.lmp
# Borovikov, Mendelev, Zarkevich, Smith, Lawson, Int. J. Plast. 178 (2024) 104004 — EAM/FS Ni-Al-Nb (NIST IPR)
pair_style eam/fs
pair_coeff * * ../../potentials/NiAlNb_Borovikov2024/Ni-Al-Nb.eam.fs Al
timestep     0.002
thermo       1000
# solid at Tm, lateral lattice fixed afterwards
velocity     all create ${Tm} ${seed} mom yes rot yes dist gaussian
velocity     all create 936 ${seed} mom yes rot yes dist gaussian
velocity     all create 936 3301 mom yes rot yes dist gaussian
fix          eq all npt temp ${Tm} ${Tm} 0.2 aniso 0 0 2.0
fix          eq all npt temp 936 ${Tm} 0.2 aniso 0 0 2.0
fix          eq all npt temp 936 936 0.2 aniso 0 0 2.0
run          ${nstage}
run          10000
Neighbor list info ...
  update: every = 1 steps, delay = 0 steps, check = yes
  max neighbors/atom: 2000, page size: 100000
  master list distance cutoff = 8.9
  ghost atom cutoff = 8.9
  binsize = 4.45, bins = 54 5 27
  1 neighbor lists, perpetual/occasional/extra = 1 0 0
  (1) pair eam/fs, perpetual
      attributes: half, newton on
      pair build: half/bin/atomonly/newton
      stencil: half/bin/3d
      bin: standard
Per MPI rank memory allocation (min/avg/max) = 8.303 | 8.309 | 8.319 Mbytes
   Step          Temp          E_pair         E_mol          TotEng         Press          Volume    
         0   936           -122157.26      0             -118010.89      7973.6241      554958.58    
      1000   873.4499      -118051.67      0             -114182.39      1184.3338      596857.34    
      2000   945.5088      -117626.34      0             -113437.85     -119.3674       602137.58    
      3000   937.70804     -117619.11      0             -113465.18      29.908725      601981.46    
      4000   931.773       -117680.74      0             -113553.1      -56.712886      601451.43    
      5000   941.58744     -117599.85      0             -113428.74     -636.49804      602527.04    
      6000   931.27257     -117643.16      0             -113517.74     -180.86061      601824.05    
      7000   931.29753     -117638.98      0             -113513.45      531.41119      601557.43    
      8000   939.80186     -117601.87      0             -113438.67      295.94779      602004.53    
      9000   933.44353     -117663.46      0             -113528.42      916.14522      601047.61    
     10000   943.02143     -117637.15      0             -113459.68      693.00547      601459.75    
Loop time of 1181.06 on 6 procs for 10000 steps with 34272 atoms

Performance: 1.463 ns/day, 16.404 hours/ns, 8.467 timesteps/s, 290.181 katom-step/s
92.1% CPU use with 6 MPI tasks x 1 OpenMP threads

MPI task timing breakdown:
Section |  min time  |  avg time  |  max time  |%varavg| %total
---------------------------------------------------------------
Pair    | 692.79     | 769.12     | 854.7      | 228.9 | 65.12
Neigh   | 19.678     | 22.905     | 26.986     |  58.6 |  1.94
Comm    | 199.25     | 281.94     | 355.44     | 371.1 | 23.87
Output  | 0.0076599  | 0.009216   | 0.016748   |   3.5 |  0.00
Modify  | 81.083     | 89.464     | 97.241     |  69.8 |  7.57
Other   |            | 17.62      |            |       |  1.49

Nlocal:           5712 ave        5739 max        5696 min
Histogram: 1 1 2 0 0 1 0 0 0 1
Nghost:        11274.7 ave       11292 max       11250 min
Histogram: 1 0 0 0 1 1 1 0 0 2
Neighs:         478671 ave      480718 max      474890 min
Histogram: 1 0 0 0 1 0 1 0 1 2

Total # of neighbors = 2872028
Ave neighs/atom = 83.801004
Neighbor list builds = 471
Dangerous builds = 0
unfix        eq
variable     zmid equal (zlo+zhi)/2
region       up block INF INF INF INF ${zmid} INF units box
region       up block INF INF INF INF 59.1252863671706 INF units box
group        liq region up
17106 atoms in group liq
group        sol subtract all liq
17166 atoms in group sol
velocity     sol set 0 0 0
fix          fr sol setforce 0 0 0
fix          m liq nvt temp 1500 1500 0.2
run          ${nstage}
run          10000
Per MPI rank memory allocation (min/avg/max) = 8.306 | 8.312 | 8.323 Mbytes
   Step          Temp          E_pair         E_mol          TotEng         Press     
     10000   470.40424     -117637.15      0             -115553.32     -3025.0294    
     11000   758.52569     -116279.61      0             -112919.44      16442.191    
     12000   748.61335     -116377.85      0             -113061.59      15396.022    
     13000   746.17715     -116301.68      0             -112996.21      16329.639    
     14000   742.1321      -116305.33      0             -113017.78      16260.006    
     15000   752.66595     -116161.5       0             -112827.29      18474.745    
     16000   744.94167     -115970.85      0             -112670.85      21159.175    
     17000   742.65042     -115660.47      0             -112370.62      25350.722    
     18000   747.22588     -115373.14      0             -112063.02      28830.923    
     19000   751.16981     -115259.66      0             -111932.07      30351.871    
     20000   743.48245     -115217.19      0             -111923.65      30955.723    
Loop time of 527.587 on 6 procs for 10000 steps with 34272 atoms

Performance: 3.275 ns/day, 7.328 hours/ns, 18.954 timesteps/s, 649.599 katom-step/s
92.0% CPU use with 6 MPI tasks x 1 OpenMP threads

MPI task timing breakdown:
Section |  min time  |  avg time  |  max time  |%varavg| %total
---------------------------------------------------------------
Pair    | 375.36     | 398.47     | 417.4      |  76.1 | 75.53
Neigh   | 16.576     | 18.13      | 19.369     |  23.5 |  3.44
Comm    | 78.762     | 98.466     | 122.32     | 160.8 | 18.66
Output  | 0.0017339  | 0.0024107  | 0.0055062  |   2.8 |  0.00
Modify  | 6.8434     | 7.3297     | 7.8345     |  14.4 |  1.39
Other   |            | 5.189      |            |       |  0.98

Nlocal:           5712 ave        5782 max        5643 min
Histogram: 2 0 1 0 0 0 0 1 0 2
Nghost:        11262.3 ave       11303 max       11219 min
Histogram: 2 0 0 0 0 0 2 1 0 1
Neighs:         476789 ave      482848 max      469387 min
Histogram: 1 1 0 0 0 1 0 1 0 2

Total # of neighbors = 2860733
Ave neighs/atom = 83.471434
Neighbor list builds = 583
Dangerous builds = 0
unfix        m
fix          c liq nvt temp ${Tm} ${Tm} 0.2
fix          c liq nvt temp 936 ${Tm} 0.2
fix          c liq nvt temp 936 936 0.2
run          ${nstage}
run          10000
Per MPI rank memory allocation (min/avg/max) = 8.306 | 8.312 | 8.323 Mbytes
   Step          Temp          E_pair         E_mol          TotEng         Press     
     20000   743.48245     -115217.19      0             -111923.65      30955.723    
     21000   457.26305     -116698.65      0             -114673.04      13496.188    
     22000   471.39967     -116740.84      0             -114652.6       13050.026    
     23000   462.10128     -116813.29      0             -114766.24      11737.245    
     24000   465.82916     -116839.93      0             -114776.36      11368.086    
     25000   467.23727     -116870.58      0             -114800.78      10928.171    
     26000   469.86019     -116917.65      0             -114836.22      10308.725    
     27000   467.39075     -116955.59      0             -114885.1       9567.18      
     28000   467.91123     -117015.84      0             -114943.05      8672.654     
     29000   466.68643     -117067.53      0             -115000.17      7712.512     
     30000   471.03134     -117083.61      0             -114997         7462.6845    
Loop time of 319.424 on 6 procs for 10000 steps with 34272 atoms

Performance: 5.410 ns/day, 4.436 hours/ns, 31.306 timesteps/s, 1.073 Matom-step/s
92.0% CPU use with 6 MPI tasks x 1 OpenMP threads

MPI task timing breakdown:
Section |  min time  |  avg time  |  max time  |%varavg| %total
---------------------------------------------------------------
Pair    | 259.01     | 261.29     | 263.38     |   8.8 | 81.80
Neigh   | 10.5       | 10.843     | 11.222     |   8.1 |  3.39
Comm    | 41.029     | 43.509     | 46.032     |  25.3 | 13.62
Output  | 0.0010549  | 0.0019263  | 0.006041   |   4.2 |  0.00
Modify  | 1.7872     | 2.1745     | 2.5522     |  24.4 |  0.68
Other   |            | 1.601      |            |       |  0.50

Nlocal:           5712 ave        5776 max        5650 min
Histogram: 1 1 1 0 0 0 0 1 1 1
Nghost:        11286.3 ave       11334 max       11250 min
Histogram: 2 0 0 0 2 0 1 0 0 1
Neighs:         477390 ave      482474 max      472026 min
Histogram: 1 1 0 1 0 0 1 0 1 1

Total # of neighbors = 2864341
Ave neighs/atom = 83.57671
Neighbor list builds = 455
Dangerous builds = 0
unfix        c
unfix        fr
velocity     sol create ${Tm} $(v_seed+1) mom yes rot yes dist gaussian
velocity     sol create 936 $(v_seed+1) mom yes rot yes dist gaussian
velocity     sol create 936 3302 mom yes rot yes dist gaussian
fix          rel all npt temp ${Tm} ${Tm} 0.2 z 0 0 2.0
fix          rel all npt temp 936 ${Tm} 0.2 z 0 0 2.0
fix          rel all npt temp 936 936 0.2 z 0 0 2.0
run          ${neq}
run          25000
Per MPI rank memory allocation (min/avg/max) = 8.306 | 8.312 | 8.323 Mbytes
   Step          Temp          E_pair         E_mol          TotEng         Press          Volume    
     30000   939.83704     -117083.61      0             -112920.25      11150.735      601459.75    
     31000   932.3506      -116769.09      0             -112638.89      405.45743      611849.82    
     32000   935.56312     -116763.05      0             -112618.62      141.8889       612216       
     33000   942.84256     -116773.93      0             -112597.26     -112.66969      612463.49    
     34000   935.65297     -116780.67      0             -112635.84     -80.634615      612486.44    
     35000   929.45157     -116805.25      0             -112687.9       575.25579      611797.71    
     36000   939.77968     -116749.98      0             -112586.87      229.55638      612555.65    
     37000   936.87996     -116795.65      0             -112645.39     -373.15109      612573.84    
     38000   928.46642     -116804.43      0             -112691.44     -372.99435      612362.99    
     39000   937.32497     -116809         0             -112656.77      239.57444      611973.02    
     40000   938.18153     -116720.81      0             -112564.78      35.408173      613106.93    
     41000   937.15626     -116747.79      0             -112596.3      -158.70089      612905       
     42000   936.38134     -116730.01      0             -112581.96      529.93344      612540.2     
     43000   927.8171      -116713.8       0             -112603.69      433.12068      612827.24    
     44000   931.04191     -116758.38      0             -112633.98      13.458281      612788.92    
     45000   940.67022     -116748.32      0             -112581.27      82.886247      612786.33    
     46000   935.93163     -116734.79      0             -112588.73      245.0692       612759.99    
     47000   935.58939     -116784.59      0             -112640.04      736.01465      611920.05    
     48000   934.2123      -116745.99      0             -112607.55      244.43084      612568.14    
     49000   929.07534     -116808.31      0             -112692.62     -224.99355      612391.01    
     50000   937.19067     -116752.69      0             -112601.06      327.049        612564.79    
     51000   941.41989     -116775.79      0             -112605.42      56.663551      612560.77    
     52000   942.05607     -116779.9       0             -112606.71      596.03985      612196.28    
     53000   940.47252     -116743.33      0             -112577.15      321.08062      612796.69    
     54000   935.47765     -116772.77      0             -112628.72     -32.287367      612684.92    
     55000   935.233       -116728.36      0             -112585.4       296.60409      612975.64    
Loop time of 821.828 on 6 procs for 25000 steps with 34272 atoms

Performance: 5.257 ns/day, 4.566 hours/ns, 30.420 timesteps/s, 1.043 Matom-step/s
92.1% CPU use with 6 MPI tasks x 1 OpenMP threads

MPI task timing breakdown:
Section |  min time  |  avg time  |  max time  |%varavg| %total
---------------------------------------------------------------
Pair    | 632.39     | 644.4      | 662.49     |  37.1 | 78.41
Neigh   | 26.927     | 27.396     | 28.082     |   6.9 |  3.33
Comm    | 109.36     | 128.62     | 141.5      |  88.6 | 15.65
Output  | 0.010573   | 0.019883   | 0.065831   |  14.6 |  0.00
Modify  | 16.729     | 17.129     | 17.473     |   7.7 |  2.08
Other   |            | 4.26       |            |       |  0.52

Nlocal:           5712 ave        5833 max        5583 min
Histogram: 2 1 0 0 0 0 0 0 0 3
Nghost:        11443.5 ave       11584 max       11310 min
Histogram: 3 0 0 0 0 0 0 0 0 3
Neighs:         468975 ave      485324 max      451625 min
Histogram: 2 1 0 0 0 0 0 0 0 3

Total # of neighbors = 2813849
Ave neighs/atom = 82.103437
Neighbor list builds = 1190
Dangerous builds = 0
unfix        rel
# production: NPH along z (interface position drifts slowly if T != T_m)
compute      cna all cna/atom $(0.854*v_a0)
compute      cna all cna/atom 3.4296639999999998238
variable     issol atom c_cna==1
compute      ns all reduce sum v_issol
variable     fsol equal c_ns/atoms
fix          prod all nph z 0 0 2.0
thermo_style custom step temp press pzz pe lz v_fsol
dump         d all custom ${ndump} cfm_${pot}_${orient}.dump id x y z c_cna
dump         d all custom 2000 cfm_${pot}_${orient}.dump id x y z c_cna
dump         d all custom 2000 cfm_borovikov_${orient}.dump id x y z c_cna
dump         d all custom 2000 cfm_borovikov_111.dump id x y z c_cna
dump_modify  d sort id
run          ${nprod}
run          200000
Neighbor list info ...
  update: every = 1 steps, delay = 0 steps, check = yes
  max neighbors/atom: 2000, page size: 100000
  master list distance cutoff = 8.9
  ghost atom cutoff = 8.9
  binsize = 4.45, bins = 56 5 28
  2 neighbor lists, perpetual/occasional/extra = 1 1 0
  (1) pair eam/fs, perpetual
      attributes: half, newton on
      pair build: half/bin/atomonly/newton
      stencil: half/bin/3d
      bin: standard
  (2) compute cna/atom, occasional
      attributes: full, newton on
      pair build: full/bin/atomonly
      stencil: full/bin/3d
      bin: standard
Per MPI rank memory allocation (min/avg/max) = 9.069 | 9.077 | 9.089 Mbytes
   Step          Temp          Press           Pzz           PotEng           Lz           v_fsol    
     55000   935.233        296.60409      170.70827     -116728.36      123.9156       0.17935924   
     56000   943.03408      318.02141      146.25691     -116762.91      123.8079       0.18458217   
     57000   936.6092       416.2432       542.00863     -116734.41      123.85836      0.17381536   
     58000   932.15861      49.870339      159.57942     -116714.67      123.94138      0.17962185   
     59000   934.16738     -745.27531     -1181.5942     -116723.45      124.05016      0.17973856   
     60000   933.22184     -319.47768     -581.10877     -116719.72      124.0257       0.18545752   
     61000   935.73082      780.07893      368.55069     -116731.12      123.83865      0.18706232   
     62000   939.03744      296.24544      419.63077     -116745.75      123.85732      0.18067227   
     63000   936.5646       160.01455      317.75613     -116734.91      123.89549      0.18528245   
     64000   936.62939      139.74549      417.33664     -116735.12      123.90127      0.19246032   
     65000   935.75937     -243.02896      70.206475     -116731.33      123.97148      0.19018441   
     66000   936.98727      715.04157      477.17995     -116736.88      123.8506       0.18361928   
     67000   940.46149      156.54192     -46.831682     -116752.21      123.85116      0.18907563   
     68000   937.57437      279.57096      344.82832     -116739.44      123.87741      0.18855042   
     69000   940.85473      663.85538      459.96203     -116753.99      123.81955      0.18408613   
     70000   938.03233      640.06707      388.51914     -116741.48      123.8303       0.19213936   
     71000   936.85577      288.16465      446.32793     -116736.33      123.93084      0.18318161   
     72000   928.00663     -243.40316     -321.82516     -116697.26      124.06702      0.17883403   
     73000   929.14093     -115.17896     -127.57164     -116702.24      124.04016      0.17857143   
     74000   934.13538      1018.229       1429.279      -116724.39      123.86132      0.1787465    
     75000   932.45474      663.44698      772.81889     -116716.88      123.89445      0.1825105    
     76000   926.01886      78.920242      387.84801     -116688.35      124.02284      0.17638305   
     77000   936.31266     -95.220665     -196.64237     -116734.14      123.99544      0.18134337   
     78000   935.29604      486.74702      503.88792     -116729.63      123.91264      0.17959267   
     79000   934.29576      124.21698     -255.94629     -116725.33      123.93734      0.18213119   
     80000   931.70406     -555.9299      -694.19641     -116713.74      124.04735      0.18146008   
     81000   929.16657     -612.57484     -1388.8744     -116702.56      124.09943      0.17422386   
     82000   932.53576      634.42967      614.06852     -116717.63      123.8928       0.18402778   
     83000   932.87336      776.11614      673.19905     -116719.2       123.87787      0.1798261    
     84000   934.59929      199.61651     -45.937908     -116727.02      123.91056      0.18837535   
     85000   934.50968      288.59089     -141.06619     -116726.71      123.89995      0.18058473   
     86000   927.71528     -153.71849     -121.80805     -116696.57      124.04062      0.18379435   
     87000   927.49721      337.48852     -89.757295     -116695.56      123.98271      0.17393207   
     88000   931.92528      443.73035      519.51034     -116715.24      123.92819      0.17830882   
     89000   931.2855       714.54126      363.06222     -116712.33      123.87361      0.18288982   
     90000   934.213       -34.275344      148.89177     -116725.33      123.91992      0.18029295   
     91000   933.94906     -157.17417     -144.42314     -116724.44      123.94567      0.18420285   
     92000   925.88555      206.8791       148.08064     -116688.75      123.95979      0.17865896   
     93000   929.76361      200.43523      547.25417     -116705.91      123.93674      0.17860061   
     94000   934.53329      414.3687       48.43324      -116727.06      123.88595      0.18131419   
     95000   938.27981      1007.2643      1186.4308     -116743.7       123.83698      0.1800887    
     96000   933.67872      285.67437     -95.404417     -116723.36      123.94237      0.1818394    
     97000   933.22214     -12.714832      210.28467     -116721.32      123.94858      0.19138072   
     98000   932.48533      774.16005      1024.5073     -116718.03      123.85916      0.17933007   
     99000   934.6974      -157.29069      132.18903     -116727.87      123.98377      0.18172269   
    100000   939.15207      528.64261      470.91549     -116747.6       123.86473      0.18580766   
    101000   937.84663      115.19244     -2.8293091     -116741.75      123.93385      0.18035131   
    102000   929.03677     -114.18569     -183.82908     -116702.64      124.03093      0.17434057   
    103000   938.2505       71.716064      95.01563      -116743.51      123.92095      0.19105976   
    104000   930.40479      289.53945      623.03405     -116708.65      123.937        0.18361928   
    105000   932.82761      360.53561      430.915       -116719.14      123.89261      0.18960084   
    106000   934.38622      320.14198      595.53844     -116726.05      123.90563      0.18417367   
    107000   929.31175     -544.68328     -551.73851     -116703.54      124.0646       0.18396942   
    108000   935.47719     -213.42489     -331.8182      -116730.79      123.98345      0.18878385   
    109000   928.87609      865.91202      900.78774     -116701.38      123.89445      0.18248133   
    110000   932.50508     -266.38836     -49.859608     -116717.61      124.03872      0.18093487   
    111000   927.25222     -408.06522     -825.4389      -116694.23      124.05915      0.1842612    
    112000   929.43601     -80.17492      -365.40634     -116704.04      124.03958      0.18221872   
    113000   923.00056      590.6455       702.02151     -116675.48      123.96392      0.17644141   
    114000   927.15839     -378.76912     -261.92891     -116694.01      124.09745      0.18350257   
    115000   922.49718     -154.44208     -607.07779     -116673.36      124.11783      0.17851307   
    116000   929.87039     -50.222279     -268.05554     -116706.16      124.02289      0.18977591   
    117000   929.75213      777.78437      370.65853     -116705.56      123.90839      0.18402778   
    118000   927.26266     -10.131508      69.281346     -116694.56      124.05777      0.18388189   
    119000   931.17473     -581.34793     -972.0243      -116711.6       124.0876       0.18504902   
    120000   930.01117     -308.99648     -354.76706     -116706.48      124.05824      0.18338585   
    121000   929.64025      166.29483      73.375139     -116704.85      123.98817      0.18414449   
    122000   930.00483     -119.26668     -81.943382     -116706.5       124.02979      0.18738329   
    123000   931.79937      111.19475      322.12006     -116714.43      123.99832      0.18691643   
    124000   934.12606      368.37687      177.89018     -116724.83      123.92977      0.18612862   
    125000   931.4741      -31.318569     -81.942883     -116713.03      123.97439      0.18396942   
    126000   930.73449     -144.88231     -243.65134     -116709.91      124.03536      0.18464052   
    127000   925.52385     -283.64926     -752.37544     -116686.63      124.08034      0.18277311   
    128000   930.21833      271.5274       525.0659      -116707.4       123.9555       0.18271475   
    129000   931.77068      860.35068      1094.8922     -116714.33      123.83776      0.18776261   
    130000   930.70849     -207.01688     -644.62514     -116709.76      124.02681      0.18779178   
    131000   929.55925     -312.27345     -352.75088     -116704.65      124.06233      0.18458217   
    132000   933.61087     -53.80719      -126.52645     -116722.58      124.00543      0.19035948   
    133000   930.1183      -54.812542     -230.68648     -116707.08      123.98902      0.18825864   
    134000   923.7141      -46.05349       253.14292     -116678.66      124.10543      0.18286064   
    135000   931.66922     -25.758655     -82.054801     -116714.14      124.01491      0.19170168   
    136000   931.95478      749.16839      1167.021      -116715.27      123.88954      0.18388189   
    137000   930.87936      513.41964      341.37382     -116710.69      123.89709      0.1825105    
    138000   928.62204      628.79214      458.25484     -116700.76      123.90296      0.18093487   
    139000   927.88409     -732.73809     -631.27326     -116697.41      124.1003       0.18364846   
    140000   932.5118      -9.5998909      89.813881     -116718         124.00752      0.18513655   
    141000   928.73811      522.67331      590.83114     -116701.35      123.97495      0.19502801   
    142000   931.3746      -373.02728     -520.00921     -116713.04      124.05218      0.18735411   
    143000   927.22103     -656.03971     -901.20342     -116694.65      124.14095      0.17933007   
    144000   928.74521     -676.44765     -873.52553     -116701.39      124.11554      0.19000934   
    145000   927.22873      19.908896     -147.58344     -116694.72      124.01079      0.17822129   
    146000   929.00829     -149.22024     -101.38751     -116702.65      124.06199      0.18326914   
    147000   926.6528       276.95148      382.73993     -116692.14      123.97491      0.1794176    
    148000   930.00797      14.648708      12.129638     -116707.18      124.01878      0.18633287   
    149000   926.19601     -521.04025     -727.06053     -116690.19      124.13847      0.1807598    
    150000   931.73434     -186.38456     -213.67547     -116714.66      124.01021      0.19012605   
    151000   928.73105     -860.04448     -1043.7811     -116701.22      124.12672      0.18344421   
    152000   929.85333      482.42417      353.1914      -116706.2       123.94102      0.17892157   
    153000   937.82804      172.69146      16.368832     -116741.56      123.8822       0.18510738   
    154000   925.03922     -519.95618     -1144.5264     -116684.55      124.10271      0.17606209   
    155000   929.47704     -112.7886      -243.10105     -116704.45      124.05111      0.17693744   
    156000   934.85621     -68.103465     -128.56359     -116728.37      123.99261      0.18939659   
    157000   931.72482      310.28058      687.17227     -116714.48      123.9511       0.19018441   
    158000   931.31694      130.99342     -46.335179     -116712.64      123.97884      0.18020542   
    159000   933.47582     -305.16278     -540.99288     -116722.3       124.01653      0.17938842   
    160000   931.76688     -185.9847      -108.42482     -116714.69      124.01468      0.17997199   
    161000   935.08038     -321.80867     -568.77347     -116729.35      124.00411      0.18755836   
    162000   930.32433     -659.7628      -824.01643     -116708.24      124.12128      0.17755019   
    163000   930.42539     -61.469074      297.51456     -116708.6       124.0559       0.18542834   
    164000   927.82502      394.51917      798.47614     -116696.99      123.98074      0.17909664   
    165000   930.24358      281.95756      607.79059     -116707.75      123.95598      0.1927521    
    166000   929.26336     -72.778138      174.2906      -116703.5       124.05376      0.18163515   
    167000   935.34863      108.94469      78.498192     -116730.48      123.95983      0.18303571   
    168000   934.92572      288.52565      571.69715     -116728.62      123.9289       0.18855042   
    169000   926.09186      593.22278      615.47756     -116689.55      123.98603      0.1734944    
    170000   933.27344     -136.03898     -407.71285     -116721.36      124.00754      0.18618697   
    171000   927.74767     -535.82534     -948.58462     -116696.88      124.12151      0.18895892   
    172000   931.25786     -36.996863     -343.25282     -116712.45      123.99586      0.18735411   
    173000   924.99026      507.45168      287.83522     -116684.4       123.99486      0.17474907   
    174000   926.18467     -600.75627     -917.70395     -116689.72      124.11233      0.18551587   
    175000   930.57001     -293.72541     -119.46679     -116709.17      124.01477      0.18528245   
    176000   931.33849      344.90655      334.51034     -116712.58      123.94581      0.18321078   
    177000   930.91396     -356.48156     -242.49952     -116710.73      124.06879      0.18146008   
    178000   927.51406      21.221146     -115.88908     -116695.64      124.01824      0.17515756   
    179000   928.78604     -436.5708      -438.47704     -116701.35      124.08555      0.19053455   
    180000   931.03762      103.91546     -132.6201      -116711.35      123.95673      0.1800887    
    181000   927.61404     -115.13992     -264.21087     -116696.14      124.03664      0.17749183   
    182000   929.16449      68.042812     -186.21473     -116703.06      124.00078      0.18186858   
    183000   931.20147      122.9769       149.2265      -116712.08      123.9898       0.18189776   
    184000   928.74101      617.17675      911.35192     -116700.93      123.92576      0.1844071    
    185000   934.56146      228.97256      274.82223     -116726.76      123.97655      0.17664566   
    186000   931.80483      238.68599      403.36081     -116714.61      123.99236      0.18253968   
    187000   930.02756      86.009127     -250.60373     -116706.75      124.00201      0.1807598    
    188000   928.92483     -337.65352     -585.12318     -116701.89      124.04431      0.17717087   
    189000   930.89186      80.076116     -110.13238     -116710.57      123.99113      0.18000117   
    190000   934.98412     -7.963582      -12.768221     -116728.62      123.94612      0.18005952   
    191000   929.18844     -182.29111     -27.365351     -116702.94      124.06226      0.17378618   
    192000   927.5885       536.83847      295.3543      -116695.98      123.96124      0.17238562   
    193000   930.15849      198.25363      134.10293     -116707.18      123.96196      0.18367764   
    194000   932.7379       727.1699       316.20961     -116718.76      123.89246      0.17378618   
    195000   937.47991      81.43804       36.086587     -116739.85      123.91273      0.18860878   
    196000   933.07555      234.36724      64.44371      -116720.4       123.94943      0.18455299   
    197000   932.61534     -283.05135     -639.83596     -116718.37      124.023        0.17162698   
    198000   931.50261     -251.47538     -483.99352     -116713.45      124.01173      0.18011788   
    199000   926.05724      199.04685     -46.874175     -116689.38      124.01784      0.17720005   
    200000   936.46088      142.88182     -398.92946     -116735.6       123.92678      0.18417367   
    201000   931.64807      919.98039      1250.6869     -116714.25      123.88421      0.18134337   
    202000   933.97133      157.18082      23.65614      -116724.66      123.89913      0.18875467   
    203000   934.07929      491.18716      443.84193     -116725.1       123.89277      0.18323996   
    204000   936.08737      674.32828      273.10729     -116733.97      123.84286      0.18735411   
    205000   929.98823      161.03174      245.71281     -116707.09      123.96046      0.18005952   
    206000   932.60615      29.639717     -52.973984     -116718.68      123.95398      0.18612862   
    207000   935.24027      465.08823      228.44843     -116730.35      123.91278      0.1826564    
    208000   935.03954      189.05731      372.27327     -116729.51      123.92693      0.18960084   
    209000   933.02729      1387.2792      1757.5514     -116720.3       123.79048      0.18073063   
    210000   934.22064      170.5596       365.59172     -116725.75      123.93641      0.18218954   
    211000   928.92307     -29.327476      214.30192     -116702.29      124.02455      0.18385271   
    212000   930.89206      101.82146      242.34311     -116711.02      123.97212      0.18639122   
    213000   932.19708     -182.2819      -359.47852     -116716.76      124.00749      0.18169351   
    214000   931.02144      336.54287      504.40824     -116711.53      123.93389      0.18297736   
    215000   933.65456      629.88008      419.18771     -116723.19      123.90593      0.18093487   
    216000   934.43821      239.48327      376.78241     -116726.69      123.90649      0.19053455   
    217000   929.90553      112.3117       49.073288     -116706.64      124.00085      0.17962185   
    218000   927.70307      248.78744     -104.3098      -116696.89      123.98542      0.17895075   
    219000   933.67261      73.928049     -33.369132     -116723.32      123.97116      0.17781279   
    220000   924.65483      427.394        669.04059     -116683.36      123.99995      0.18572012   
    221000   934.90814      239.73879      164.67976     -116728.76      123.95034      0.18396942   
    222000   929.44282     -142.33319     -98.015453     -116704.43      123.99417      0.18271475   
    223000   931.974       -355.4368      -950.05301     -116715.84      124.02924      0.18043884   
    224000   933.21951      769.78709      954.09162     -116721.31      123.86487      0.18679972   
    225000   940.51871     -241.20092     -568.6893      -116753.73      123.96598      0.19146825   
    226000   934.34178     -565.35835     -559.64285     -116726.34      124.03152      0.18706232   
    227000   930.74696      649.11963      550.03055     -116710.45      123.91698      0.17489496   
    228000   928.43593      765.16944      1035.2601     -116699.93      123.89078      0.18143091   
    229000   933.15245     -234.50088     -538.55566     -116720.87      124.01174      0.18233543   
    230000   933.85092     -604.11899     -965.91719     -116723.98      124.03835      0.18262722   
    231000   932.7101       443.68668      671.90383     -116718.83      123.91189      0.18828782   
    232000   936.55476     -337.56767     -182.27033     -116735.81      124.01348      0.18831699   
    233000   929.74175     -255.77219     -291.84922     -116705.55      124.05422      0.18639122   
    234000   929.48115     -303.84011     -362.01381     -116704.36      124.1008       0.18067227   
    235000   925.95628     -173.40244     -326.84001     -116688.63      124.08587      0.18195612   
    236000   933.35824     -613.59572     -827.21722     -116721.45      124.0971       0.18545752   
    237000   933.95547     -969.09377     -846.31155     -116724.17      124.15414      0.19000934   
    238000   929.11229      73.578218      58.546969     -116702.64      124.01028      0.19009687   
    239000   930.77219      494.43418      558.10138     -116710.14      123.93303      0.18793768   
    240000   924.62998      400.5285       325.0544      -116682.96      124.02337      0.18143091   
    241000   936.28448      13.807201     -266.50831     -116734.65      123.98         0.18569094   
    242000   931.75864      86.153906      138.41545     -116714.6       123.97233      0.18423203   
    243000   931.68786     -973.00251     -544.95827     -116714.16      124.1012       0.18647876   
    244000   930.37772      540.89381      302.93983     -116708.4       123.92992      0.18294818   
    245000   932.88614      31.82988       93.823388     -116719.36      123.9769       0.19094304   
    246000   929.24447      208.41741      238.39378     -116703.17      124.02538      0.18452381   
    247000   928.68509     -70.940204     -100.58437     -116700.77      124.02738      0.18475724   
    248000   927.90747     -93.640434      190.05866     -116697.24      124.02492      0.1804972    
    249000   929.73788      314.81715      15.666455     -116705.28      123.9717       0.17609127   
    250000   925.71862      675.34117      303.85839     -116687.35      123.93928      0.18475724   
    251000   928.46532     -420.35906     -676.82691     -116699.53      124.07344      0.18186858   
    252000   928.89048     -93.087682     -358.77062     -116701.4       124.04418      0.17565359   
    253000   928.62087      194.9511       153.36744     -116700.25      124.0158       0.17434057   
    254000   931.76309     -35.216373      41.610986     -116714.19      124.03556      0.17641223   
    255000   925.16097     -128.68752     -135.5776      -116684.89      124.04978      0.18335668   
Loop time of 5748.26 on 6 procs for 200000 steps with 34272 atoms

Performance: 6.012 ns/day, 3.992 hours/ns, 34.793 timesteps/s, 1.192 Matom-step/s
92.1% CPU use with 6 MPI tasks x 1 OpenMP threads

MPI task timing breakdown:
Section |  min time  |  avg time  |  max time  |%varavg| %total
---------------------------------------------------------------
Pair    | 4379.2     | 4458.6     | 4564.9     | 104.6 | 77.56
Neigh   | 189.27     | 192.66     | 195.85     |  15.4 |  3.35
Comm    | 852.57     | 962.28     | 1045.5     | 232.3 | 16.74
Output  | 18.099     | 19.452     | 20.873     |  21.4 |  0.34
Modify  | 88.36      | 89.472     | 90.295     |   7.2 |  1.56
Other   |            | 25.77      |            |       |  0.45

Nlocal:           5712 ave        5828 max        5589 min
Histogram: 3 0 0 0 0 0 0 0 0 3
Nghost:        11239.8 ave       11409 max       11057 min
Histogram: 2 0 1 0 0 0 0 0 1 2
Neighs:         468392 ave      485709 max      448301 min
Histogram: 1 2 0 0 0 0 0 0 0 3
FullNghs:       936841 ave      976322 max      892829 min
Histogram: 2 1 0 0 0 0 0 0 0 3

Total # of neighbors = 5621048
Ave neighs/atom = 164.01284
Neighbor list builds = 9482
Dangerous builds = 0
Total wall time: 2:23:29
