LAMMPS (10 Sep 2025)
  using 1 OpenMP thread(s) per MPI task
# Capillary fluctuation method (Hoyt, Asta, Karma 2001): quasi-2D solid-liquid ribbon at T_m.
# Interface normal z, fluctuation direction x, thin y.  orient: 100 | 110 | 111 (interface plane)
#   mpirun -np 4 lmp -in in.cfm -var pot borovikov -var Tm 930 -var orient 100
variable pot    index borovikov
variable Tm     index 930
variable orient index 100
variable seed   index 3301
variable neq    index 25000
variable nprod  index 200000
variable nstage index 10000
variable ndump  index 2000
variable a0 equal 4.05
if "${pot} == borovikov" then "variable a0 equal 4.016"
variable a0 equal 4.016
if "${pot} == mendelev" then "variable a0 equal 4.045"
units        metal
atom_style   atomic
boundary     p p p
# (x, y, z) = (fluctuation, thin, interface normal)
if "${orient} == 100" then "lattice fcc ${a0} orient x 1 0 0 orient y 0 1 0 orient z 0 0 1" "region box block 0 60 0 3 0 30"
if "${orient} == 110" then "lattice fcc ${a0} orient x 0 0 1 orient y 1 -1 0 orient z 1 1 0" "region box block 0 60 0 2 0 21"
lattice fcc ${a0} orient x 0 0 1 orient y 1 -1 0 orient z 1 1 0
lattice fcc 4.016 orient x 0 0 1 orient y 1 -1 0 orient z 1 1 0
Lattice spacing in x,y,z = 4.016 5.6794817 5.6794817
region box block 0 60 0 2 0 21
if "${orient} == 111" then "lattice fcc ${a0} orient x 1 -1 0 orient y 1 1 -2 orient z 1 1 1" "region box block 0 42 0 1 0 17"
create_box   1 box
Created orthogonal box = (0 0 0) to (240.96 11.358963 119.26911)
  4 by 1 by 1 MPI processor grid
create_atoms 1 box
Created 20160 atoms
  using lattice units in orthogonal box = (0 0 0) to (240.96 11.358963 119.26911)
  create_atoms CPU = 0.008 seconds
mass         1 26.982
include      pot_${pot}.lmp
include      pot_borovikov.lmp
# Borovikov, Mendelev, Zarkevich, Smith, Lawson, Int. J. Plast. 178 (2024) 104004 — EAM/FS Ni-Al-Nb (NIST IPR)
pair_style eam/fs
pair_coeff * * ../../potentials/NiAlNb_Borovikov2024/Ni-Al-Nb.eam.fs Al
timestep     0.002
thermo       1000
# solid at Tm, lateral lattice fixed afterwards
velocity     all create ${Tm} ${seed} mom yes rot yes dist gaussian
velocity     all create 936 ${seed} mom yes rot yes dist gaussian
velocity     all create 936 3301 mom yes rot yes dist gaussian
fix          eq all npt temp ${Tm} ${Tm} 0.2 aniso 0 0 2.0
fix          eq all npt temp 936 ${Tm} 0.2 aniso 0 0 2.0
fix          eq all npt temp 936 936 0.2 aniso 0 0 2.0
run          ${nstage}
run          10000
Neighbor list info ...
  update: every = 1 steps, delay = 0 steps, check = yes
  max neighbors/atom: 2000, page size: 100000
  master list distance cutoff = 8.9
  ghost atom cutoff = 8.9
  binsize = 4.45, bins = 55 3 27
  1 neighbor lists, perpetual/occasional/extra = 1 0 0
  (1) pair eam/fs, perpetual
      attributes: half, newton on
      pair build: half/bin/atomonly/newton
      stencil: half/bin/3d
      bin: standard
Per MPI rank memory allocation (min/avg/max) = 8.324 | 8.324 | 8.324 Mbytes
   Step          Temp          E_pair         E_mol          TotEng         Press          Volume    
         0   936           -71857.209      0             -69418.222      7973.4611      326446.22    
      1000   907.39372     -69325.73       0             -66961.284      627.55967      352538.2     
      2000   950.21372     -69148.655      0             -66672.631     -398.69842      354833.59    
      3000   933.94374     -69223.928      0             -66790.299     -73.504296      353889.72    
      4000   939.69405     -69198.287      0             -66749.674      26.977117      354143.5     
      5000   940.47693     -69189.391      0             -66738.739      221.94695      354153.45    
      6000   929.28661     -69189.528      0             -66768.035      946.81659      353787.95    
      7000   937.27252     -69181.677      0             -66739.374      147.57377      354249.58    
      8000   942.36294     -69180.924      0             -66725.357     -562.83188      354467.58    
      9000   924.87787     -69201.131      0             -66791.125      704.57361      353770.72    
     10000   947.89667     -69214.411      0             -66744.424      223.69851      353895.29    
Loop time of 596.857 on 4 procs for 10000 steps with 20160 atoms

Performance: 2.895 ns/day, 8.290 hours/ns, 16.754 timesteps/s, 337.770 katom-step/s
90.6% CPU use with 4 MPI tasks x 1 OpenMP threads

MPI task timing breakdown:
Section |  min time  |  avg time  |  max time  |%varavg| %total
---------------------------------------------------------------
Pair    | 475.36     | 483.26     | 503.92     |  54.3 | 80.97
Neigh   | 19.845     | 20.122     | 20.821     |   9.0 |  3.37
Comm    | 57.598     | 78.951     | 87.282     | 139.0 | 13.23
Output  | 0.0015325  | 0.0031287  | 0.0077836  |   4.8 |  0.00
Modify  | 11.472     | 11.721     | 11.959     |   5.4 |  1.96
Other   |            | 2.803      |            |       |  0.47

Nlocal:           5040 ave        5064 max        5021 min
Histogram: 1 0 0 2 0 0 0 0 0 1
Nghost:        14173.8 ave       14207 max       14126 min
Histogram: 1 0 0 1 0 0 0 0 0 2
Neighs:         422286 ave      424947 max      419684 min
Histogram: 1 0 0 0 1 1 0 0 0 1

Total # of neighbors = 1689142
Ave neighs/atom = 83.786806
Neighbor list builds = 460
Dangerous builds = 0
unfix        eq
variable     zmid equal (zlo+zhi)/2
region       up block INF INF INF INF ${zmid} INF units box
region       up block INF INF INF INF 59.6345574981491 INF units box
group        liq region up
10089 atoms in group liq
group        sol subtract all liq
10071 atoms in group sol
velocity     sol set 0 0 0
fix          fr sol setforce 0 0 0
fix          m liq nvt temp 1500 1500 0.2
run          ${nstage}
run          10000
Per MPI rank memory allocation (min/avg/max) = 8.334 | 8.335 | 8.335 Mbytes
   Step          Temp          E_pair         E_mol          TotEng         Press     
     10000   471.22329     -69214.411      0             -67986.518     -3525.1582    
     11000   759.68715     -68421.239      0             -66441.68       15999.458    
     12000   752.02913     -68455.434      0             -66495.83       15254.581    
     13000   751.33246     -68375.836      0             -66418.048      17175.038    
     14000   752.81442     -68327.626      0             -66365.976      18366.892    
     15000   743.95986     -68215.919      0             -66277.341      21157.163    
     16000   754.48194     -68096.108      0             -66130.113      23967.132    
     17000   755.56289     -67908.601      0             -65939.789      28096.997    
     18000   749.15946     -67820.629      0             -65868.503      29545.638    
     19000   751.88606     -67811.505      0             -65852.274      29883.801    
     20000   756.1065      -67797.795      0             -65827.567      30458.161    
Loop time of 578.393 on 4 procs for 10000 steps with 20160 atoms

Performance: 2.988 ns/day, 8.033 hours/ns, 17.289 timesteps/s, 348.552 katom-step/s
90.6% CPU use with 4 MPI tasks x 1 OpenMP threads

MPI task timing breakdown:
Section |  min time  |  avg time  |  max time  |%varavg| %total
---------------------------------------------------------------
Pair    | 454.55     | 466.41     | 489.99     |  66.2 | 80.64
Neigh   | 23.287     | 24.014     | 25.467     |  17.5 |  4.15
Comm    | 56.196     | 80.969     | 93.664     | 166.9 | 14.00
Output  | 0.0077816  | 0.0079374  | 0.0083184  |   0.2 |  0.00
Modify  | 3.947      | 4.1946     | 4.5149     |  10.0 |  0.73
Other   |            | 2.796      |            |       |  0.48

Nlocal:           5040 ave        5074 max        5009 min
Histogram: 1 0 0 1 0 1 0 0 0 1
Nghost:        13984.5 ave       14038 max       13952 min
Histogram: 1 0 2 0 0 0 0 0 0 1
Neighs:         420430 ave      424983 max      416191 min
Histogram: 1 0 0 1 0 1 0 0 0 1

Total # of neighbors = 1681719
Ave neighs/atom = 83.418601
Neighbor list builds = 569
Dangerous builds = 0
unfix        m
fix          c liq nvt temp ${Tm} ${Tm} 0.2
fix          c liq nvt temp 936 ${Tm} 0.2
fix          c liq nvt temp 936 936 0.2
run          ${nstage}
run          10000
Per MPI rank memory allocation (min/avg/max) = 8.334 | 8.335 | 8.335 Mbytes
   Step          Temp          E_pair         E_mol          TotEng         Press     
     20000   756.1065      -67797.795      0             -65827.567      30458.161    
     21000   468.25983     -68663.111      0             -67442.941      13164.004    
     22000   470.53051     -68713.692      0             -67487.604      11968.687    
     23000   470.52994     -68729.696      0             -67503.61       11218.15     
     24000   464.27151     -68756.036      0             -67546.259      10350.649    
     25000   473.11275     -68787.583      0             -67554.767      9778.5042    
     26000   470.79781     -68818.463      0             -67591.679      9028.6635    
     27000   466.42927     -68824.979      0             -67609.578      8516.9013    
     28000   463.21493     -68854.655      0             -67647.63       8020.5182    
     29000   464.323       -68863.616      0             -67653.704      7471.0754    
     30000   465.75563     -68902.465      0             -67688.82       6296.9006    
Loop time of 572.918 on 4 procs for 10000 steps with 20160 atoms

Performance: 3.016 ns/day, 7.957 hours/ns, 17.455 timesteps/s, 351.883 katom-step/s
90.7% CPU use with 4 MPI tasks x 1 OpenMP threads

MPI task timing breakdown:
Section |  min time  |  avg time  |  max time  |%varavg| %total
---------------------------------------------------------------
Pair    | 452.92     | 469.85     | 481.28     |  55.6 | 82.01
Neigh   | 18.073     | 18.755     | 19.393     |  14.2 |  3.27
Comm    | 64.804     | 76.802     | 93.951     | 141.5 | 13.41
Output  | 0.0069188  | 0.0092011  | 0.014632   |   3.3 |  0.00
Modify  | 4.288      | 4.5214     | 5.1647     |  17.5 |  0.79
Other   |            | 2.98       |            |       |  0.52

Nlocal:           5040 ave        5065 max        5011 min
Histogram: 1 0 0 0 1 0 0 1 0 1
Nghost:        14108.5 ave       14153 max       14053 min
Histogram: 1 0 0 1 0 0 0 0 0 2
Neighs:         421182 ave      423737 max      417216 min
Histogram: 1 0 0 0 0 1 0 0 1 1

Total # of neighbors = 1684728
Ave neighs/atom = 83.567857
Neighbor list builds = 440
Dangerous builds = 0
unfix        c
unfix        fr
velocity     sol create ${Tm} $(v_seed+1) mom yes rot yes dist gaussian
velocity     sol create 936 $(v_seed+1) mom yes rot yes dist gaussian
velocity     sol create 936 3302 mom yes rot yes dist gaussian
fix          rel all npt temp ${Tm} ${Tm} 0.2 z 0 0 2.0
fix          rel all npt temp 936 ${Tm} 0.2 z 0 0 2.0
fix          rel all npt temp 936 936 0.2 z 0 0 2.0
run          ${neq}
run          25000
Per MPI rank memory allocation (min/avg/max) = 8.334 | 8.335 | 8.335 Mbytes
   Step          Temp          E_pair         E_mol          TotEng         Press          Volume    
     30000   933.31454     -68902.465      0             -66470.476      9974.0754      353895.29    
     31000   935.83982     -68719.73       0             -66281.161      29.153505      359831.6     
     32000   930.29415     -68741.087      0             -66316.968      65.18903       359770.25    
     33000   938.82451     -68723.912      0             -66277.565     -589.68005      360258.12    
     34000   942.10681     -68722.072      0             -66267.172      467.57656      359854.85    
     35000   943.14299     -68732.689      0             -66275.089     -823.64046      360170.66    
     36000   941.97038     -68718.775      0             -66264.23       26.15522       360039.92    
     37000   937.27527     -68759.964      0             -66317.654      477.98815      359353.01    
     38000   933.16908     -68710.304      0             -66278.694     -508.77603      360291.81    
     39000   938.7646      -68727.622      0             -66281.431     -639.00268      360335.32    
     40000   944.39495     -68733.221      0             -66272.359      198.59058      359817.21    
     41000   932.33683     -68751.765      0             -66322.323      453.18896      359444.57    
     42000   939.44088     -68718.662      0             -66270.709     -117.65141      360017.66    
     43000   940.09352     -68731.684      0             -66282.03      -778.27989      360057.23    
     44000   933.69052     -68700.921      0             -66267.952      103.16832      360271.59    
     45000   937.70951     -68707.051      0             -66263.609     -435.59701      360308.96    
     46000   934.12299     -68669.691      0             -66235.595     -366.88094      360686.86    
     47000   937.6161      -68679.496      0             -66236.298     -416.59175      360683.16    
     48000   933.9759      -68652.547      0             -66218.835      884.45692      360508.09    
     49000   939.17681     -68687.271      0             -66240.006      460.65527      360251.23    
     50000   947.42532     -68692.276      0             -66223.518     -196.29641      360468.95    
     51000   943.63962     -68710.303      0             -66251.409     -621.28105      360314.17    
     52000   932.63649     -68655.054      0             -66224.831     -41.275269      360741.67    
     53000   934.33534     -68695.96       0             -66261.31      -1051.5328      360778.75    
     54000   937.27056     -68693.742      0             -66251.445     -884.23198      360686.91    
     55000   945.71094     -68680.349      0             -66216.058     -390.66167      360703.25    
Loop time of 1513.67 on 4 procs for 25000 steps with 20160 atoms

Performance: 2.854 ns/day, 8.409 hours/ns, 16.516 timesteps/s, 332.965 katom-step/s
90.6% CPU use with 4 MPI tasks x 1 OpenMP threads

MPI task timing breakdown:
Section |  min time  |  avg time  |  max time  |%varavg| %total
---------------------------------------------------------------
Pair    | 1174.1     | 1224.6     | 1247       |  84.7 | 80.90
Neigh   | 47.92      | 49.691     | 50.656     |  15.4 |  3.28
Comm    | 174.29     | 198.09     | 249.54     | 215.0 | 13.09
Output  | 0.010837   | 0.01582    | 0.030665   |   6.8 |  0.00
Modify  | 32.62      | 33.55      | 34.332     |  10.8 |  2.22
Other   |            | 7.745      |            |       |  0.51

Nlocal:           5040 ave        5053 max        5029 min
Histogram: 1 1 0 0 0 0 1 0 0 1
Nghost:          13482 ave       13531 max       13438 min
Histogram: 1 0 1 0 0 0 1 0 0 1
Neighs:         413598 ave      416306 max      411914 min
Histogram: 1 1 0 0 1 0 0 0 0 1

Total # of neighbors = 1654394
Ave neighs/atom = 82.063194
Neighbor list builds = 1157
Dangerous builds = 0
unfix        rel
# production: NPH along z (interface position drifts slowly if T != T_m)
compute      cna all cna/atom $(0.854*v_a0)
compute      cna all cna/atom 3.4296639999999998238
variable     issol atom c_cna==1
compute      ns all reduce sum v_issol
variable     fsol equal c_ns/atoms
fix          prod all nph z 0 0 2.0
thermo_style custom step temp press pzz pe lz v_fsol
dump         d all custom ${ndump} cfm_${pot}_${orient}.dump id x y z c_cna
dump         d all custom 2000 cfm_${pot}_${orient}.dump id x y z c_cna
dump         d all custom 2000 cfm_borovikov_${orient}.dump id x y z c_cna
dump         d all custom 2000 cfm_borovikov_110.dump id x y z c_cna
dump_modify  d sort id
run          ${nprod}
run          200000
Neighbor list info ...
  update: every = 1 steps, delay = 0 steps, check = yes
  max neighbors/atom: 2000, page size: 100000
  master list distance cutoff = 8.9
  ghost atom cutoff = 8.9
  binsize = 4.45, bins = 56 3 29
  2 neighbor lists, perpetual/occasional/extra = 1 1 0
  (1) pair eam/fs, perpetual
      attributes: half, newton on
      pair build: half/bin/atomonly/newton
      stencil: half/bin/3d
      bin: standard
  (2) compute cna/atom, occasional
      attributes: full, newton on
      pair build: full/bin/atomonly
      stencil: full/bin/3d
      bin: standard
Per MPI rank memory allocation (min/avg/max) = 9.471 | 9.472 | 9.473 Mbytes
   Step          Temp          Press           Pzz           PotEng           Lz           v_fsol    
     55000   945.71094     -390.66167     -346.27788     -68680.349      124.77673      0.18427579   
     56000   942.57521      328.70003      484.30775     -68672.263      124.67527      0.17485119   
     57000   935.51289      267.46658     -188.35381     -68653.757      124.78014      0.16269841   
     58000   937.03242      124.5598      -82.249644     -68657.699      124.78646      0.16909722   
     59000   938.03239      175.80367      120.60899     -68660.338      124.72298      0.16845238   
     60000   935.1229      -510.04855     -624.06864     -68652.721      124.87618      0.17673611   
     61000   942.56805     -928.90127     -612.20496     -68672.264      124.85313      0.17946429   
     62000   932.15063     -259.56639     -112.57945     -68645.146      124.82166      0.18055556   
     63000   927.44408      16.86899      -200.76827     -68632.863      124.85557      0.16765873   
     64000   941.69451     -212.34736     -203.75671     -68670.238      124.77494      0.18219246   
     65000   937.7316       234.63719      681.01905     -68659.846      124.74024      0.17410714   
     66000   936.1525      -664.60768     -1511.0376     -68655.937      124.86562      0.17584325   
     67000   931.8456      -73.90025      -82.712946     -68644.712      124.84736      0.17475198   
     68000   937.99983      51.713891     -207.67927     -68660.847      124.7768       0.17425595   
     69000   938.6556      -983.8532      -1198.6023     -68662.491      124.95213      0.17946429   
     70000   936.09956      85.934929      129.24469     -68655.798      124.83699      0.18268849   
     71000   935.772        1313.9136      1123.9233     -68654.783      124.61396      0.17926587   
     72000   933.83308      427.10497      186.1222      -68650.044      124.77005      0.1781746    
     73000   927.86746      66.225818      322.91886     -68634.439      124.84283      0.16894841   
     74000   933.53601     -374.62621     -324.28962     -68649.264      124.89121      0.17440476   
     75000   932.83966     -630.12894     -756.23948     -68647.401      124.93339      0.17261905   
     76000   937.32665      142.56353      215.10826     -68659.135      124.76218      0.17738095   
     77000   938.1635      -285.85939      264.74227     -68661.293      124.84679      0.18953373   
     78000   937.56444     -810.13089     -247.26084     -68659.753      124.93959      0.18100198   
     79000   934.78192     -646.03492     -410.29408     -68652.556      124.90516      0.17777778   
     80000   935.77889      67.813629      533.41758     -68655.311      124.85101      0.17951389   
     81000   936.59995      510.95645      1307.7096     -68657.339      124.77048      0.17425595   
     82000   933.20952     -343.12168      86.520916     -68648.592      124.93101      0.17787698   
     83000   927.2562       39.926782     -19.012802     -68633.033      124.91026      0.17673611   
     84000   932.64366     -307.51835     -357.28585     -68647.069      124.88319      0.17455357   
     85000   927.82175     -27.698339      171.32832     -68634.479      124.87722      0.17688492   
     86000   928.08248     -924.37154     -267.27168     -68635.114      125.0092       0.17847222   
     87000   927.55432     -752.08878     -859.66902     -68633.771      125.00808      0.16835317   
     88000   931.30402     -503.98973     -348.48098     -68643.529      124.98019      0.17261905   
     89000   928.08365     -356.90672     -253.91324     -68634.974      124.98104      0.17256944   
     90000   926.22384      137.27771      166.37029     -68630.149      124.95558      0.17941468   
     91000   935.01615     -943.00855     -701.96087     -68653.068      125.01181      0.1687004    
     92000   923.70365     -398.86938     -383.45152     -68623.644      125.00472      0.16974206   
     93000   936.64913      43.971871     -65.895489     -68657.291      124.81361      0.18606151   
     94000   928.40577     -199.33112     -143.4311      -68635.858      124.93208      0.17757937   
     95000   926.85179      167.1813       325.82369     -68631.798      124.91803      0.17514881   
     96000   931.4576      -288.40439     -38.356589     -68643.817      124.92497      0.16865079   
     97000   929.9585      -103.38842     -2.1465272     -68639.903      124.88233      0.17847222   
     98000   925.54486     -109.60931     -9.7737183     -68628.301      124.90766      0.1765873    
     99000   916.51395      736.66873      885.66995     -68604.703      124.89037      0.16626984   
    100000   923.37797      954.46165      1198.5906     -68622.515      124.83977      0.18125      
    101000   926.0878      -328.7967      -62.794956     -68629.536      125.02478      0.16646825   
    102000   928.93243     -96.882209     -273.72643     -68636.939      124.95705      0.17242063   
    103000   924.2809      -236.84044     -415.48317     -68624.772      124.98521      0.16602183   
    104000   929.48175      152.98919      679.83382     -68638.437      124.88301      0.17688492   
    105000   925.27775     -40.944524      249.04328     -68627.502      124.93831      0.1750496    
    106000   925.75343      157.03458      230.31502     -68628.757      124.92818      0.18020833   
    107000   930.59562      46.259218      559.82688     -68641.336      124.88869      0.18343254   
    108000   928.28692     -1267.4031     -1780.7628     -68635.263      125.07595      0.17569444   
    109000   932.35259     -71.395632     -362.44763     -68645.916      124.89361      0.1780754    
    110000   927.13365      229.02737      80.349958     -68632.234      124.92608      0.18055556   
    111000   921.72259     -1256.3631     -1446.0013     -68618.092      125.10819      0.17132937   
    112000   931.29732     -14.41298       170.22742     -68643.429      124.85633      0.18348214   
    113000   929.98777      82.26688       636.63489     -68640.023      124.85685      0.17941468   
    114000   933.40846     -57.010375      321.17115     -68648.974      124.88437      0.18705357   
    115000   937.03478     -364.40541      198.7679      -68658.415      124.82828      0.18110119   
    116000   928.56032     -213.5228       230.80623     -68636.274      124.92481      0.17212302   
    117000   936.42373      463.66861      780.50853     -68656.76       124.79489      0.17157738   
    118000   931.94658      330.78045      924.52856     -68645.179      124.78899      0.19399802   
    119000   933.01914     -103.16136     -623.11416     -68648.107      124.90402      0.16537698   
    120000   934.7502      -281.75392     -453.06682     -68652.624      124.90321      0.18154762   
    121000   937.19436     -421.35024     -223.47918     -68658.962      124.85192      0.18477183   
    122000   930.09907      43.149535     -2.625748      -68640.429      124.86582      0.17787698   
    123000   934.03328      676.6374       1032.917      -68650.811      124.76278      0.1889881    
    124000   937.21007     -129.56697      194.71133     -68659.059      124.84385      0.18010913   
    125000   925.23949     -390.39044     -218.70116     -68627.827      124.93897      0.16919643   
    126000   933.8541      -88.009577      222.07063     -68650.342      124.88368      0.18020833   
    127000   938.10288     -262.1642      -171.06347     -68661.507      124.83326      0.16830357   
    128000   932.43264     -623.56085     -356.53248     -68646.924      124.95121      0.18244048   
    129000   935.56274      385.95177      648.38095     -68655.048      124.72565      0.17683532   
    130000   924.15087      582.28677      441.03553     -68625.359      124.7863       0.16909722   
    131000   931.84374      286.34074      115.92803     -68645.367      124.82135      0.16979167   
    132000   926.30468     -1410.0042     -1546.4        -68630.903      125.11884      0.17083333   
    133000   930.36048      342.63556      973.64269     -68641.923      124.85713      0.17931548   
    134000   931.27689      741.71065      987.53776     -68644.28       124.75285      0.17564484   
    135000   937.67809     -376.74881     -467.92647     -68661.152      124.84914      0.18095238   
    136000   927.79782      255.1711       81.395691     -68635.309      124.89575      0.16170635   
    137000   929.13636      153.9398       459.08963     -68638.776      124.86815      0.17177579   
    138000   939.29349     -56.300326     -218.05761     -68665.278      124.80617      0.17157738   
    139000   926.21794     -217.46079      49.025673     -68631.054      124.90015      0.16418651   
    140000   935.41622      286.96898      968.55734     -68655.065      124.76915      0.18159722   
    141000   941.36741      99.443045      512.54488     -68670.526      124.74131      0.17832341   
    142000   937.24219     -570.17765     -348.86221     -68659.815      124.91157      0.17981151   
    143000   935.64958     -22.480788     -679.58861     -68655.677      124.85911      0.17331349   
    144000   932.35635      515.5698       386.22609     -68647.119      124.77331      0.17400794   
    145000   927.05426     -132.76005     -27.332838     -68633.271      124.94307      0.17564484   
    146000   933.56119     -138.82446     -310.65293     -68650.325      124.82828      0.17886905   
    147000   937.56949      196.16281      492.77186     -68660.769      124.79704      0.17881944   
    148000   925.12861      186.04147      231.32081     -68628.335      124.87621      0.16820437   
    149000   932.33514     -279.18784     -478.81831     -68647.248      124.90024      0.17207341   
    150000   937.00582     -94.091172     -388.4038      -68659.432      124.83042      0.18050595   
    151000   930.43138     -410.14497     -26.06406      -68642.313      124.93221      0.17361111   
    152000   929.80579     -256.69091     -603.30439     -68640.819      124.96591      0.17271825   
    153000   936.41313      222.32686      118.61324     -68657.963      124.84663      0.18080357   
    154000   928.16925      321.3358       336.97021     -68636.516      124.87953      0.17901786   
    155000   925.91738     -263.88262     -87.965124     -68630.585      124.99902      0.16929563   
    156000   923.14691      446.29098      782.14514     -68623.319      124.87736      0.18392857   
    157000   933.84621      963.45645      1178.4839     -68651.109      124.70694      0.1874504    
    158000   933.73513      428.87261      649.03113     -68650.635      124.81517      0.1796627    
    159000   931.00699     -164.40738     -285.13768     -68643.45       124.933        0.17058532   
    160000   929.78743     -7.8668302      597.61725     -68640.302      124.91119      0.18616071   
    161000   931.32849     -68.237963      68.689594     -68644.316      124.89039      0.17450397   
    162000   928.65437      243.23449      302.53432     -68637.279      124.88089      0.18080357   
    163000   926.81795     -593.51262     -467.48467     -68632.493      125.01406      0.18149802   
    164000   924.46884      219.41943      398.09665     -68626.275      124.95063      0.18110119   
    165000   928.18569     -58.987711     -226.57069     -68635.953      124.94147      0.18249008   
    166000   929.4054      -799.20403     -655.07673     -68639.034      125.01909      0.17827381   
    167000   937.75718     -177.98917     -192.0893      -68660.643      124.84955      0.19007937   
    168000   931.78851     -248.35558     -425.3302      -68645.002      124.90063      0.18313492   
    169000   928.21614     -652.40172     -819.67392     -68635.664      124.96928      0.17599206   
    170000   920.99746      49.665406     -112.13197     -68616.789      124.97754      0.16820437   
    171000   928.45576      995.59393      1408.5854     -68636.19       124.78077      0.17891865   
    172000   930.78377      694.19945      1249.9012     -68642.196      124.80701      0.184375     
    173000   928.34856      38.93569       537.37767     -68635.839      124.93026      0.17098214   
    174000   937.79878      49.877421      140.08709     -68660.477      124.8083       0.18769841   
    175000   928.87558     -828.02889     -659.40017     -68637.046      125.0276       0.17405754   
    176000   927.08546     -466.4536      -540.69277     -68632.367      124.99526      0.16170635   
    177000   929.38422      119.20664      840.41241     -68638.291      124.8548       0.17946429   
    178000   931.43944     -235.32643      101.98044     -68643.727      124.86525      0.18353175   
    179000   926.1993      -924.23774     -279.66904     -68629.889      124.96544      0.17921627   
    180000   932.6463      -429.95544     -103.52528     -68646.852      124.86809      0.17316468   
    181000   942.36948      536.43797      271.20789     -68672.083      124.65612      0.17683532   
    182000   935.041       -639.43292     -710.69698     -68652.981      124.89123      0.17534722   
    183000   935.04385     -13.684151      314.01903     -68653.098      124.81387      0.17584325   
    184000   931.46374      924.40373      917.55941     -68643.733      124.70439      0.17683532   
    185000   929.74571      162.62776      451.41551     -68639.447      124.86499      0.18154762   
    186000   931.26392     -915.73532     -1013.4758     -68643.399      125.02548      0.16979167   
    187000   941.58646      123.44047      514.11878     -68670.374      124.78246      0.18621032   
    188000   931.93397     -158.6556       271.26115     -68645.203      124.90474      0.17852183   
    189000   933.87605     -762.88477     -488.65765     -68650.197      124.93246      0.19474206   
    190000   929.95399     -1520.4376     -1405.6078     -68639.746      125.05639      0.17743056   
    191000   936.06658     -606.45889     -300.16503     -68655.858      124.89132      0.17678571   
    192000   936.02996     -230.18126     -368.89558     -68655.678      124.8027       0.17797619   
    193000   936.46226     -390.12066      115.48091     -68656.853      124.8269       0.18516865   
    194000   936.47607     -312.63581     -390.31166     -68656.889      124.79195      0.17619048   
    195000   934.91803      629.7755       428.99018     -68652.817      124.71466      0.17142857   
    196000   932.2737       115.15226      487.82172     -68645.88       124.78288      0.17832341   
    197000   935.22135      704.60555      928.87424     -68653.534      124.72359      0.1843254    
    198000   933.43049      553.14996      761.02252     -68648.912      124.76302      0.17827381   
    199000   932.6177      -667.18672     -869.16593     -68646.85       124.94775      0.1718254    
    200000   936.84812     -125.04019     -73.626933     -68658.032      124.84622      0.17519841   
    201000   933.88049     -142.61207      72.650581     -68650.192      124.86917      0.18010913   
    202000   934.27015      386.12966      529.85687     -68651.298      124.83351      0.16428571   
    203000   936.12625     -733.5229      -1189.1913     -68655.872      124.92535      0.17147817   
    204000   934.76824     -920.2768      -965.90819     -68652.293      124.95964      0.1796131    
    205000   942.30749      146.55726      598.05659     -68671.986      124.75809      0.17003968   
    206000   935.233        258.39107      333.68874     -68653.529      124.77406      0.17708333   
    207000   926.56795      215.18993      91.373289     -68630.901      124.85397      0.18075397   
    208000   938.95827      1223.9589      1727.5251     -68663.041      124.62802      0.16939484   
    209000   931.11271     -447.38128     -377.34448     -68642.604      124.91416      0.17316468   
    210000   937.13672     -249.57617      110.59666     -68658.299      124.839        0.18670635   
    211000   937.03792      1565.9626      2402.6945     -68657.833      124.59088      0.19102183   
    212000   938.41138     -452.6005      -76.325828     -68661.701      124.83793      0.18546627   
    213000   932.23047     -411.49232      88.19066      -68645.619      124.87914      0.16999008   
    214000   923.55499     -561.51937     -829.18161     -68622.969      125.01146      0.171875     
    215000   938.51464      444.34438      544.56547     -68662.107      124.75715      0.18606151   
    216000   931.60631      553.64601      330.10565     -68643.8        124.77585      0.17212302   
    217000   929.08917      755.75761      828.88204     -68637.241      124.7682       0.159375     
    218000   932.01143     -471.97037     -403.35333     -68644.765      124.91435      0.17748016   
    219000   930.01453     -1173.114      -1122.0124     -68639.47       125.0531       0.17708333   
    220000   925.963        193.28811     -92.553665     -68628.931      124.89682      0.17098214   
    221000   929.01514     -96.962206      403.55126     -68636.891      124.91016      0.171875     
    222000   932.68367      226.97035      330.50539     -68646.51       124.82158      0.1672619    
    223000   927.95341      608.97991     -76.447438     -68634.185      124.806        0.1640377    
    224000   940.76447      59.8244        186.51881     -68667.63       124.79398      0.17619048   
    225000   933.14646     -455.40675     -648.51211     -68647.808      124.89241      0.16850198   
    226000   930.71405     -297.50137     -805.6617      -68641.326      124.91747      0.17757937   
    227000   931.92138      14.829377     -146.79073     -68644.435      124.84017      0.17901786   
    228000   935.66376     -1161.4676     -1433.2873     -68654.12       124.96549      0.17375992   
    229000   937.59058     -89.919538      218.08853     -68659.172      124.85109      0.17693452   
    230000   940.6256      -416.09368     -363.88012     -68667.017      124.87265      0.17247024   
    231000   939.74004      711.50043      1548.963      -68664.704      124.72207      0.16785714   
    232000   929.64381     -393.11911     -723.50703     -68638.416      124.9726       0.16572421   
    233000   931.81027     -1057.6757     -1071.5598     -68643.97       125.00683      0.17093254   
    234000   930.30271      960.59269      1077.6614     -68640.175      124.78101      0.16964286   
    235000   928.35323      79.994615      543.78365     -68635.111      124.89662      0.1562004    
    236000   935.88201     -502.32409     -758.64417     -68654.777      124.91639      0.17604167   
    237000   933.95515     -323.71534      300.58237     -68649.753      124.91401      0.17688492   
    238000   926.782        247.90183      607.81702     -68631.025      124.87519      0.17266865   
    239000   931.09978     -683.31413     -1064.2817     -68642.037      124.97552      0.17083333   
    240000   929.15926     -452.20605     -616.73216     -68636.926      124.92241      0.16805556   
    241000   928.38108     -358.43122     -453.84398     -68634.959      124.88303      0.17698413   
    242000   924.93015      925.79109      882.46143     -68625.963      124.78933      0.16964286   
    243000   935.04297     -237.90776      248.48897     -68652.44       124.86598      0.1702381    
    244000   930.90735     -393.71618     -265.17598     -68641.777      124.93645      0.17490079   
    245000   936.6407      -298.02966     -248.25447     -68656.635      124.85283      0.17142857   
    246000   930.04143     -211.65267      102.88011     -68639.417      124.91071      0.17638889   
    247000   936.69487     -118.27511     -138.88039     -68656.826      124.82424      0.18373016   
    248000   938.0676       592.07105      562.18286     -68660.241      124.71335      0.1827381    
    249000   939.87192     -179.57776      350.81785     -68665.057      124.82718      0.18809524   
    250000   935.30174     -421.24119     -176.50291     -68653.143      124.89663      0.18923611   
    251000   928.74215     -392.78965      48.625688     -68636.038      124.96715      0.16646825   
    252000   928.55757      1285.5837      1858.9288     -68635.491      124.732        0.17752976   
    253000   929.9651       349.83171     -20.020359     -68639.257      124.8048       0.17490079   
    254000   936.13971     -709.79919     -611.45776     -68655.317      124.91531      0.17371032   
    255000   934.89101     -334.62134     -463.50302     -68652.253      124.90564      0.16383929   
Loop time of 13537.5 on 4 procs for 200000 steps with 20160 atoms

Performance: 2.553 ns/day, 9.401 hours/ns, 14.774 timesteps/s, 297.840 katom-step/s
91.2% CPU use with 4 MPI tasks x 1 OpenMP threads

MPI task timing breakdown:
Section |  min time  |  avg time  |  max time  |%varavg| %total
---------------------------------------------------------------
Pair    | 9935.4     | 10192      | 10388      | 172.0 | 75.29
Neigh   | 375.1      | 386.96     | 396.4      |  43.6 |  2.86
Comm    | 2098.9     | 2307.4     | 2573.3     | 382.6 | 17.04
Output  | 46.365     | 56.925     | 67.668     | 103.3 |  0.42
Modify  | 459.31     | 482.17     | 501.16     |  68.1 |  3.56
Other   |            | 111.7      |            |       |  0.82

Nlocal:           5040 ave        5077 max        4987 min
Histogram: 1 0 0 0 0 0 1 1 0 1
Nghost:        13747.5 ave       13893 max       13683 min
Histogram: 2 1 0 0 0 0 0 0 0 1
Neighs:         413161 ave      416935 max      406766 min
Histogram: 1 0 0 0 0 0 1 0 0 2
FullNghs:       826322 ave      834178 max      812289 min
Histogram: 1 0 0 0 0 0 1 0 0 2

Total # of neighbors = 3305290
Ave neighs/atom = 163.95288
Neighbor list builds = 9250
Dangerous builds = 0
Total wall time: 4:40:10
