LAMMPS data file via write_data, version 10 Sep 2025, timestep = 67500, units = metal

3456 atoms
1 atom types

-0.19450711058451198 24.49450711058452 xlo xhi
-0.1518913003830864 24.451891300382975 ylo yhi
-2.9367269101643316 100.13672691016549 zlo zhi

Masses

1 26.9815

Atoms # atomic

262 1 1.6866385416296463 2.6736855280938903 -0.6230897090517908 1 1 0
76 1 1.8507063617893742 0.44055996668745 -2.799168906619821 0 1 0
261 1 24.405544923834167 0.7485359463229861 -0.6056238696200729 0 1 0
100 1 3.9394320773230644 2.669783677265038 -2.4787571731942473 0 1 0
242 1 6.0103246237361185 2.4851456004296177 -0.140207416500568 0 1 0
99 1 5.9446007410022625 0.6568523818378985 -2.4249007852652347 0 1 0
241 1 3.8241068708685937 0.419527335621356 -0.6070108733543136 0 1 0
246 1 10.163407220948303 2.5600012996591004 -0.251826596945965 0 1 0
245 1 8.07802246783682 0.5385589750028171 -0.4845981842731435 0 1 0
80 1 10.104858067186298 0.3777044489395216 -2.4794251814812918 0 1 0
108 1 11.836145330757182 2.7233295395649355 -2.350589802736062 0 1 0
249 1 11.792137939520481 0.4921717726981537 -0.4595305138967354 0 1 0
107 1 13.795787360137235 0.26039049744570747 -2.3608649686954637 0 1 0
250 1 14.513323496586178 2.4948379306234827 -0.3301588659352426 0 1 0
112 1 16.23770888582694 2.898579472627138 -2.3645806013931754 0 1 0
253 1 16.045437271150988 0.5810142289905693 -0.6006388552790725 0 1 0
254 1 18.348496386809103 2.638654125427077 -0.5445078275845354 0 1 0
116 1 20.55088720882832 3.0944427224263427 -2.4908174082629726 0 1 0
257 1 20.36262449958953 0.7773892220588262 -0.35996263478867574 0 1 0
67 1 22.19503858043541 17.20276563279036 -2.5630620345929462 0 0 0
258 1 22.64497323412899 2.6898972251461104 -0.570472320497764 0 1 0
96 1 22.471326831839946 0.8071644191308086 -2.724732532015765 0 1 0
143 1 1.9847102755993973 4.483791468306273 -2.3532328314590956 1 1 0
286 1 2.007312084198704 7.04221482939776 -0.6000951441044764 1 1 0
285 1 24.46164824488234 4.8744714616509235 -0.38123276140601403 0 1 0
265 1 3.92733796589766 4.443330972279345 -0.17340115927235766 0 1 0
123 1 6.230793978077611 4.446123755715511 -2.3436443309070993 0 1 0
124 1 3.9999078370122794 7.127036849657519 -2.4095802714870187 0 1 0
266 1 6.0525762603001105 6.249401133493455 -0.5110967935271802 0 1 0
269 1 8.399281408197535 4.42160665161029 -0.15825917335126327 0 1 0
127 1 9.633470176227467 4.814995305466728 -2.7506717128749223 0 1 0
128 1 8.113216872298022 6.933617783969771 -2.7821605888274883 0 1 0
270 1 9.913493059998647 6.760907245256631 -0.4450653303568797 0 1 0
273 1 12.099999809356 5.0878790962547304 -0.1304790338545736 0 1 0
132 1 12.24904317663282 6.64313514590181 -2.170743870167527 0 1 0
274 1 14.300594101319982 6.833764710660525 -0.31317280730958785 0 1 0
131 1 14.024495863973076 4.555248705791181 -2.0922006294478783 0 1 0
277 1 16.28302791850274 4.544848662858065 -0.2282288947530522 0 1 0
136 1 16.06193419993351 6.5009296400216465 -2.1589737883283253 0 1 0
954 1 22.283541524614222 23.310021205012987 19.959180217906688 0 0 0
281 1 20.49212494551864 4.846408026958841 -0.2951870271958348 0 1 0
278 1 18.10175569646406 6.650726468711685 -0.30145554478949377 0 1 0
140 1 20.10845528759549 6.76173440065699 -1.9495000168086754 0 1 0
144 1 -0.005958774857340837 6.571348197996897 -2.464178444952753 1 1 0
282 1 22.28692217788233 6.850955827050954 -0.23123670854826583 0 1 0
120 1 22.45458485461021 5.150245509983153 -2.722031007133402 0 1 0
23 1 1.8618358611106705 8.842951755188121 -2.6128284454336437 1 0 0
165 1 24.406035792809135 8.98216460276364 -0.6097986021044046 0 0 0
145 1 4.020695581308833 8.747013537450265 -0.3863099699209611 0 0 0
3 1 6.210598680022841 9.220689212413903 -2.444141247469456 0 0 0
146 1 5.772608947485555 11.219166738060483 -0.46653615445535035 0 0 0
149 1 8.060945291937044 8.666037202280542 -0.19370873870476402 0 0 0
7 1 9.927703108232755 8.713485601249516 -2.008669152325249 0 0 0
153 1 12.19542762326447 8.782404520240533 -0.33773775490402214 0 0 0
150 1 10.238400036221666 10.936158607213638 -0.4891087981093465 0 0 0
11 1 14.259589859412042 8.69642288477181 -2.42828931686764 0 0 0
157 1 16.2151504540505 8.759188962763258 -0.45032403939088406 0 0 0
15 1 18.08792689068101 8.863503630717108 -2.437625521281084 0 0 0
161 1 20.22251974461159 8.996179545386369 -0.6168610263691146 0 0 0
19 1 22.35431669819684 8.760707482444294 -2.1987965749949585 0 0 0
24 1 -0.005436039987067431 11.066088574280117 -2.4340689669528217 1 0 0
166 1 1.8678333836549372 10.9492762588644 -0.4566946293424228 1 0 0
47 1 2.1090746208433377 12.524507765451792 -2.884112263378337 1 0 0
189 1 0.0124579917794376 13.039034812311158 -0.4457741895379921 1 0 0
4 1 3.9741328491798296 10.931847118594007 -2.5440237381253783 0 0 0
169 1 3.7509844333295033 13.181310488687291 -0.1450341267133899 0 0 0
27 1 5.88491236229639 13.23801973377814 -2.407847483581857 0 0 0
8 1 8.277912471140604 10.882837182813057 -2.1739127184304183 0 0 0
31 1 10.040096626956112 12.785577226852595 -2.562106080638698 0 0 0
173 1 7.871359303674639 12.670790703811312 -0.4662266221714191 0 0 0
12 1 12.102838447572795 10.475194607886257 -2.5896178361589843 0 0 0
177 1 12.192367730964003 13.095825665203632 -0.6242463056713632 0 0 0
154 1 13.897449064130587 10.795736329660995 -0.26901988459492676 0 0 0
16 1 15.904445229711085 11.071691167319408 -2.569427295193003 0 0 0
181 1 16.18522896526241 13.00165594508303 -0.5828144330644602 0 0 0
35 1 14.264004711984533 13.226049487866907 -2.765043069496162 0 0 0
158 1 18.161558081402383 10.966634152736212 -0.35337333874829646 0 0 0
20 1 20.25112583008697 11.17125463811048 -2.030608718734605 0 0 0
39 1 18.2390564574958 13.171269481375 -2.161343658805988 0 0 0
185 1 20.33884835530828 13.240777306028344 -0.2650313067528183 0 0 0
162 1 22.344103418979486 10.920381906908258 -0.28194891669429945 0 0 0
43 1 22.382661171247257 12.866260923298027 -2.33321006391961 0 0 0
190 1 1.8070601917224254 15.113808140017492 -0.7707501150345952 1 0 0
71 1 1.8647169786291462 17.164690561973067 -2.3513701325344942 1 0 0
170 1 5.866600389243769 15.262204956111072 -0.19425548899393918 0 0 0
28 1 3.6937547012249077 15.271578450199328 -2.256755580874214 0 0 0
193 1 3.668191919490048 17.228358904850857 -0.04295915010541407 0 0 0
51 1 5.9068899398038495 16.97536846402665 -2.6296131711313713 0 0 0
32 1 8.09030265811725 15.093084408241603 -2.1849708948015074 0 0 0
174 1 9.958668825096053 15.187266216746327 -0.27639715149052746 0 0 0
197 1 7.9540825424137935 17.071649744212046 -0.11248718099681376 0 0 0
55 1 10.050048561353355 16.92667373944048 -2.3726340459816067 0 0 0
36 1 11.976258644182938 14.89070690129443 -2.407696379901745 0 0 0
201 1 12.217571961416597 16.938236056420372 -0.3495176553200614 0 0 0
178 1 14.199711993037738 14.991874519794523 -0.42503099005112155 0 0 0
59 1 13.940126836331434 17.000198048537214 -2.5099816081808743 0 0 0
40 1 16.271334861315545 15.093920396315752 -2.414517568624002 0 0 0
205 1 16.159553815769442 17.17546306935487 -0.050976574569796096 0 0 0
182 1 18.404674152744214 15.25739802256283 -0.11769379415095438 0 0 0
44 1 19.900709783437712 15.111269246659273 -2.572706750267994 0 0 0
63 1 18.162115445252148 17.152215630605184 -2.3630316611876783 0 0 0
209 1 20.42427352361795 16.90739432899582 -0.13632934075235692 0 0 0
213 1 -0.19041769266132746 17.148869769951013 -0.138101226719467 1 0 0
48 1 24.383245981083405 15.014566920860657 -2.533470702861254 0 0 0
186 1 22.573206808024814 15.027835071854701 -0.5055893937131017 0 0 0
135 1 18.441279485011215 4.775341252910795 -2.4926287276746186 0 1 0
214 1 1.4661176948648496 19.073746322001575 -0.1501283687223296 1 0 0
95 1 1.299629953685335 21.358525302054076 -2.3837102697822585 1 0 0
237 1 -0.16824613301184854 21.370230724265063 -0.28800938289603195 1 0 0
52 1 3.602189238686171 19.30532140503766 -2.3191431229438813 0 0 0
194 1 5.650117957020163 19.035555984858462 -0.4446403484899908 0 0 0
75 1 5.544173478383927 21.195272990214427 -2.63845979405665 0 0 0
217 1 3.479609981584474 21.051900808191498 0.02846493910338177 0 0 0
56 1 7.796974694677232 19.056717314255188 -2.2175026468259453 0 0 0
198 1 9.94389724876023 19.09101762337707 -0.36494846347928567 0 0 0
79 1 10.083140915474162 20.953373046271338 -2.5230544133535533 0 0 0
60 1 11.86805792842819 18.780652343259014 -2.4335209021326194 0 0 0
202 1 14.086696408383075 18.904022379531227 -0.16154882002442283 0 0 0
64 1 16.30851994287155 19.003858958889708 -2.294278360173519 0 0 0
229 1 16.1331330029549 20.94863679400774 -0.2307772926395657 0 0 0
83 1 14.315590223115562 20.946871954054068 -2.1019919851998017 0 0 0
68 1 19.96374738648825 19.31500820626689 -2.486595420020331 0 0 0
206 1 18.376660643864014 18.93842438876745 -0.2407665318908947 0 0 0
233 1 20.34419792381145 21.335151436127113 -0.4283676641009939 0 0 0
72 1 24.095994178292173 19.46325310212476 -2.125970041713386 0 0 0
210 1 22.275076280549186 19.117761166724478 -0.6984211981584338 0 0 0
238 1 1.548881164019926 23.191118692298623 -0.26220681312111127 1 0 0
93 1 24.46497664386932 23.384679154367873 -2.3238362574428453 0 0 0
218 1 5.732210202255967 22.65583335846413 -0.41189311175270227 0 0 0
221 1 7.755250140430543 20.87992733371224 -0.2715997518119453 0 0 0
74 1 8.088629210645452 23.208792523616147 -2.3174086260936866 0 0 0
222 1 9.81082799702955 22.86425384774367 -0.17320410111646867 0 0 0
225 1 11.936875419377724 20.94048616515758 -0.23988318242511486 0 0 0
84 1 12.160230886233107 22.948690859601598 -2.314548531343613 0 0 0
226 1 14.126751019883452 23.22592179976364 -0.08656636568261211 0 0 0
88 1 16.179630615202385 23.13582877690238 -2.569125676958583 0 0 0
87 1 17.96344809434327 20.977012353820683 -2.436688214476671 0 0 0
230 1 18.180895713760663 23.413432712983564 -0.46616651084949634 0 0 0
92 1 20.335765930608133 23.14373551740902 -2.4520938993253925 0 0 0
91 1 22.16949763867607 21.340227000292636 -2.7433248108505057 0 0 0
234 1 22.43553547120537 23.28038398568718 -0.6533439179371179 0 0 0
406 1 1.7999231905313713 2.601861941108338 3.7194472350989676 1 1 0
263 1 1.634932544850914 0.6537600871434047 1.468580153793865 1 1 0
264 1 24.319262767970777 2.919372023222992 1.5811638607900607 0 1 0
405 1 24.42069564808574 0.6358004473084276 3.5667576799634304 0 1 0
244 1 3.781613463670062 2.5125146060684846 1.8135495888136965 0 1 0
386 1 5.893783309012696 2.2422062401427527 3.651178012619808 0 1 0
385 1 3.7402402599637083 0.5904686337015195 4.013310083748058 0 1 0
243 1 5.891202420227574 0.0940576473384648 1.7348092131118786 0 1 0
248 1 8.113086318826404 2.2998959634884013 1.7357704071420672 0 1 0
390 1 10.21916561294255 2.671904141838318 3.8899785820920627 0 1 0
247 1 10.108348623461078 0.5937198390468094 1.6665545150275483 0 1 0
389 1 8.097053011919881 0.45607359853153906 3.807515244142029 0 1 0
252 1 12.211588996765435 2.81716235283923 1.5109284836594483 0 1 0
393 1 12.251898504075811 0.686212726637524 3.9075226201159117 0 1 0
251 1 13.933972192026241 0.4239370377569085 1.7676759798328803 0 1 0
394 1 14.330926466423557 2.319667618123536 3.958114716052389 0 1 0
256 1 16.08047462836683 2.6394840449094517 2.0310496435498386 0 1 0
397 1 16.35089370776305 0.49649864651369047 3.731629755914067 0 1 0
398 1 18.359026018695523 2.829532041136074 3.8306566819429886 0 1 0
260 1 20.339779460097347 2.877718208422157 1.8110973761924694 0 1 0
255 1 18.229765824046957 0.7713344756650843 1.5423808749013448 0 1 0
401 1 20.30885092503928 0.9004598368220398 3.842608225066547 0 1 0
402 1 22.556524262603162 2.7817031506600403 3.9212645902288195 0 1 0
259 1 22.383460384530203 0.8219093376178029 1.5592550172063309 0 1 0
287 1 1.5398241659458916 4.752606799036552 1.4048490314521667 1 1 0
430 1 1.5618434238439396 6.325257617897155 3.999701730550326 1 1 0
288 1 -0.17661910867967184 6.823868466232615 1.404205809500568 1 1 0
429 1 -0.19044672831000753 4.670990404639114 3.6725761523173786 1 1 0
409 1 3.755073061309928 4.782899300812903 3.596613603801007 0 1 0
267 1 5.957421751878788 4.4378396642780755 1.755119693452511 0 1 0
268 1 3.9208154304709826 6.502345069249124 1.6170787218781788 0 1 0
410 1 5.902396419310938 6.704949820812987 3.5395883461157407 0 1 0
271 1 10.094517625578046 4.6612219378122335 1.812741224014272 0 1 0
413 1 8.088579469266582 4.643184668581626 3.9915304293025233 0 1 0
272 1 7.843745697673777 6.680847788518782 1.7215171773446523 0 1 0
414 1 10.272028899070197 6.718227447694785 3.75103160317786 0 1 0
417 1 12.069360863143105 4.89568296433947 3.7947528630916896 0 1 0
276 1 12.252664585803815 7.062066390148071 1.8499283406476792 0 1 0
275 1 14.117415569049463 4.620667594326542 1.8849223892129885 0 1 0
418 1 14.366369598290488 6.836981045520913 3.752088154647838 0 1 0
421 1 16.178058807217248 4.5997183730747935 3.8704190816094215 0 1 0
280 1 16.060029071450593 6.971677372438752 1.7703236659473012 0 1 0
425 1 20.12766054409566 4.968709594566091 3.4545187079223343 0 1 0
279 1 18.076637086378597 4.583662394287228 1.5799702202022141 0 1 0
284 1 20.23959105083304 6.975048212517926 1.3441922336429215 0 1 0
422 1 18.12381127869171 6.48470117570514 3.595386524481574 0 1 0
283 1 22.350687842340527 4.806986671656222 1.734823684584219 0 1 0
426 1 22.118109715998585 6.9459252970771965 3.574325866844597 0 1 0
167 1 1.856216225716734 8.70181517871818 1.6320357192603376 1 0 0
309 1 24.13298291160006 8.747749703473472 3.5920721712482724 0 0 0
310 1 1.6688839200936956 10.528393633501969 3.7689432000654586 1 0 0
289 1 3.627343097483892 8.592785518537557 3.563964173339353 0 0 0
147 1 5.9691265722692535 8.983047618887198 1.3585366422002698 0 0 0
290 1 5.524787053116549 10.725516719171377 3.856645766399824 0 0 0
293 1 7.873521929268277 8.855471122128886 3.5685597825566786 0 0 0
151 1 10.176608474055149 8.802687219548753 1.8215499127544525 0 0 0
152 1 8.104608197319546 10.661137834957927 1.7353950748045284 0 0 0
297 1 12.098486077308262 8.80283909354506 3.9470887923769187 0 0 0
155 1 14.031818536983815 9.020941878214193 2.0390009807970717 0 0 0
301 1 16.49380154751229 8.74532664913862 4.133215081479886 0 0 0
159 1 18.146865168041998 8.930812495114829 1.4479502017117731 0 0 0
305 1 20.273447312181816 8.827814142459877 3.474439305144588 0 0 0
163 1 22.53759495103221 8.973626474050644 1.6434390111576276 0 0 0
168 1 24.38431109072624 10.778720128299964 1.636673829851146 0 0 0
191 1 1.776332300532846 12.837416091539449 1.8559989513650414 1 0 0
333 1 24.23188456726838 12.729122217277428 3.620800426041205 0 0 0
148 1 4.059731867626303 10.738465234209848 1.4903149444382642 0 0 0
313 1 3.7508676581640192 12.771957574939972 3.5908059007535726 0 0 0
171 1 5.9662690756063474 12.863397222311809 2.056123227443451 0 0 0
294 1 9.967544745638898 10.878346515069758 3.7832785835513816 0 0 0
317 1 7.822550003763096 12.604269144844652 4.1749285820663875 0 0 0
175 1 9.981441692173286 12.870684318682862 1.5547171959749644 0 0 0
156 1 12.157474096612194 10.882384862680174 1.624546766415457 0 0 0
321 1 11.957053981545227 12.908043708895326 3.712962253156576 0 0 0
298 1 14.162602778867681 10.959495236905584 3.649258503124254 0 0 0
160 1 16.122253482033898 11.122844854454458 1.5799503555644323 0 0 0
179 1 14.112287892205304 12.987537911541718 1.4787733917385841 0 0 0
325 1 16.057869327220182 13.089335519810302 3.7091285549068944 0 0 0
302 1 18.119868034982716 11.003390513388734 3.914207767545469 0 0 0
164 1 20.431746046088804 11.038577574187965 1.6012013774971496 0 0 0
183 1 18.145556295388587 12.763092977024709 1.7126390723321299 0 0 0
329 1 20.28955290761253 12.668149840411266 3.868667838490638 0 0 0
306 1 22.302695902396003 10.733610463415076 3.878756320169198 0 0 0
187 1 22.40083504025069 13.026219266430353 1.6620149025044233 0 0 0
334 1 1.903589872384071 14.877030729157395 3.623521363235583 1 0 0
215 1 1.9187235670725746 16.539745154291296 1.764544021489848 1 0 0
192 1 24.276311326749557 14.745921428733029 1.7428016397262986 0 0 0
357 1 24.36621180402961 16.684631226356196 3.963388888997126 0 0 0
314 1 5.903652997218472 15.183392698615283 3.585471915477827 0 0 0
172 1 3.8860567254052025 14.81430878320421 1.6249795728109344 0 0 0
337 1 3.674673921303524 16.872538524193388 3.8575641092830804 0 0 0
195 1 5.569083049111119 17.160778783929246 1.9154608784003466 0 0 0
176 1 7.8765732532041035 14.79473750958741 1.6826986837653202 0 0 0
318 1 9.894106369980488 14.607261545382373 3.739675148322191 0 0 0
199 1 10.042776648817247 16.66607330568955 1.770546281422675 0 0 0
341 1 8.022571568037012 16.756184335346433 3.8673337042878027 0 0 0
180 1 12.074540857241233 14.989202047396077 1.6630389726096109 0 0 0
345 1 11.934765348798473 16.84430568857102 3.975660306044154 0 0 0
322 1 13.772890127265576 15.1273871030841 3.7643832310824052 0 0 0
203 1 13.93044365224827 16.829821247279135 1.9431676242940297 0 0 0
184 1 16.260507786805256 14.8512167054253 1.7284846530889446 0 0 0
349 1 16.06845285013928 16.903380880968733 4.068655448419797 0 0 0
188 1 20.354552995352826 14.890049510677976 1.8565570184879343 0 0 0
326 1 18.353924152076807 14.992972746988292 4.080977789699962 0 0 0
207 1 18.203744563452886 16.906206750777713 1.8942033695188485 0 0 0
353 1 20.00588554950742 17.073543372535596 3.886402362179883 0 0 0
330 1 22.2931391279023 15.002892146663195 3.821472564056908 0 0 0
211 1 22.186889583090455 16.962854290130252 1.8040422091877595 0 0 0
239 1 1.2812225248078246 21.166790833106234 2.1486437176664985 1 0 0
358 1 1.578154636132445 18.681277631129078 3.8911446753406747 1 0 0
196 1 3.804432509955404 19.16339261731906 1.914130000888946 0 0 0
338 1 5.6508561011028124 18.827693562952163 3.9949088434261277 0 0 0
361 1 3.5553416292599733 20.908609507328137 4.097747383374492 0 0 0
200 1 7.64220722270551 19.107164616712183 1.5419462758727516 0 0 0
342 1 9.840180263923015 18.57231399338491 3.691086703828071 0 0 0
223 1 10.109178930900152 20.839617848597683 2.1236890443423757 0 0 0
365 1 7.732954661523547 20.61023018000909 3.7571566039921187 0 0 0
204 1 11.934998527055173 19.103010608936877 1.5642406169081227 0 0 0
369 1 12.29229176700561 21.01452738711101 3.794562161652755 0 0 0
346 1 14.149131461702094 18.981739056907053 4.0446678130107205 0 0 0
227 1 14.251355255302872 20.95249313249161 1.8481957218067686 0 0 0
208 1 16.13887158150053 19.45863485997424 1.9904305981656476 0 0 0
373 1 16.403660606647115 21.113481893973933 4.053560275731137 0 0 0
212 1 20.59399336090263 19.17356590892763 1.431416455592868 0 0 0
350 1 18.175503149862415 19.11261411359031 3.7067136744414073 0 0 0
377 1 20.204840683619572 21.201994303259674 3.673063796490335 0 0 0
216 1 24.05463119352705 19.21621022490946 1.6528139196698994 0 0 0
354 1 22.23108825471615 18.87490779173541 3.7669191618130977 0 0 0
381 1 23.97155036461384 21.05279323464157 3.89149449486702 0 0 0
235 1 22.328285320072105 21.422697666639237 1.4717968714921126 0 0 0
382 1 1.655798248503559 23.174995358422244 3.7359718343166053 1 0 0
240 1 24.2374090556427 23.07932993267285 1.6537864625539278 0 0 0
219 1 5.909817546314089 21.157586305882695 1.8968335057284795 0 0 0
220 1 3.6577400609004536 23.444159074411175 1.9396272645552672 0 0 0
362 1 5.888334324937402 22.91781572277415 4.031948741133862 0 0 0
224 1 7.884324164394359 22.70320567248468 1.8988985262511662 0 0 0
366 1 9.866138944083339 23.08871995241295 3.739969863006494 0 0 0
228 1 11.867308607075616 23.239280991422007 1.8537665058645354 0 0 0
370 1 14.240126557490653 23.140965494311374 3.71004234011789 0 0 0
232 1 16.511840130545494 23.04092499223271 1.67268697479446 0 0 0
231 1 18.539965909925392 21.00474603745768 1.5734209896373255 0 0 0
374 1 18.11258238293034 23.459179622093018 3.6489180163027894 0 0 0
236 1 20.49326631482193 23.38738883240932 1.484458476049622 0 0 0
378 1 22.17180893788531 23.42426504653438 3.681762597462975 0 0 0
407 1 1.6892255138182861 0.20168876544627257 5.705687415581329 1 1 0
408 1 24.353243011670862 2.4154722768441506 5.778949595678549 0 1 0
549 1 -0.046680904305125503 0.4330183241439225 7.776248026327728 1 1 0
388 1 3.8669477854157535 2.6946600895133597 5.530487301285113 0 1 0
387 1 5.784553433474092 0.2640908450655482 5.93744443448721 0 1 0
529 1 3.9355722142919234 0.26603636149730486 7.924975419179846 0 1 0
392 1 7.729542231569021 2.7688223672974743 5.7961762949845035 0 1 0
391 1 10.132394346918606 0.41614019328155394 6.031354910876676 0 1 0
533 1 7.9032735998693635 0.5105874237440859 7.759811070177445 0 1 0
396 1 12.032929167411469 2.511834441667363 5.943111948098096 0 1 0
537 1 12.288717979046934 0.4896972205716421 7.831426270146668 0 1 0
395 1 13.974875678180847 0.5534647831458501 5.853332707717287 0 1 0
400 1 16.31760138412899 2.485212121741201 5.797398944529579 0 1 0
538 1 14.228866611561399 2.5512960484959337 7.866655786578487 0 1 0
541 1 16.260667971317346 0.324177822637002 7.896583370351593 0 1 0
404 1 20.613644706670726 2.7102290309613597 5.803054815020408 0 1 0
399 1 18.23284076607971 0.6574996195453306 5.837429698557941 0 1 0
542 1 18.171676463151847 2.6621188212757505 7.940273575030082 0 1 0
545 1 20.540477229721027 0.7145876819761551 8.113880166734978 0 1 0
403 1 22.285713315846998 0.6239897694948001 5.7997107116778714 0 1 0
546 1 22.510490099649132 2.5719178788381707 7.685669494613235 0 1 0
431 1 1.343478126129981 4.331071886677198 5.97912242809873 1 1 0
432 1 24.033666286973023 6.895851521347155 5.857616103523684 0 1 0
412 1 4.0411610084762195 6.760432896320163 5.566933967206371 0 1 0
411 1 5.914709701473773 4.675501295699205 5.611092807387509 0 1 0
553 1 3.5022324232043895 4.758341253322414 7.729363741575977 0 1 0
415 1 9.810713566688698 4.57686811658511 6.017433041102397 0 1 0
416 1 7.684638634340398 6.763044645454741 5.58477116131356 0 1 0
557 1 7.74806986127132 4.498783383223014 8.058753193227652 0 1 0
420 1 11.907204720086117 6.705865589479648 5.811411796888729 0 1 0
561 1 12.12558684476955 4.588746890954885 7.820081157829323 0 1 0
419 1 13.971471719635945 4.55306733029554 5.775266204471357 0 1 0
562 1 13.981172765256368 6.325009167050691 7.810328071560486 0 1 0
565 1 16.025075855839468 4.70924237828857 7.70647726063226 0 1 0
423 1 18.30628941715414 4.661088073611128 5.792540554949147 0 1 0
428 1 20.017878340847602 6.980751119377448 5.689746248880416 0 1 0
566 1 18.233996514499765 6.83342389508546 7.537945446024631 0 1 0
569 1 20.170751380398407 4.548027724543829 7.833924563233902 0 1 0
427 1 22.2056085822653 4.856564199400782 5.824642858748014 0 1 0
573 1 24.151713851748475 4.834165792442026 7.8787785374890635 0 1 0
311 1 1.5719563266908672 8.627849913513552 5.693709688358485 1 0 0
291 1 5.930538214996864 8.494843195193951 5.865018139473639 0 0 0
295 1 9.893340891590377 8.636832043944159 5.961560288454335 0 0 0
441 1 12.205028614278639 8.413538387092645 7.788910518688921 0 0 0
424 1 16.308716567839483 6.655855406981592 5.651919352056199 0 1 0
299 1 14.16320001279472 8.734503531178698 5.858918739778405 0 0 0
445 1 16.092803256380748 8.535108275378683 7.693445555890296 0 0 0
303 1 18.36632049596068 9.182197881934286 5.687225309284507 0 0 0
449 1 20.286238883710162 8.738229489292166 7.5149199242739595 0 0 0
307 1 22.33589808980725 8.611143859724947 5.661249274704014 0 0 0
312 1 -0.13198730144780058 10.856443338937348 5.891614187545288 1 0 0
335 1 1.5804021423576085 12.750103640428483 5.4107231520100285 1 0 0
477 1 24.443722896870177 12.767167903385955 7.794222003438938 0 0 0
454 1 1.7611724042578585 10.645993802406233 8.028436207329229 1 0 0
292 1 3.6147938937141104 10.544381197040389 5.793446251389659 0 0 0
315 1 5.656296808873824 12.891993234628929 5.702618770476098 0 0 0
296 1 7.730768654262447 10.536717722422118 5.854767050138042 0 0 0
438 1 10.236099746032822 10.527852121389484 7.597743363720788 0 0 0
319 1 9.906268919755975 12.621197928223767 5.889103325320514 0 0 0
461 1 7.954778123397803 12.601584720502649 7.831088506029285 0 0 0
300 1 12.31114739269965 10.557319733467263 5.765576325237088 0 0 0
304 1 15.99392965822184 10.958401900833461 5.840955258166304 0 0 0
323 1 14.0195182477921 13.109588811193964 5.690793086628625 0 0 0
442 1 14.297559858682996 10.772640298534196 8.05734446640851 0 0 0
446 1 18.27747113480234 10.803405702463486 8.00220604290043 0 0 0
327 1 18.321214840733248 12.906124832719986 6.008602931614471 0 0 0
473 1 20.349020732932843 12.920362094016205 7.576093217751913 0 0 0
308 1 20.32759698859332 10.910142267175084 5.751060825557344 0 0 0
331 1 22.514513626240557 12.65615650612396 5.947642624994108 0 0 0
359 1 1.769173690014463 16.75380108541713 5.760253207787093 1 0 0
478 1 1.7515880594433655 14.742792575997466 7.946670471580811 1 0 0
501 1 24.473851653702738 16.569402168353328 7.911055556542658 0 0 0
316 1 3.7051202640988774 14.692708587099412 5.730387375760147 0 0 0
339 1 5.849720800972715 16.473920053085585 5.959654509205752 0 0 0
458 1 5.977074991346313 14.714604790426044 7.932370623157759 0 0 0
320 1 7.813100586601646 14.724957163674755 5.835423640437774 0 0 0
343 1 9.852240361835488 16.761481991213508 5.8178885198817945 0 0 0
324 1 11.976807852301093 14.734547303198498 5.986769464341981 0 0 0
489 1 11.99875380399035 16.690537171174945 7.96009358149179 0 0 0
328 1 16.08744145003419 14.821492389996795 5.842538533296791 0 0 0
347 1 14.252286117294961 16.74359081610143 5.960720426387693 0 0 0
493 1 15.997729164621289 16.86878458018318 7.874743243684195 0 0 0
466 1 13.907756315010964 14.688261662383939 8.152393114464777 0 0 0
332 1 20.565728426805364 14.889972218854256 6.068209117595051 0 0 0
351 1 18.22822294633417 16.979941161653244 6.161052332817787 0 0 0
497 1 20.656451733812972 16.887093249902627 7.878289648594164 0 0 0
470 1 18.182203329968097 15.032948979062178 7.971106965432021 0 0 0
336 1 24.358583195490127 14.927550381579875 5.900613767916571 0 0 0
355 1 22.291733200273576 17.10378025576302 5.901917921265447 0 0 0
383 1 1.7205146512080307 21.102649221844956 5.985121393159206 1 0 0
360 1 24.064196283023747 18.98349657389322 5.635537691976632 0 0 0
502 1 1.4093167304066316 18.819819491904134 7.846518761127859 1 0 0
340 1 3.572065027966735 18.893145348403245 5.756826027372698 0 0 0
482 1 5.892527435028196 19.00432687185088 7.8060656837373354 0 0 0
344 1 8.156851067378456 19.011930539850674 6.014673450907511 0 0 0
486 1 10.4175662138273 18.766653410104055 7.981833668309822 0 0 0
367 1 10.119382236245714 20.76463111023608 5.592263529265761 0 0 0
509 1 8.138371365088064 20.875511458575097 7.901423720427001 0 0 0
348 1 11.967214021799156 18.719286164164345 6.061136118804196 0 0 0
513 1 12.259585716388967 21.074538882686838 7.797307521964859 0 0 0
352 1 16.513813293055883 18.958702332836623 5.859493235399247 0 0 0
490 1 14.142430367395807 18.82555409038047 7.688812908809446 0 0 0
356 1 20.21030555479487 19.138431983946084 5.887574688912759 0 0 0
494 1 18.259003356630465 19.165179455787204 8.076044011192064 0 0 0
521 1 20.418580039083892 21.074918519553265 7.807589723535633 0 0 0
379 1 22.389474980350386 21.242965232183806 5.911718860391748 0 0 0
498 1 22.18020331298591 19.323396720469013 7.914823879001869 0 0 0
384 1 24.211039770107938 23.326079816053436 5.664236077140453 0 0 0
526 1 2.124959476310292 22.90031865130912 7.964355792447687 1 0 0
363 1 6.118438134150863 20.826531485788628 5.709428341349087 0 0 0
364 1 3.892162783880673 22.876926347841952 5.938808009167948 0 0 0
505 1 4.0461541701329935 20.922682149286082 7.717299095303773 0 0 0
368 1 8.199718994540635 22.8591029360309 5.925666628970481 0 0 0
510 1 10.262820445251876 22.994269696294566 7.8243838268219825 0 0 0
372 1 12.066681394225306 23.095814847801556 5.859758885669807 0 0 0
371 1 14.25757367757701 20.878843476908003 5.92575217332821 0 0 0
376 1 16.115061786616927 23.140889705998056 5.618727000023707 0 0 0
375 1 18.588377273332668 21.060669408716656 5.972823152354962 0 0 0
380 1 20.328763482854285 23.101150844218253 5.7119737870456735 0 0 0
518 1 18.467696763638536 23.091225514589624 7.6638232480230855 0 0 0
522 1 22.435306134572627 23.120722335310347 7.763226679098636 0 0 0
550 1 1.8088690887210581 2.435191615712865 7.9009060365796735 1 1 0
551 1 2.061997320466792 0.6856365831163952 9.774963413037252 1 1 0
530 1 5.608783065964502 2.7928588257132527 7.967561037688931 0 1 0
532 1 4.178451342196591 2.412816553710673 9.773210864683584 0 1 0
531 1 6.129799614386074 0.8739522467224301 9.96683640721176 0 1 0
534 1 10.100013236278167 2.3436714097639806 7.779757634373281 0 1 0
536 1 8.264823965268452 2.4524939777858834 10.404631372505143 0 1 0
535 1 10.217372071887524 0.3763476694543325 9.84302687341798 0 1 0
540 1 11.896907296150534 2.6355622819803246 9.965540819860438 0 1 0
544 1 16.181862865966153 2.430421378214113 10.043312725315207 0 1 0
539 1 14.458063735556003 0.4493750982612621 9.978267443366823 0 1 0
548 1 20.16224948536498 2.507917491857011 10.106064517235595 0 1 0
543 1 18.498635891868425 0.545058123113739 9.88100411372866 0 1 0
552 1 24.28392960165663 2.6072103005713383 9.818593420775844 0 1 0
547 1 22.635094168957202 0.3940848362248901 9.970059815086193 0 1 0
574 1 1.4347101635702508 6.880301122500907 7.629518655334103 1 1 0
575 1 1.858500038282894 4.7264720923108 9.67050958889736 1 1 0
554 1 5.702557994527864 6.704014805789448 7.932144168983941 0 1 0
555 1 5.679011867263396 4.787650407755938 10.030580342036938 0 1 0
556 1 3.801079847375232 6.797359950067598 10.083880889804126 0 1 0
558 1 9.808155445283075 6.494545003065481 7.666675761434787 0 1 0
559 1 9.957935746674307 4.150565015697136 9.664377774477686 0 1 0
560 1 7.970904041528117 6.542739292678707 9.853475450958442 0 1 0
564 1 11.910395800231962 6.2514977118941735 9.77374980503523 0 1 0
563 1 14.445321060404543 4.62026825560608 9.564905908681295 0 1 0
568 1 16.143117604500958 6.691465420013537 10.021729517816272 0 1 0
567 1 18.036739978966402 4.58623955350268 10.126418335928351 0 1 0
572 1 20.212762093852398 6.730073747685918 9.692428202121535 0 1 0
570 1 22.145435275177753 6.755701791139633 7.952521045630371 0 1 0
576 1 -0.02683627968230695 6.907893691626367 9.985102176006817 1 1 0
571 1 22.08334220452401 4.851391832433699 10.068168470574467 0 1 0
453 1 24.457896501305285 8.589686808430406 7.971563321003076 0 0 0
455 1 1.893470501203037 8.484761497848845 10.02787182987008 1 0 0
433 1 3.5457573499283317 8.598094654600525 7.803057323877862 0 0 0
434 1 5.586251210900871 10.487540796954018 7.938004566897202 0 0 0
435 1 6.1269722590485 8.737208819729513 10.133996565709571 0 0 0
437 1 7.81237562038981 8.386432201915811 7.812904593440974 0 0 0
439 1 10.10000507832007 8.692973920714744 9.820044870331147 0 0 0
443 1 14.200444215204397 8.398963935518546 9.642360015377813 0 0 0
447 1 18.16784099748132 8.928194028200833 9.785355420808479 0 0 0
450 1 22.050510128248355 10.492829109405102 8.082870946812102 0 0 0
451 1 22.459230785790552 8.747921836509564 10.04887292409584 0 0 0
456 1 24.31935486789688 10.74524914268081 9.76905238681146 0 0 0
479 1 1.7908334406540583 12.780343894417461 9.856705160590401 1 0 0
457 1 3.672586284580023 12.681324956987591 7.566084222838898 0 0 0
436 1 3.8834303004578548 10.515706162550108 9.880783115459733 0 0 0
459 1 5.881880360002524 12.695175063222619 10.151716696228975 0 0 0
440 1 8.180638920989797 10.662944271497603 10.03627951852059 0 0 0
465 1 11.978608947856095 12.600561974835232 7.740315985623788 0 0 0
463 1 10.15607381389522 12.567244457991254 9.456526878545242 0 0 0
444 1 12.253522334901255 10.554420186898692 10.015122896086707 0 0 0
448 1 16.127428292902692 10.88597973068262 10.017735537893092 0 0 0
469 1 15.877326019310201 12.916007946364614 7.617983575274234 0 0 0
467 1 14.200303070421002 12.80508582499427 9.835488603969733 0 0 0
452 1 20.161478313319563 10.801212286029463 10.016373526919187 0 0 0
471 1 18.108580216267434 12.749842712461994 9.730546056496172 0 0 0
475 1 22.29972910820392 12.677981481291866 10.241447619411458 0 0 0
503 1 1.7672685637632395 16.68162012927673 9.838702138697396 1 0 0
480 1 24.325138779873377 14.616672565520807 10.22363336174574 0 0 0
481 1 3.480251215213422 16.64303542367462 7.726092558491391 0 0 0
460 1 3.978332889103659 14.791379441752447 9.93868018286074 0 0 0
483 1 5.582022297570217 17.0201062935241 9.91254406720511 0 0 0
462 1 9.730918386852212 14.627962317288791 8.04831336222001 0 0 0
485 1 8.072326001017 16.84151173934437 7.714039820891916 0 0 0
464 1 7.8229979100233535 14.77063910022901 9.997841725704221 0 0 0
487 1 9.708769140302211 17.095104689511444 10.450933662741422 0 0 0
468 1 11.76404257922487 14.673670039562454 10.065314710484925 0 0 0
491 1 13.9856182261515 16.766563722053355 9.672011248044749 0 0 0
472 1 16.271960646860165 14.931547004495602 9.956912497450226 0 0 0
637 1 16.68891272821245 16.874807474240015 11.812984008348218 0 0 0
476 1 20.364758511920698 14.640359968115511 9.790766807928966 0 0 0
495 1 18.486032454186855 17.030985793941866 9.797858547216915 0 0 0
474 1 22.36930189622771 14.607520532403566 7.975859788614997 0 0 0
499 1 22.692179175441304 16.940919083876693 9.728680572989225 0 0 0
618 1 22.32552914222412 14.879323661917061 12.021625393964925 0 0 0
504 1 -0.11723593462939874 18.809525353039888 10.170420053123584 1 0 0
525 1 24.474109224950027 21.13321236459661 7.7025507935150355 0 0 0
484 1 3.6093701230787243 18.854446230393684 9.843947846292702 0 0 0
507 1 5.909112835095434 20.98820178136682 9.883677201290077 0 0 0
649 1 4.156473865155341 20.953309110247886 12.026920293026176 0 0 0
488 1 7.95878045153988 19.08944885404059 10.009902773675755 0 0 0
511 1 10.132524107710717 20.883890804389672 9.903991615070286 0 0 0
492 1 12.080768515027579 18.956627176847704 9.907018308299909 0 0 0
496 1 16.064096207636887 18.75420512110454 9.887021229412856 0 0 0
500 1 20.540203631889717 19.36678489586034 10.317325868120141 0 0 0
523 1 22.75531380371531 21.093454652798236 9.667036552565184 0 0 0
527 1 1.8177582339181884 20.80495897072545 9.81393834784158 1 0 0
528 1 -0.05359566725695725 23.068580710919306 9.89346456336227 1 0 0
508 1 4.043865512556643 22.96746142966107 10.213223442946019 0 0 0
506 1 5.926925165141346 22.832716271426378 7.801094456652729 0 0 0
512 1 8.098042435041304 23.15470138423145 9.672897794090398 0 0 0
516 1 12.076996029647288 22.996741329225344 9.776819904751546 0 0 0
515 1 14.291344149360995 21.025747698362686 9.80018212027748 0 0 0
517 1 16.349931427398353 21.303081746272845 7.773121217945862 0 0 0
514 1 14.204122962688013 22.890492031428302 7.931752196459264 0 0 0
520 1 16.459806577577567 23.316347356898476 9.941409842917956 0 0 0
519 1 18.469535799141987 20.999363269096953 9.897228501191057 0 0 0
524 1 20.61310541519604 23.121641066794716 9.62120739967331 0 0 0
694 1 1.7625982255061847 2.6048732932434824 11.764154118645566 1 1 0
695 1 2.059840532727101 0.7857365646225075 13.790092263325818 1 1 0
696 1 24.416286538319543 2.4129917234777922 14.04881178867453 0 1 0
676 1 3.8388607913545325 2.798661455922016 13.737018170435753 0 1 0
674 1 6.0508377956279285 2.8259771971781915 12.147540009752007 0 1 0
673 1 4.163315690776152 0.7397887723380586 11.758367046769209 0 1 0
675 1 5.843758132351787 0.820736878390796 14.141096807319247 0 1 0
680 1 8.253631992285547 2.5689042084933154 13.83966567377525 0 1 0
678 1 10.1279007649967 2.48381072632745 12.002918157801489 0 1 0
677 1 8.16849326266202 0.3081849789220858 12.151248416022845 0 1 0
679 1 10.328873494446295 0.7675371287291961 14.11569781935814 0 1 0
684 1 12.241352032210605 2.7685131427894047 14.172652734176943 0 1 0
681 1 12.378778266226012 0.5428250964729814 12.020050630182652 0 1 0
682 1 14.329411916917099 2.3555458467423755 12.13536638026023 0 1 0
688 1 16.204970095738666 2.7084136911648056 13.861789913018615 0 1 0
685 1 16.42242747003253 0.5363702071550626 12.122999766959397 0 1 0
683 1 14.378661819933843 0.42829403797010224 14.241386575615387 0 1 0
686 1 18.35565293880677 2.570936703855953 11.884745016771975 0 1 0
692 1 20.455015675418004 2.9170820765869165 13.934403740435556 0 1 0
689 1 20.268634221094636 0.5142512919307883 12.036007632890243 0 1 0
687 1 18.250485841872205 0.5765762191750451 14.031989580046556 0 1 0
690 1 22.36263132510492 2.5346173995504007 12.19219352714122 0 1 0
691 1 22.512018981373302 0.7317996290574525 14.101932267765548 0 1 0
693 1 -0.16791672615702424 0.4633012501225424 11.671194075204495 1 1 0
719 1 1.7923262281251298 4.347078443890074 13.996389479999603 1 1 0
718 1 1.6462507872778696 6.447243767784239 12.410241031694968 1 1 0
720 1 -0.11651085150018363 6.877776645068622 14.315876801831212 1 1 0
717 1 24.390039455244892 4.616136087359134 11.991821891147833 0 1 0
697 1 3.6739107977576806 4.858320629690978 11.883316035606088 0 1 0
700 1 4.058549448282 6.796158379950748 14.090070780041298 0 1 0
699 1 5.90579329722973 4.868799031039962 14.363253070335876 0 1 0
698 1 6.050209265218915 6.9050120167753475 12.127657093012347 0 1 0
701 1 7.624811046412285 4.679243487837974 12.357154309259588 0 1 0
703 1 10.182167553117514 4.622683838324988 13.772703315094656 0 1 0
704 1 8.31154134814346 6.392951452966749 13.998637301280436 0 1 0
702 1 9.884217727356178 6.523457147547904 11.672210357637782 0 1 0
705 1 12.51845540146491 4.5696165521128975 11.950357070624165 0 1 0
708 1 12.252366018281547 6.675598944697822 13.890282238829293 0 1 0
707 1 14.336786361278525 4.622302965448166 14.074028831044522 0 1 0
706 1 14.317034515537316 6.792750044519325 12.023108216942015 0 1 0
709 1 16.020874100172037 4.624936820445767 11.953545729984919 0 1 0
712 1 16.189353597469086 6.767651758448925 14.054665751200172 0 1 0
713 1 20.677132454284767 4.653353571257022 12.110575884243657 0 1 0
711 1 18.17295232279446 4.591081324521348 13.880183277163326 0 1 0
710 1 18.12412955040157 6.8537402250578445 12.068034100450614 0 1 0
716 1 20.22516119033154 6.8218496646175435 13.778023305183186 0 1 0
715 1 22.674026213073304 4.696013359162854 14.070503461606513 0 1 0
714 1 22.404934858870206 6.717451652176294 11.926192854234442 0 1 0
599 1 1.8800965897761706 8.624342760309528 13.961513312654326 1 0 0
597 1 -0.18463808866685788 8.525623087947926 12.001503010515275 1 0 0
577 1 3.831911119865463 8.701432953553454 12.078404586207123 0 0 0
579 1 6.005367121896364 8.759412579851759 14.101703534823756 0 0 0
583 1 9.993193443007762 8.678005957290253 13.955701091716119 0 0 0
581 1 8.192463983826544 8.628480875537324 11.99309596752895 0 0 0
585 1 11.97505792785482 8.454117062789795 11.910178440328487 0 0 0
587 1 14.016156689201948 8.797710238047038 13.947150098743538 0 0 0
589 1 16.193746594893156 8.775389836984393 11.7104432020703 0 0 0
591 1 18.097320853358482 8.548479012625544 13.872606444354954 0 0 0
593 1 20.343137902302615 8.59837343908118 11.98965792902541 0 0 0
595 1 22.309676627327413 8.73163727369732 14.023808290664093 0 0 0
598 1 1.691324389039016 10.63708421980511 11.924453843379428 1 0 0
623 1 1.9130722250956569 12.771674126817555 13.790707384277749 1 0 0
600 1 -0.06025793260548512 10.48356679048138 14.17329612512954 1 0 0
580 1 4.046962903082933 10.596032966707105 14.044221928746683 0 0 0
578 1 6.156002647570708 10.41685699227111 12.243688115497006 0 0 0
601 1 3.692594716420964 12.686941451224168 11.962371148023832 0 0 0
603 1 5.6718109591921655 12.804938652207305 14.01420642071778 0 0 0
584 1 8.096853541229983 10.796845147682443 14.280641317284967 0 0 0
582 1 10.05970162223442 10.67650565820684 12.313390667174902 0 0 0
605 1 8.089683826929576 12.792900590175654 11.837907325503904 0 0 0
607 1 9.971292147698342 13.102708163546453 13.957680591979447 0 0 0
588 1 11.873446875916352 10.89982384294135 14.273547370937564 0 0 0
609 1 11.98962617228724 12.591591258601953 12.167986790718212 0 0 0
586 1 13.861756465856429 10.464114063966553 12.05450235140532 0 0 0
592 1 16.04645080907617 10.68390287501125 13.787896672744107 0 0 0
611 1 14.341847932534186 12.67783482086039 14.109262315726404 0 0 0
613 1 16.485679772690517 12.660035682206948 12.00848209538325 0 0 0
590 1 18.442707951433555 10.671330135472092 12.129428597883104 0 0 0
596 1 20.340088103910503 10.614642162831068 14.151865184497773 0 0 0
615 1 18.208632224230392 12.459208224928231 14.277293440450848 0 0 0
617 1 20.133252204689015 12.745424076764632 12.128233454918991 0 0 0
621 1 24.39504755634693 12.732698711411395 11.929805113227902 0 0 0
594 1 22.38029309035725 10.577664100784947 12.185503928943643 0 0 0
619 1 22.443448354676086 12.735770797219972 13.87088001222293 0 0 0
622 1 1.9324576632367387 14.810671318094151 11.852232255615657 1 0 0
647 1 1.8834287637298264 17.09858775159416 14.064954984231488 1 0 0
624 1 -0.11367419250777623 14.535246169296206 14.07152009879567 1 0 0
604 1 3.600021809650644 14.832064899719605 14.099855896796072 0 0 0
602 1 5.847060814263686 14.90414316461267 12.208486944061503 0 0 0
625 1 3.6998771908681545 17.028433678845616 12.073462937278736 0 0 0
627 1 5.920182794362763 16.962802742671407 13.961136937234908 0 0 0
608 1 7.905850949178435 15.076290904416055 14.135502818809279 0 0 0
629 1 7.811460049712009 16.949962241888855 12.104996478264573 0 0 0
631 1 9.889575230269587 16.788630146874446 14.359419020301715 0 0 0
606 1 10.045693069474451 15.030206985363494 12.09375634410326 0 0 0
612 1 12.096589130656213 14.99025387648846 13.96345571276212 0 0 0
633 1 12.004093575858661 16.76064775296029 11.95543092867601 0 0 0
635 1 14.204098561721644 16.68838921986984 13.681874401229734 0 0 0
616 1 16.279606584531052 14.63331607374163 13.796452340614028 0 0 0
610 1 14.299952937722813 14.898549091741232 11.695374125887747 0 0 0
620 1 20.1589273814305 14.680401022078689 14.320445944630954 0 0 0
614 1 18.503959856761647 14.863129235035345 11.831839907845865 0 0 0
639 1 18.571466578653123 16.950628210705545 13.840341487358689 0 0 0
641 1 20.437587894530957 17.084960129062033 11.751597186537701 0 0 0
645 1 -0.19440756814192295 16.760485066988792 12.008196216699092 1 0 0
643 1 22.341358847759274 16.825876899070153 13.988484758481174 0 0 0
646 1 1.8709147057017312 18.88485197451974 11.986619513243374 1 0 0
669 1 24.219522351885683 21.04693051610559 12.152023034533373 0 0 0
628 1 4.127879383404946 18.845274379964053 13.920103335271502 0 0 0
626 1 6.047728633866514 19.080052273350546 11.95768044680345 0 0 0
632 1 8.0519816481971 18.970353641959974 14.238878307809426 0 0 0
630 1 10.170278015509716 19.33441499853013 12.182800415474908 0 0 0
653 1 8.131661217089505 21.053205928597876 12.173259176229669 0 0 0
655 1 10.43670719440871 21.216008649600496 14.369204345144983 0 0 0
636 1 11.948344616267287 19.029099220541845 13.969298240283635 0 0 0
634 1 14.288979879227695 18.72948724311035 11.764173382634464 0 0 0
659 1 14.379226340838004 21.115941514819085 13.949645009333189 0 0 0
640 1 16.330723017679915 18.73127651555886 13.774649679965439 0 0 0
661 1 16.45176200523772 21.06192659500632 11.573894235777408 0 0 0
638 1 18.44547168681443 19.466321013896497 12.00979748793863 0 0 0
644 1 20.34499642420178 18.918227241015202 13.934141188078979 0 0 0
665 1 20.289869949328313 21.34563517446923 12.235836905970432 0 0 0
648 1 24.392495169762874 18.933598121055937 14.00611351010932 0 0 0
642 1 22.481660989450866 18.763517969577258 11.782075987581603 0 0 0
671 1 1.9627843680100119 20.845549572190578 13.674378119855522 1 0 0
670 1 1.8913674042268243 23.257024422243234 11.937142366548247 1 0 0
672 1 0.04668621825959898 23.01301052776047 13.943223533901282 1 0 0
651 1 5.853776512025931 20.90898811996461 14.100699990627678 0 0 0
652 1 3.9606066271672518 23.46184372464242 13.744321529720185 0 0 0
650 1 6.130115818050592 23.230686794652577 12.039733915207655 0 0 0
656 1 7.974532554862657 23.028872965399017 14.143752924797905 0 0 0
654 1 10.338047854883152 22.880809735587555 11.847608047902472 0 0 0
657 1 12.225524686445297 21.163668069009347 11.988962072862135 0 0 0
660 1 12.361638165324484 23.04164721907074 14.156169381916946 0 0 0
658 1 14.435058741232028 23.1684440373854 11.943648071794232 0 0 0
664 1 16.360419711158485 23.087610403577315 14.01108831978334 0 0 0
663 1 18.12937851962223 20.99604227033717 14.081602501140964 0 0 0
668 1 20.49585608555222 23.34900083275322 13.853092283097183 0 0 0
662 1 18.476104684974786 23.132617789688297 11.98774685135534 0 0 0
667 1 22.431077320737465 21.280712842962522 14.03431157103308 0 0 0
666 1 22.32475760227244 22.93955508304743 11.634681663813009 0 0 0
838 1 1.8662484406875177 2.877408362335169 15.901072389208181 1 1 0
839 1 1.9137000875220194 1.068630311465841 17.814391745466697 1 1 0
840 1 24.42062792607559 3.1151963612048013 18.07885238277295 0 1 0
837 1 0.009151620714027808 0.7478007448113356 15.973991743981962 1 1 0
820 1 4.009495246340985 2.7577723920422446 18.09282292273687 0 1 0
818 1 6.241358188133741 2.6557135002725367 16.17783828089894 0 1 0
817 1 3.792323236247932 0.9576129687842925 15.8959148666479 0 1 0
819 1 6.084229305694598 0.7647238191123151 18.110682757251553 0 1 0
822 1 10.107196358253507 2.7605050742467614 16.072488013307332 0 1 0
824 1 8.099389018422464 2.822850377377526 18.032775604931345 0 1 0
823 1 10.018856983879727 0.8207236993447088 18.263801251018688 0 1 0
821 1 8.125322151723397 0.40909547770742805 16.009162259829576 0 1 0
828 1 12.155355179560695 2.459747055350791 17.983942832365578 0 1 0
825 1 12.408683733586543 0.5131690744765931 16.00545397611413 0 1 0
826 1 14.40865272293941 2.634284123818721 16.067330486289695 0 1 0
832 1 16.308133841380588 2.722128331990594 18.04995924304265 0 1 0
829 1 16.284569113151463 0.6259760441750704 16.144851791698127 0 1 0
827 1 14.147814796876515 0.602435068403169 18.10879798574701 0 1 0
830 1 18.20935507498693 2.6590517568118064 15.91939624652171 0 1 0
836 1 20.45622409900095 2.6420764979882017 17.9265400491851 0 1 0
831 1 18.18074882175484 0.6355342747898179 17.92834666781665 0 1 0
833 1 20.34153639482694 0.7277782015511908 16.080554885550352 0 1 0
834 1 22.708922976600718 2.7835109289938123 16.169395017803435 0 1 0
835 1 22.567168934308505 0.6857959640398054 18.0619406190831 0 1 0
863 1 1.8578198369074084 5.009488136342748 18.000329515172115 1 1 0
862 1 1.7757082620714706 6.58364015276824 15.965461502381011 1 1 0
861 1 24.388059489638852 4.828995017588749 15.897554685044753 0 1 0
864 1 0.050367414372090025 7.037713758365976 18.22673754228746 1 1 0
843 1 5.736369546043947 4.783770644919531 18.2016070723852 0 1 0
841 1 3.724479959733392 4.752597931762069 16.11636574453353 0 1 0
842 1 6.183166220860974 6.568180652154206 16.104867442103078 0 1 0
844 1 3.7442112995470023 6.66955772433123 17.909709363802918 0 1 0
847 1 10.433330966861222 4.4208843461438665 18.097970179039958 0 1 0
845 1 7.997178229291409 4.709384140888817 16.14326438231148 0 1 0
848 1 8.045283883383854 6.842503203112842 18.15945981715273 0 1 0
846 1 10.286471308006009 6.412935948537849 16.214134333885546 0 1 0
849 1 12.145719248226076 4.649901492077969 16.183349426156717 0 1 0
850 1 14.101592873846185 6.59360326529258 16.113664949397297 0 1 0
851 1 14.161855853700656 4.837552030062218 18.463135422393993 0 1 0
853 1 16.30643082369226 4.722612755319305 16.085717103582343 0 1 0
856 1 16.293872476365436 6.957579048866204 18.20883589239774 0 1 0
857 1 20.541623457708766 4.775836965708111 16.039720433261195 0 1 0
855 1 18.16889823584379 4.860603799675594 18.29132135949468 0 1 0
854 1 18.450805737646128 6.49060316151739 16.06700350487404 0 1 0
860 1 20.348556087216593 6.885953209108345 18.326498450059283 0 1 0
859 1 22.341848457972944 4.712958100053093 18.162176577841137 0 1 0
858 1 22.280360627458435 6.833467945167439 16.065630068564584 0 1 0
743 1 1.7951483421332781 8.800978783318781 18.064894429553657 1 0 0
721 1 3.7668587963218614 8.546726861958792 16.117311588639694 0 0 0
723 1 5.845751284704124 8.641964602836708 18.284846889763838 0 0 0
727 1 10.19618484001625 8.763960330340034 18.029914894970762 0 0 0
725 1 8.292035155391032 8.209086895659631 16.19006130435915 0 0 0
726 1 10.05714292125709 10.719781154575056 16.177150265839817 0 0 0
852 1 12.157868593107198 6.543179896019802 18.015441264493923 0 1 0
729 1 12.104793082735775 8.667901390079068 15.980790498538031 0 0 0
732 1 12.22046353087167 10.855663852285025 18.085939560854225 0 0 0
731 1 13.935523186739765 8.963279053894208 18.09393096228775 0 0 0
733 1 16.004351244955707 8.957459448684764 15.998464430594527 0 0 0
737 1 20.162164069664634 8.335078112734555 16.07802006594733 0 0 0
735 1 18.357397308397942 8.616555853934624 18.339269968478753 0 0 0
741 1 24.433922419321302 8.831529248585298 16.07399950966062 0 0 0
739 1 22.43969045317109 8.66372138759926 18.20161433526293 0 0 0
742 1 1.903243388125409 10.790416211567395 16.460620742513825 1 0 0
767 1 2.0491815804305733 12.935873768515416 18.167530264706578 1 0 0
744 1 24.44016521287378 10.9507893202689 18.215762742441616 0 0 0
765 1 0.07003558739016202 12.795130968738349 16.176952712485868 1 0 0
724 1 4.191179301827336 11.08495094316453 18.33053211753937 0 0 0
722 1 6.0672807552745915 11.018267248385367 16.1420187885176 0 0 0
745 1 3.548953197801526 12.975089391943277 15.923757612515303 0 0 0
747 1 6.273788391954189 12.931240427426857 17.954748776527925 0 0 0
728 1 8.100050141094327 10.729386019280557 18.203809532816827 0 0 0
749 1 8.004685279532035 12.862262487280855 15.977085380511504 0 0 0
751 1 9.978494985573574 12.789307061679743 17.97488380038407 0 0 0
753 1 12.101858608574476 13.11449815718508 16.03712580487743 0 0 0
730 1 14.048343018948128 11.065104173338383 16.162394623651025 0 0 0
736 1 15.96367185921912 10.874267491208522 18.30695217483623 0 0 0
755 1 13.883623297038906 13.167711572606004 18.232792348343818 0 0 0
757 1 16.193414540063827 12.479602746949546 16.14693717524041 0 0 0
740 1 20.396680088106883 10.563786317920231 18.03236088690667 0 0 0
734 1 18.3667889163061 10.401619023034186 16.200005634397943 0 0 0
759 1 18.189912703545602 12.749339351069311 18.124519437736996 0 0 0
761 1 20.228760611915973 12.576337807143556 16.035751495524487 0 0 0
738 1 22.28769381808209 10.777282275729156 16.113155289313653 0 0 0
763 1 22.5239988988029 12.71697525124487 17.918081279355267 0 0 0
766 1 1.9026560727047386 15.099028553358318 16.348991850415405 1 0 0
791 1 1.5365580400923817 17.00256058156694 18.208338721332236 1 0 0
768 1 24.34726380844593 14.75324730249282 18.085990156210237 0 0 0
789 1 24.485999606856566 16.67379150574382 16.0305243870282 0 0 0
746 1 6.135206312785673 14.927678677512015 16.175876317384706 0 0 0
748 1 3.915225038697389 14.844018529528855 18.201365009295888 0 0 0
769 1 4.084626196079022 17.108078608899795 16.18674720221605 0 0 0
771 1 6.007827729212912 16.845241278215845 18.394464020387087 0 0 0
752 1 7.906656670528191 14.968223569128497 18.273145957970822 0 0 0
750 1 10.072669694872738 14.910473911990112 16.228714416006746 0 0 0
773 1 7.968443417163392 16.925409802367007 16.469019673062387 0 0 0
775 1 9.96666310792104 17.280492154261815 18.38579369608898 0 0 0
756 1 11.770694234332076 15.11545339552633 18.019873698783776 0 0 0
777 1 11.84174564693224 17.405614197835327 16.269324534747287 0 0 0
760 1 16.00753000841931 14.664846105607884 18.11151355708721 0 0 0
779 1 14.581087686759576 17.104661500990247 18.173700739688737 0 0 0
754 1 13.886092126132446 15.404811547549457 15.974321081609407 0 0 0
781 1 16.186803320530245 16.602975205086892 15.782976649838652 0 0 0
758 1 17.968362913207237 14.356881087007205 16.045339286489707 0 0 0
764 1 20.331082890351645 14.51415649993451 17.824283338907343 0 0 0
783 1 18.2489264848314 16.29950972826935 18.09216029186982 0 0 0
785 1 20.524834267298353 16.78145193069947 16.15796203462968 0 0 0
762 1 22.36075296941668 14.738176833470128 15.926713001164554 0 0 0
787 1 22.21086352844599 16.88627561042471 18.146971247458037 0 0 0
790 1 1.6980447706331925 18.898580774010156 16.081529181621 1 0 0
815 1 1.974215309604113 21.444723239940338 17.898824691191518 1 0 0
813 1 0.18240080258549174 21.170315371786216 15.951703469656486 1 0 0
772 1 3.7725119714126834 18.9365721671031 18.274558466893914 0 0 0
770 1 5.749412435401579 19.112979888252795 16.164813616378844 0 0 0
795 1 5.732040221654023 21.34021448924932 18.287931458192006 0 0 0
776 1 7.656561192973607 19.168831412906705 18.156114512796915 0 0 0
774 1 10.029320558377258 19.066239531752018 16.28216312829576 0 0 0
797 1 7.819811599472999 21.136045917010307 16.240366526572753 0 0 0
799 1 10.017259377507491 20.844029399701093 18.222866189102316 0 0 0
780 1 12.484539710863208 19.13191980044467 18.549725024848833 0 0 0
801 1 12.055047946063706 20.90583965097339 16.37345153161336 0 0 0
778 1 14.226737835179279 18.82001911061421 15.629463328119261 0 0 0
784 1 16.30238316157522 18.886131362121297 17.917773728250495 0 0 0
805 1 16.208434463942865 21.07231385229172 16.06911198983936 0 0 0
803 1 14.316630077762074 21.296362930032316 18.262116644307287 0 0 0
782 1 18.160615939360014 19.043968966633535 16.128256670722973 0 0 0
788 1 20.482033477448233 18.75497036829823 18.116977774317373 0 0 0
809 1 20.20317339480502 21.200212976501447 15.849041414875586 0 0 0
786 1 22.299440043099786 19.2885115873107 15.819355616909888 0 0 0
792 1 24.186804536061317 19.056259749568447 17.977826562897885 0 0 0
811 1 22.569756864612067 21.279064653185436 18.054171239862487 0 0 0
814 1 1.976321312647543 23.304328878237904 16.095859517726694 1 0 0
816 1 0.03520579011989611 23.551800689383427 18.164401815118076 1 0 0
793 1 3.7560885555463224 20.94787569903663 15.971168447934641 0 0 0
796 1 4.078911266425991 23.5153642070324 17.821396561230458 0 0 0
794 1 5.850165660432056 23.122379776192005 16.028778772413087 0 0 0
800 1 8.059524834953418 23.156053401036345 18.1510928965436 0 0 0
798 1 10.359545872509331 23.253576870203453 16.248736817463264 0 0 0
804 1 12.161662789365673 23.006400915309662 18.33590722651661 0 0 0
802 1 14.267685749149578 23.177856731709923 16.173816163725125 0 0 0
808 1 16.229186173281633 23.09804254371454 18.09953785547631 0 0 0
807 1 18.422228769947793 21.085901103835056 17.930820902876416 0 0 0
806 1 18.089760217883708 23.026577297010434 15.962879305562627 0 0 0
812 1 20.330841921658894 23.296151578792262 17.77299954664616 0 0 0
810 1 22.66263580719341 23.29624824182404 15.960404378500748 0 0 0
982 1 1.8605571692407334 2.787140753901434 19.957111611916016 1 1 0
984 1 -0.014493875105507925 2.61222535443453 21.911985893506973 1 1 0
981 1 -0.1317308922299049 0.6674232193194776 19.94403189654177 1 1 0
983 1 1.9711544034583186 0.6693743440415364 21.962991510534764 1 1 0
962 1 6.08235701341135 2.514784615572279 20.005119549170338 0 1 0
961 1 3.9809237313163868 0.5117454768984873 20.030449234534068 0 1 0
964 1 3.9942318694328964 2.6377796456563543 22.08261399083339 0 1 0
966 1 10.26403845874338 2.72568436663428 20.418102325205037 0 1 0
965 1 8.199330478156298 0.5103498037007764 20.217747885889402 0 1 0
968 1 8.038054007158317 2.832267593392648 22.324601943013093 0 1 0
967 1 9.89109445173924 0.5581013761468511 22.177407154641898 0 1 0
969 1 12.028573681527707 0.7500280343181098 19.866636661900596 0 1 0
972 1 12.526623546158486 2.1913691306300263 22.164899292530176 0 1 0
970 1 14.704051442570234 2.3008528265297556 20.347751639653513 0 1 0
973 1 16.55364798671745 0.326810696689924 20.310311923704692 0 1 0
976 1 16.421677889371757 2.7162260593252876 22.212383537795635 0 1 0
971 1 14.544730399797894 0.30984994853808945 22.322946105182133 0 1 0
980 1 20.426161134061694 2.5424430045032844 22.00957920134888 0 1 0
974 1 18.410935248258504 2.6038773635082433 20.124397295160946 0 1 0
975 1 18.312480012512417 0.921111194706149 22.061523015886014 0 1 0
977 1 20.433366135730815 0.9893850594716906 20.15446654071279 0 1 0
978 1 22.458331645693747 2.754590422430918 19.972196270031652 0 1 0
979 1 22.458293543808793 0.4779795891289337 21.880396690140014 0 1 0
1006 1 1.9386462122373764 6.961646221735756 20.478611104242802 1 1 0
1007 1 1.8360508705420697 4.735895151408945 22.167244369585294 1 1 0
1008 1 0.013035203131401718 6.8522832009380865 22.40479395205932 1 1 0
1005 1 0.16418088521319163 4.742748763553403 20.007792502068654 1 1 0
988 1 4.181702103560744 6.82292068588045 22.202179757265966 0 1 0
985 1 3.917053336088835 4.554048327964929 20.248345902591563 0 1 0
986 1 6.230387966206198 6.582794439326508 20.133673221358606 0 1 0
987 1 5.833909973120283 4.5070483896481095 21.96848585912614 0 1 0
989 1 8.528170072074955 4.760211949631893 19.927386417842104 0 1 0
990 1 10.288940519554496 6.765017461238484 20.13876027159901 0 1 0
992 1 8.379619765514866 6.3389385550652015 22.15884559458083 0 1 0
991 1 10.474792257892934 4.403306411480848 22.376305182548794 0 1 0
993 1 12.379115538316912 4.592262480770199 20.255897860913503 0 1 0
996 1 12.412870865422278 6.531882346922045 22.429574695209908 0 1 0
994 1 14.256042122406708 6.9348534659600425 20.14187654830215 0 1 0
997 1 16.355274670065796 4.837169628937058 20.545063461018078 0 1 0
1000 1 16.272441885413137 6.660641779921021 22.376290717174854 0 1 0
995 1 14.034926759735415 4.329574725044937 22.399070986417417 0 1 0
1004 1 20.54630096005195 6.457523273407329 22.484826698315125 0 1 0
1001 1 20.345277216547984 4.704438182446517 20.230216583701925 0 1 0
998 1 18.25653564372562 6.744997205700674 20.27169219851742 0 1 0
999 1 18.409689598255135 4.471668729685546 22.38010715631826 0 1 0
1003 1 22.75783285409493 5.004445497802593 22.58079563637249 0 1 0
1002 1 22.481641515956944 6.231988479422947 20.223302638369834 0 1 0
887 1 2.1359296984942833 8.53994876355943 22.55027976461713 1 0 0
885 1 24.4770489498207 8.985184468396211 20.235757257718028 0 0 0
865 1 4.039783291299532 8.747404143171233 20.163855782888152 0 0 0
867 1 6.438253477594176 8.766203045361095 22.393696382791724 0 0 0
869 1 8.20671837505987 8.653821797263397 20.270289369326115 0 0 0
871 1 10.55541103093336 8.7160690434951 22.46642519328227 0 0 0
873 1 12.008587524436505 8.758314889150393 20.02834531940821 0 0 0
875 1 14.161073688110946 8.559740990236836 22.142197821155907 0 0 0
877 1 16.080039721891836 8.924157313893614 20.11069710247435 0 0 0
879 1 18.35319482554418 8.77640832985668 22.346929992227224 0 0 0
881 1 20.178188052271814 8.725371954853086 20.295935835522386 0 0 0
883 1 22.493896040224975 8.849052831823608 21.831518765374685 0 0 0
911 1 1.9204306094281174 12.534620426195076 22.198967835401664 1 0 0
888 1 -0.009053139781934838 10.799663549736177 22.33546709473476 1 0 0
886 1 1.9129669368958946 10.549313488112103 20.158272007418564 1 0 0
891 1 5.961723481041912 12.753281145725243 22.079630658909828 0 0 0
866 1 5.957325488903524 10.571646473997799 20.14636503897496 0 0 0
868 1 4.102187856811249 10.589318610741602 22.39065567844371 0 0 0
889 1 3.7178454179383578 13.101380477423097 20.34943674336726 0 0 0
872 1 8.210781392785117 10.719532501306865 22.025216475616702 0 0 0
895 1 10.038519118462965 12.770264551187056 22.336473379977505 0 0 0
870 1 10.306057866809542 10.782237362429298 20.34496432705962 0 0 0
893 1 8.326078503089906 12.726049120088623 20.32227693747139 0 0 0
876 1 12.405297906697536 10.789395633535317 22.323608911733107 0 0 0
897 1 11.912394369565755 12.837205696074639 20.04847107725986 0 0 0
880 1 16.232470744368136 10.713631330564418 22.31431640617449 0 0 0
874 1 14.074342866395389 10.861902941857693 20.32232602394174 0 0 0
901 1 16.090512392444992 12.676719766715525 20.20017785661669 0 0 0
899 1 14.232351223092138 12.652674521457845 22.18782988319148 0 0 0
878 1 18.15416731707858 10.729977546898851 20.02023410565461 0 0 0
884 1 20.18145630545169 10.857398171420288 22.277160365338897 0 0 0
903 1 18.129642315525885 13.032337903456131 22.47523183454813 0 0 0
905 1 20.376265958490237 12.37753219039895 20.196134973088324 0 0 0
909 1 24.27779090372671 12.844888617899336 20.133618783245876 0 0 0
907 1 22.54588569549417 12.210251001234163 22.0267775653057 0 0 0
882 1 22.314783760806584 10.71862189780282 19.834266955120018 0 0 0
910 1 1.6969995462259249 14.574864205837338 20.153196170611825 1 0 0
935 1 1.6359116748555513 16.625796621998425 22.327121248680704 1 0 0
892 1 3.9117371797815945 14.79447493184178 22.24775184612965 0 0 0
890 1 6.058206291972763 14.582572150600216 20.223082302745865 0 0 0
913 1 3.6530667716334575 16.652118546439596 20.083015747796935 0 0 0
915 1 6.002009063005286 16.800177315363015 22.41508517885634 0 0 0
896 1 8.070848485913478 14.732116493580557 22.605094322206025 0 0 0
894 1 10.263340249028664 15.274914193622593 20.092239481466848 0 0 0
917 1 7.983445379352597 16.838970942637516 20.568503881147237 0 0 0
919 1 10.100374851065343 16.947448002391447 22.244701062034668 0 0 0
921 1 12.368004243036214 17.299629563832085 20.31555190093201 0 0 0
900 1 11.975565126664758 14.922584666472563 22.152249477029986 0 0 0
898 1 14.001757730891566 15.070995130181977 20.19539651122013 0 0 0
925 1 16.353933343803305 16.80008423292861 20.042862804516844 0 0 0
923 1 13.970580257135254 16.98157437988545 22.387421284280006 0 0 0
904 1 15.812093419428072 14.939752568754162 22.428627743501437 0 0 0
927 1 18.025060567375156 16.520491689746194 22.23115147121152 0 0 0
902 1 18.53805131881009 14.531777937845302 20.110080213857824 0 0 0
929 1 20.36161046735537 16.998303485672196 20.228059390324656 0 0 0
908 1 20.194556444975525 14.966004258126306 22.288514072002904 0 0 0
933 1 24.390886839456392 17.086632834634024 20.044165787086943 0 0 0
906 1 22.319266613278813 14.851295500733453 20.231531727068457 0 0 0
931 1 22.695707418376223 17.016096276738402 22.283089155802344 0 0 0
959 1 1.7818752109886231 21.064360276334213 22.20947337445239 1 0 0
934 1 1.72343755475996 19.33268619473683 20.115824603600306 1 0 0
957 1 -0.08775729635122896 21.32416681292451 19.990206911045128 1 0 0
916 1 3.846803120446988 18.712688501931865 22.244397889934273 0 0 0
914 1 5.732041502229609 18.973249216322607 20.121198687058207 0 0 0
937 1 3.7849491011987344 21.04241840386601 20.420820467003335 0 0 0
918 1 10.323266495689158 19.02063613150745 20.340103553978853 0 0 0
941 1 7.889616439235658 20.87928005724227 20.24099850465356 0 0 0
920 1 8.024155637281009 19.026888519659884 22.124006493790578 0 0 0
943 1 9.731409920011668 21.093304930039785 22.41529652656742 0 0 0
945 1 12.266607457346577 21.082704982651748 20.41083351895602 0 0 0
924 1 12.057603825857615 18.82903109783988 22.484015075601715 0 0 0
928 1 16.208784644025016 18.738189974249956 22.038795237588328 0 0 0
922 1 14.416870341006266 19.081881421685893 20.182480991022768 0 0 0
932 1 20.272357821546905 19.0636932840492 22.145878759841203 0 0 0
951 1 18.402910314935568 21.251258350412634 21.930722801756932 0 0 0
926 1 18.574015831781296 18.823972711429654 19.93428017505088 0 0 0
953 1 20.51470156592802 21.007442543982464 20.063344164266276 0 0 0
936 1 24.441742252778724 19.223423211041762 22.332304621722656 0 0 0
955 1 22.46964312910749 21.083003157954643 21.810715001667987 0 0 0
930 1 22.562044626529634 19.059935870390397 20.091536789194116 0 0 0
960 1 24.42495586526422 23.36153823667663 21.958129934067124 0 0 0
958 1 2.223459292825393 23.242778497394745 20.090073342467267 1 0 0
963 1 6.115730085746185 0.5896149263139076 22.48131890072885 0 1 0
939 1 5.980583504408148 20.877249837696212 22.31108980034164 0 0 0
938 1 5.799048323936703 22.993528927743505 20.322207873405382 0 0 0
940 1 3.7575690337267154 23.229927116856565 22.429431311378984 0 0 0
942 1 9.991253608290215 22.996336136554426 20.276413118741974 0 0 0
944 1 7.8644655400990136 23.164629712373333 22.14607723960283 0 0 0
948 1 12.461983733875082 23.100604362133325 22.265297214166576 0 0 0
947 1 14.426277676350855 21.253466287030655 22.08832214142567 0 0 0
949 1 16.58385031544934 20.655441343300424 20.118789111372184 0 0 0
946 1 14.071733032856004 23.53438329368094 20.199104649138498 0 0 0
952 1 16.53487971727955 23.023406005156808 21.82257546830605 0 0 0
956 1 20.34615693997126 22.998569753897677 21.80563135736342 0 0 0
950 1 18.516658102930307 23.214308368536912 19.979093660377593 0 0 0
912 1 24.120589519372302 14.425383061375502 22.19364936338529 0 0 0
1126 1 1.8533582530448545 2.5771854349608034 23.892806687518725 1 1 0
1125 1 -0.18966024650865165 0.21698466704933583 24.215514970168726 1 1 0
1128 1 24.400842774510185 2.294368859641176 26.016773535921384 0 1 0
1106 1 6.1654382297084815 2.898891797875913 24.15787700394524 0 1 0
1105 1 3.7769198711643974 0.8152915673554043 24.431630429683104 0 1 0
1108 1 4.101469486192685 2.6640047346697666 26.045079507615153 0 1 0
1110 1 10.312921978528578 2.246683799529355 24.328866148253137 0 1 0
1109 1 7.932557203338755 0.46076019523226064 24.470629766548374 0 1 0
1112 1 8.457520989781422 2.5687583996359353 26.219420601616008 0 1 0
1113 1 12.367378969375054 0.2964393456875363 24.26928258234332 0 1 0
1114 1 14.254449346070892 2.3027673872293457 24.187721080710723 0 1 0
1117 1 16.465977119263144 0.5439663840867367 24.272344276722766 0 1 0
1120 1 16.56112374426938 2.393097101143832 26.42307496480283 0 1 0
1115 1 14.457859212126486 0.42784444691267676 26.34315469342222 0 1 0
1118 1 18.538963676161607 2.5760021893367364 24.29689551920115 0 1 0
1121 1 20.57094423866885 0.5003195583448076 24.10768360632139 0 1 0
1124 1 20.560024103291823 2.3930987681070612 26.35097624731583 0 1 0
1122 1 22.56737501196836 2.4780566401840733 24.208978334316374 0 1 0
1123 1 22.475341555805144 0.35757451338851576 26.48847047510677 0 1 0
1150 1 2.010635928666175 6.393787612934314 24.295838131968917 1 1 0
1149 1 -0.06637102724767857 4.52984364142477 24.483550787508015 1 1 0
1151 1 1.7893636244486812 4.383505661701287 26.405767599482125 1 1 0
1129 1 4.241988960704453 4.6811131187165955 24.262511363518804 0 1 0
1130 1 6.377203428002128 6.680679678038846 24.276030740504062 0 1 0
1131 1 6.063409960937362 4.747470496284841 26.3822552110225 0 1 0
1132 1 4.1678386685651025 6.666843114165308 26.30742503562947 0 1 0
1133 1 8.431124760012786 4.705274064005146 24.31699991945807 0 1 0
1134 1 10.336555518785897 6.615927374307459 24.02738069866881 0 1 0
1136 1 8.130471642712807 6.660481575980302 26.327538809019803 0 1 0
1137 1 12.217308736470507 4.198612784899903 24.395280635654053 0 1 0
1138 1 14.13213957345008 6.372691166734337 24.347869225077716 0 1 0
1141 1 16.19603474293754 4.1823834994140014 24.55560112273761 0 1 0
1139 1 14.22226335294782 4.292946629850298 26.417155745763488 0 1 0
1144 1 16.27050696352046 6.132516592260764 26.381286678888795 0 1 0
1145 1 20.6009926416167 4.442393609637925 24.251819939403465 0 1 0
1142 1 18.543898138330533 6.36074754072471 24.495257970384646 0 1 0
1143 1 18.709595954208453 4.580541457788656 26.535290067848056 0 1 0
1148 1 20.53983834260047 6.492378236752831 26.078108502376548 0 1 0
1146 1 22.54670098862311 6.827104206827366 24.414396244422935 0 1 0
1152 1 0.09253699246714275 6.83685618668181 26.145467702413104 1 1 0
1147 1 22.739664801055348 4.2614243351296315 26.221651302588818 0 1 0
1030 1 1.9013178414582805 10.439523367368578 24.285558454441766 1 0 0
1009 1 4.1898680207916845 8.353837860608031 24.309468966409966 0 0 0
1011 1 6.1736808593740395 8.835882737216378 26.334431474981443 0 0 0
1013 1 8.52375897857962 8.712570551797715 24.511599447742846 0 0 0
1015 1 10.298404238950356 8.52416672638491 26.401730307714562 0 0 0
1017 1 12.25304206895623 8.623886217436167 24.54748519719762 0 0 0
1021 1 16.380492263156732 8.648777173404069 24.29774388301382 0 0 0
1018 1 14.140913403754524 10.552730934024147 24.49793394621301 0 0 0
1019 1 14.387391930374598 8.416286934240851 26.444273867203762 0 0 0
1025 1 20.37198563355455 8.678472176195463 23.96220161936408 0 0 0
1029 1 -0.017375713448466 8.836271380251516 24.394436569341973 1 0 0
1026 1 22.430496409057383 10.758819835693082 24.377081127067388 0 0 0
1027 1 22.39762545261963 8.786895807111783 26.42257654603769 0 0 0
1032 1 24.445989116454115 10.761829420470095 26.347308354165452 0 0 0
1053 1 24.434769428906677 12.690618813125072 24.312361000080767 0 0 0
1010 1 6.213119903217311 10.876290910959058 24.109141051473955 0 0 0
1033 1 3.867363483900194 12.681606914844565 24.181191913552592 0 0 0
1012 1 4.054193279734245 10.662587804752917 26.048948363917074 0 0 0
1035 1 6.058206434129258 12.606569178217441 26.08135476875542 0 0 0
1014 1 10.452149090239647 10.744239884608174 24.318387035816286 0 0 0
1037 1 8.355244906411592 12.537946174814532 24.52286084560586 0 0 0
1039 1 10.125343245540579 12.512924936796868 26.497157026570584 0 0 0
1041 1 12.351179774833415 12.837845686089933 23.93641774470422 0 0 0
1045 1 16.249624897295902 12.6030216699817 24.61091107134624 0 0 0
1022 1 18.455207493931873 10.483010791757629 24.358942622854936 0 0 0
1028 1 20.34785742532587 10.871837444272556 26.42094194434286 0 0 0
1049 1 20.50083265171874 12.602792866614289 24.31208869491789 0 0 0
1054 1 1.4505244742850403 14.698664866723357 24.219104779971538 1 0 0
1815 1 22.375808688719275 21.035861357389898 47.07862046207061 0 0 0
1034 1 6.064510410183976 14.61393732611876 24.561890300329694 0 0 0
1057 1 4.413236721508704 16.542385425117267 24.55034944676572 0 0 0
1059 1 6.383708160186578 16.87037249716966 26.41908520702995 0 0 0
1038 1 10.001382839543195 14.62188945738404 24.36908540345871 0 0 0
1061 1 8.044121236929822 16.820373081394465 24.278888221729147 0 0 0
1040 1 7.953740090593078 14.733151271221283 26.564908250379634 0 0 0
1065 1 12.287811103371162 16.69124503620688 24.34319840206679 0 0 0
1044 1 12.382914042263014 14.518090279679456 26.523287515593353 0 0 0
1067 1 13.932945841974739 17.129773819237485 26.443917723469852 0 0 0
1042 1 14.066773846540654 14.650197288456017 24.405754202174503 0 0 0
1069 1 16.075210305717434 16.615492179235048 24.530817384020658 0 0 0
1046 1 18.17876504099347 14.894469134211342 24.489731634874744 0 0 0
1073 1 20.459128944885002 17.077513894408575 24.301308989610853 0 0 0
1050 1 22.32294535187181 14.737493245951045 24.197791052216864 0 0 0
1077 1 -0.14073328768033372 16.854266743294488 24.18956020627266 1 0 0
1056 1 24.191901800706393 14.662682987452424 26.47837512797658 0 0 0
1078 1 2.233433536655651 18.55811869705142 24.234535556865545 1 0 0
1103 1 1.8512303506114147 20.763711774877407 26.22369788484141 1 0 0
1101 1 24.363106939293043 21.096871277293893 24.160441826663416 0 0 0
1081 1 3.9351724210055377 21.372675732182103 24.539796209538043 0 0 0
1058 1 5.913297172064292 18.87903284708581 24.161479424384474 0 0 0
1060 1 3.9799467303102674 19.003535212541763 26.143495279918795 0 0 0
1062 1 10.010284385048 18.92882171714772 24.581870138882234 0 0 0
1085 1 7.702431978270613 21.04088764489883 24.168506268017772 0 0 0
1087 1 10.054661928982828 21.077338694318527 26.70742224146451 0 0 0
1064 1 8.254600223789895 18.79061227540565 26.44509372872248 0 0 0
1068 1 12.10081791419208 19.185885460007015 26.342158233782484 0 0 0
1066 1 14.2661558584371 19.10361927743694 24.04421598296548 0 0 0
1093 1 16.461072392960837 20.9917544772484 23.857877526892114 0 0 0
1070 1 18.17086733778936 19.019444495547184 23.999377931426892 0 0 0
1097 1 20.473298112658576 21.178771921972746 24.164107469285753 0 0 0
1074 1 22.155315426340678 18.945805634731897 24.052100768707593 0 0 0
1102 1 1.852662630210494 23.028676806965414 24.19369224865593 1 0 0
1082 1 5.785533199786103 23.417821508135873 24.545298230394096 0 0 0
1083 1 6.08829589584261 20.975915677225125 26.023287115999164 0 0 0
1084 1 3.7968703331947062 23.18210952148121 26.276155295580967 0 0 0
1086 1 10.095339586732425 22.975864560010223 24.190377746473015 0 0 0
1089 1 12.308263245393631 20.944557581412425 24.27573401209232 0 0 0
1091 1 14.494126865031145 20.989323203424895 26.044668021767077 0 0 0
1090 1 14.429221313479069 22.782893375796647 24.108015138962045 0 0 0
1096 1 16.288201606934223 22.89631587102769 26.18402819694136 0 0 0
1094 1 18.34408532752989 23.14789324670499 24.096260458785675 0 0 0
1098 1 22.32605014244892 23.113324541807977 23.97213462379405 0 0 0
1127 1 1.5819639745890082 0.4116848110072211 26.377060576018515 1 1 0
1270 1 1.6976224574327492 2.4829079618680168 28.171067513085504 1 1 0
1269 1 24.451863388084128 0.5232745161552128 28.560482499836223 0 1 0
1107 1 5.9128732436037135 0.8780552180443215 26.28414136122495 0 1 0
1250 1 6.1648569767431445 2.684994539789046 28.043497284426934 0 1 0
1249 1 3.9764558746925003 0.2773713934667777 28.273574217706713 0 1 0
1253 1 8.236789442932933 0.577578812159433 28.367150856530802 0 1 0
1254 1 10.124810175201494 2.574497106709383 28.33649653618611 0 1 0
1111 1 10.247901381776556 0.36934319803272886 26.0923975253932 0 1 0
1116 1 12.182636686694403 2.531671611876911 26.52052801835141 0 1 0
1257 1 12.331685238418565 0.2403871032239036 28.303824158515333 0 1 0
1258 1 14.513853440874927 2.330080575702554 28.3535797332714 0 1 0
1261 1 16.575599877466928 -0.03691028973084183 28.300151598865845 0 1 0
1262 1 18.57500128173315 2.247325926289117 28.431066183695183 0 1 0
1265 1 20.620706523376825 0.4639151509348801 28.530873159788356 0 1 0
1266 1 22.185080927521717 2.499021702355858 28.6543830878985 0 1 0
1294 1 2.073465830022179 6.65369522999105 28.336276230924426 1 1 0
1293 1 24.259645611150397 4.891688221938413 28.500680436143835 0 1 0
1273 1 4.039967433383657 4.457397178979517 28.295951017802075 0 1 0
1274 1 6.407887554370194 6.804359576626159 28.460466249968032 0 1 0
1277 1 8.380801689675588 4.558933180268602 28.0772967308547 0 1 0
1278 1 10.09879595804663 6.585857490219336 28.30186521997841 0 1 0
1135 1 10.273044535880302 4.561690657626206 26.25965845177061 0 1 0
1140 1 12.334417212714952 6.525307335758693 26.497875165314838 0 1 0
1281 1 12.390979603495866 4.555377242520973 28.28744993036555 0 1 0
1285 1 16.505145492574435 4.2650689148568715 28.476615793897608 0 1 0
1282 1 14.405564214830543 6.353353103793499 28.331109585811195 0 1 0
1289 1 20.668607695500583 4.512879797757897 28.398414801848578 0 1 0
1286 1 18.294107688323514 6.492543850562202 28.549612629492135 0 1 0
1290 1 22.495396970805835 6.704916267796463 28.350212646125552 0 1 0
1031 1 1.9399229676059337 8.60885293895614 26.38384194957835 1 0 0
1153 1 4.19941796424668 8.45005982305597 28.218200889913952 0 0 0
1157 1 8.278171839791773 8.699281081598716 28.500933534859765 0 0 0
1161 1 12.5419741347098 8.883260923120373 28.34869797967189 0 0 0
1165 1 16.519061472130446 8.536447157555656 28.330589114178835 0 0 0
1024 1 16.35039714579358 10.512862585430364 26.430515823964583 0 0 0
1023 1 18.64992148551913 8.291532721432194 26.511392649570393 0 0 0
1169 1 20.596098204569223 8.520366224501629 28.34139866882029 0 0 0
1173 1 24.493944924382387 8.45823608514683 28.411105472432173 0 0 0
1174 1 1.909772721504038 10.38487046018147 28.402187342463467 1 0 0
1055 1 1.961192531221461 12.473407939526917 26.556790423024875 1 0 0
1154 1 5.85181902076395 10.87916508716155 28.317217322388306 0 0 0
1177 1 3.793448144865059 12.60486921019702 28.345998294881504 0 0 0
1016 1 8.09542024948455 10.57804936879261 26.28373819884693 0 0 0
1158 1 10.031832901236642 10.820433902487324 28.436190743432455 0 0 0
1181 1 7.628878496463398 12.741967317816359 28.400579214127138 0 0 0
1020 1 12.192059157643708 10.708584478340086 26.49691145175307 0 0 0
1185 1 11.999045078644476 12.779599525771443 28.597277289372993 0 0 0
1162 1 14.559371538983978 10.713783848010234 28.377591497262912 0 0 0
1043 1 14.249463619708415 12.662786237663544 26.56037367091692 0 0 0
1189 1 16.21467776070274 12.887951829706811 28.502627467557716 0 0 0
1166 1 18.4675863381745 10.432555109878031 28.522268980065807 0 0 0
1047 1 18.224816948525913 12.420411429408945 26.58254149752824 0 0 0
1193 1 20.543438677824028 12.74958558125505 28.37554408746753 0 0 0
1170 1 22.758002332573263 10.62006309780504 28.576189167255002 0 0 0
1197 1 0.04920562178099175 12.787797330648463 28.46560300613009 1 0 0
1051 1 22.34736194365327 12.895292728171883 26.259058767134416 0 0 0
1079 1 1.7584956700338494 16.734008875233307 26.275486998027 1 0 0
1198 1 1.8755741775447516 14.730241439943324 28.46088349361839 1 0 0
1221 1 -0.09960013317993344 16.61783305082575 28.426281799597852 1 0 0
1036 1 3.690858342622605 14.865795476499855 26.187384261450887 0 0 0
1178 1 5.729361535885346 14.867263822642352 28.21911113616461 0 0 0
1201 1 3.8209625784693166 16.70937843608975 28.44601301488105 0 0 0
1182 1 9.843109649400688 14.418350975045598 28.655191431719608 0 0 0
1205 1 8.294245706941679 16.755508076148423 28.394084601283414 0 0 0
1063 1 10.249816982714673 16.430609650437127 26.413401467731745 0 0 0
1209 1 11.882523283393441 16.381653520881343 28.490136566142752 0 0 0
1186 1 14.681380989291597 14.942956926085879 28.13254680496955 0 0 0
1048 1 16.62421444887056 14.620371685662434 26.37389482172855 0 0 0
1213 1 16.404106064500375 17.013356925580993 28.326197875434197 0 0 0
1071 1 18.190484316135674 16.965008770723017 26.413135720243595 0 0 0
1052 1 20.307732807639482 14.708439530452317 26.202885782909714 0 0 0
1190 1 18.5746442783717 14.848618484879749 28.325917460523414 0 0 0
1217 1 20.515811885980582 16.738268370725663 28.467087820452104 0 0 0
1075 1 22.3766923244187 16.73038115243618 26.4285337200636 0 0 0
1194 1 22.679955611747232 14.896895553298528 28.503711327604993 0 0 0
1080 1 24.369752199461864 18.775956970421227 26.409047029275744 0 0 0
1222 1 2.0125455130950507 18.744112819079085 28.410038240091968 1 0 0
1245 1 -0.1024571165249079 20.780038854106685 28.462405970613613 1 0 0
1202 1 6.025031787658198 18.736938081632488 28.57093764525647 0 0 0
1225 1 4.000142242588698 21.18502675358286 28.19430777466208 0 0 0
1229 1 8.140593985870025 20.830122683251666 28.381295108239822 0 0 0
1206 1 10.221367194659493 18.734943058695627 28.411298105710895 0 0 0
1233 1 12.206690173095765 20.921732438542158 28.39074297395382 0 0 0
1210 1 14.176674270261183 18.977464809195986 28.077769073326685 0 0 0
1072 1 16.395563426237686 18.94180138751642 26.091090157213664 0 0 0
1237 1 16.19013303411061 20.68135164341728 28.2191466765773 0 0 0
1076 1 20.344296563589907 19.03938869870879 26.103748241905773 0 0 0
1095 1 18.273272029403536 21.008001477680132 26.078548493181472 0 0 0
1214 1 18.555498966807257 18.93011508500725 28.20037901050162 0 0 0
1241 1 20.664700340410874 20.92821747902571 28.4289051501577 0 0 0
1218 1 22.385529447284604 18.976428489150535 28.22950578065843 0 0 0
1104 1 -0.179546357594964 22.81404406836655 26.439099758529554 1 0 0
1246 1 1.8112095742398013 22.784421541489195 28.557799443695068 1 0 0
1226 1 6.206944551108172 22.823411356571135 28.040418171451478 0 0 0
1088 1 8.3037814557092 22.979371918541005 26.315052017964426 0 0 0
1230 1 10.083566653480531 23.10738976635934 28.425994953844366 0 0 0
1092 1 12.13791769854938 23.05571534733896 26.170736692756275 0 0 0
1234 1 14.29161504549292 22.738174955894152 28.201451133393505 0 0 0
1119 1 18.595073948027164 0.2628793425042836 26.22397964884552 0 1 0
1238 1 18.61799291240508 22.77570203108249 28.19462738598281 0 0 0
1100 1 20.564381190815688 23.036048301830228 26.353859650005507 0 0 0
1099 1 22.4881749198197 20.895470435886665 26.287922536792514 0 0 0
1242 1 22.7057612993572 23.116934860579548 28.349721472261304 0 0 0
1414 1 2.156518935436772 2.4354259755307206 32.41643312327679 1 1 0
1271 1 1.721335498955466 0.3272921163052121 30.4092348702734 1 1 0
1272 1 -0.09866363617564324 2.5970319977007312 30.48452214910187 1 1 0
1413 1 0.07955760504727488 0.203850524566224 32.36347682659091 1 1 0
1252 1 3.614820840185377 2.6666655285888448 30.206111838088923 0 1 0
1394 1 5.902935694005716 2.375973978992479 32.03023897697364 0 1 0
1251 1 5.878578969410532 0.4825986291307254 30.132813435250654 0 1 0
1393 1 4.245336071623799 0.48302659893994404 32.40966827386978 0 1 0
1256 1 8.25289289142972 2.306563443944181 30.471139753962248 0 1 0
1398 1 10.384194345692597 2.4151276675200815 32.3049248093774 0 1 0
1397 1 8.295349808973905 0.1852091651305668 32.43630131194327 0 1 0
1255 1 10.395693750670716 0.29954206242221093 30.400897736872935 0 1 0
1260 1 12.4962510711185 2.4149472908749763 30.293821621612985 0 1 0
1401 1 12.429512195749705 0.499205765329936 32.426752106478524 0 1 0
1402 1 14.667707580341569 2.5018955700636907 32.364150730610106 0 1 0
1264 1 16.56514002388844 2.173350911562926 30.38989994264547 0 1 0
1259 1 14.488297288986299 0.20554190569101471 30.44514674494944 0 1 0
1405 1 16.42753658428068 0.17405932352658038 32.49861985237328 0 1 0
1406 1 18.483887423590872 2.2855224799430025 32.622652993787646 0 1 0
1268 1 20.12655416726068 2.6344587673725135 30.64610132376098 0 1 0
1263 1 18.392600332285028 0.08277774339560687 30.428439737920762 0 1 0
1409 1 20.413185411300866 0.38603734755913466 32.65656930995771 0 1 0
1410 1 22.526160566687864 2.410245435232602 32.889646386831615 0 1 0
1267 1 22.6165077425581 0.7917824434808272 30.600605337014017 0 1 0
1295 1 1.8209109951074804 4.672539463524447 30.179504106115544 1 1 0
1438 1 2.0344001686638347 6.944018440044588 32.2458879009102 1 1 0
1437 1 0.13171170587700987 4.518124750114759 32.412876224000996 1 1 0
1417 1 3.985956047959492 4.29037245716152 32.301884539548084 0 1 0
1275 1 6.497672398603727 4.437706787902507 30.285614009198383 0 1 0
1276 1 4.432659298870503 6.754521660087591 30.499422416143766 0 1 0
1418 1 6.501631462923253 6.40240313980029 32.48261879794218 0 1 0
1421 1 8.602027144797093 4.4924308430117605 32.38630069193656 0 1 0
1280 1 8.263690672433796 6.598169901464508 30.46769258822586 0 1 0
1422 1 10.41135247212129 6.664426131255953 32.396896381058795 0 1 0
1279 1 10.654226951769742 4.377740926728554 30.23488002488301 0 1 0
1425 1 12.281365809779881 4.461533714682133 32.4938667789787 0 1 0
1284 1 12.355782007045757 6.673081897442858 30.26427641988292 0 1 0
1426 1 14.30010683612476 6.7474937657971115 32.3445499723612 0 1 0
1283 1 14.535493025476617 4.351381084457776 30.408600509204177 0 1 0
1429 1 16.152308532430624 4.547153023391724 32.467509670292785 0 1 0
1288 1 16.340838134194108 6.591755750547027 30.29177823508885 0 1 0
1433 1 20.605545960658077 4.449907491221979 32.67077542070082 0 1 0
1287 1 18.401605099717784 4.48540744070164 30.512919146232996 0 1 0
1430 1 18.41323191015914 6.402120336398491 32.85182502902156 0 1 0
1292 1 20.41945569667488 6.616022319728644 30.488934714949394 0 1 0
1291 1 22.531674198835134 4.504080816160089 30.770032642774233 0 1 0
1296 1 0.07291685583232521 6.674239425394772 30.542947786682483 1 1 0
1434 1 22.590966712416275 6.609597003137628 32.55954054486141 0 1 0
1175 1 2.3622230707543004 8.601955068053943 30.30180244456438 1 0 0
1155 1 6.437773392692791 8.829116193880608 30.438874589792185 0 0 0
1297 1 4.264561019620906 8.765681211418622 32.29144745814734 0 0 0
1298 1 6.095366238514766 10.659987615118574 32.36090391612636 0 0 0
1301 1 8.171721324446096 8.986681604338076 32.53676533061725 0 0 0
1159 1 10.024889044698156 8.681716651833876 30.565860121284175 0 0 0
1305 1 12.586438705608751 8.438406769072726 32.37109715160424 0 0 0
1163 1 14.310362079329025 8.553555741984079 30.337175066416428 0 0 0
1309 1 16.566398520081094 8.401691501551504 32.52700984842875 0 0 0
1167 1 18.321905572821542 8.534902064137281 30.391649270626395 0 0 0
1313 1 20.311991921466365 8.31579710877185 32.662933446956266 0 0 0
1310 1 18.389369896442425 10.557963737516166 32.601263372678304 0 0 0
1317 1 24.471672072805802 8.670236879219893 32.69303224127831 0 0 0
1171 1 22.652919869622195 8.74911395152492 30.647192659983773 0 0 0
1314 1 22.370843220901357 10.505412930197476 32.56640136824738 0 0 0
1318 1 1.8561474523318133 10.079925699186553 32.54958933062273 1 0 0
1199 1 1.8642878772402227 12.745236147511486 30.492621230268497 1 0 0
1341 1 0.025192731117451794 12.356182586492087 32.45069211211865 1 0 0
1156 1 3.9343077346151087 10.870561498496555 30.46754872136387 0 0 0
1321 1 4.331979858741473 12.641113270474177 32.6545882833245 0 0 0
1179 1 5.777627830592028 12.636725856390054 30.427389791712237 0 0 0
1302 1 10.36147480845688 10.377515414899994 32.39547010381898 0 0 0
1160 1 8.167870660989157 10.798864937520955 30.402818504983095 0 0 0
1325 1 8.234486170225926 12.73916664594713 32.654752929777075 0 0 0
1183 1 10.304341967902502 12.641622337640872 30.83835196366639 0 0 0
1164 1 12.198759174626822 10.537570941506539 30.363633177798974 0 0 0
1329 1 12.771563150183386 12.646205033519921 32.89715437870292 0 0 0
1306 1 14.46683995575785 10.49422130897983 32.55743242157582 0 0 0
1168 1 16.371319281638613 10.538891706706746 30.40470849577253 0 0 0
1187 1 14.431918093839126 12.586991822674507 30.76386558669966 0 0 0
1333 1 16.386497279668177 12.652634020721369 32.47492244789902 0 0 0
1172 1 20.498135540096754 10.456341653476473 30.77281200641312 0 0 0
1191 1 18.68690768312883 12.567555692184827 30.537529158954314 0 0 0
1337 1 20.533632033546525 12.69799385225858 32.71068033734951 0 0 0
1176 1 0.39875810235412923 10.522168219268249 30.496166633850883 1 0 0
1195 1 22.29872095346647 12.661198668099827 30.312573036501348 0 0 0
1342 1 1.8861695583165865 14.4746408227214 32.591416366273165 1 0 0
1223 1 1.876956626328472 16.610543360069954 30.824493717566682 1 0 0
1200 1 0.03614743399825926 14.587535509790072 30.623861780222626 1 0 0
1365 1 -0.17258998719669988 16.47956691656114 32.650705349974324 1 0 0
1345 1 3.894968438322131 16.296083371916502 32.758580052941234 0 0 0
1180 1 3.8714581711663154 14.70618671114067 30.422431055955634 0 0 0
1322 1 6.133205154752767 14.509447334396269 32.60055949730266 0 0 0
1203 1 5.5684209289365425 16.88003298362345 30.568510032304594 0 0 0
1326 1 10.212810185413101 14.784875550716519 32.51496212706664 0 0 0
1184 1 7.774856486780352 14.966728466995443 30.452633214300157 0 0 0
1349 1 7.593430271104648 16.88034971463715 32.50533555342054 0 0 0
1207 1 9.781024350110988 16.75524221819539 30.70769203287982 0 0 0
1188 1 12.394347305728338 14.33326549896661 30.718848244546386 0 0 0
1353 1 12.308576939173687 16.521761156352383 32.26671100707214 0 0 0
1192 1 16.29239755847366 14.740437645514513 30.380969710935645 0 0 0
1330 1 14.521804505624955 15.039952969981995 32.377701659675765 0 0 0
1211 1 14.149520045649616 16.879779453734912 30.003675553088698 0 0 0
1357 1 16.361930969491347 16.628425528103122 32.40622098708141 0 0 0
1196 1 20.570938351170547 14.798916328332776 30.434599673806204 0 0 0
1334 1 18.560241410640465 14.83696489522963 32.57926547298075 0 0 0
1215 1 18.440528796004273 16.781257623684596 30.640885304773747 0 0 0
1361 1 20.86640319053263 16.780930754918913 32.526311111564254 0 0 0
1338 1 22.617743247950514 14.51213915114831 32.71556998395482 0 0 0
1219 1 22.490366959135386 16.57015129727486 30.45130566316452 0 0 0
1366 1 1.9241021709306674 18.765551724332653 32.30819347915342 1 0 0
1247 1 2.051600513620201 21.05961089329419 30.375124662893946 1 0 0
1224 1 -0.08938250464554127 18.543658138174322 30.328709483614517 1 0 0
1389 1 -0.11730360983579446 20.87920237529218 32.14069615206076 1 0 0
1204 1 3.891317993508304 19.269489287001463 30.39114149115602 0 0 0
1346 1 5.888621985048513 19.057049664046218 31.94783164483222 0 0 0
1227 1 6.150485147511342 21.05256674662673 30.312799215314477 0 0 0
1350 1 10.4400561055088 18.20535002484082 32.74840325052705 0 0 0
1208 1 8.117875889535224 18.91759863092151 30.256853077164408 0 0 0
1373 1 8.330039075011475 20.752081300360416 32.25483321735114 0 0 0
1231 1 10.432784014372103 20.792852829727472 30.52845082666962 0 0 0
1212 1 12.102832983662488 18.679910242916527 30.323299122303837 0 0 0
1377 1 12.351301161787097 20.759272491233865 32.546523916372 0 0 0
1235 1 13.87737951931714 21.099727603089256 30.270553469156347 0 0 0
1354 1 14.578369069961711 18.881040924954064 32.375393659630134 0 0 0
1216 1 16.19763143149354 18.98683407135657 30.416523782935208 0 0 0
1381 1 16.249055603401146 20.89487557225943 32.61735191887841 0 0 0
1220 1 20.224315460727162 18.683090461827533 30.421700806276675 0 0 0
1358 1 18.410509248824816 19.195130039590843 32.643284622318106 0 0 0
1385 1 20.400525389968443 20.909906574037805 32.524972533610466 0 0 0
1239 1 18.43753637735712 20.876307483802634 30.005739179232805 0 0 0
1362 1 22.588529138776067 18.810201141870692 32.3365162776512 0 0 0
1243 1 22.451884557705313 20.99402585285273 30.296508805349944 0 0 0
1390 1 2.2844615213180774 23.112497687411803 32.44682991355375 1 0 0
1248 1 0.051724957834069496 22.73043192050344 30.532405490279025 1 0 0
1369 1 3.8688113641538227 20.809872124609583 32.65882148768453 0 0 0
1228 1 4.172275132502203 23.163641010724533 30.41406766981398 0 0 0
1370 1 6.008832488241427 22.870136733667785 32.42823733914574 0 0 0
1232 1 8.20934388482967 23.098972046951452 30.467539148933213 0 0 0
1374 1 10.574244385703397 22.89586940760723 32.591235821294966 0 0 0
1236 1 12.393867217063987 23.202637191019193 30.317657216456766 0 0 0
1378 1 14.395915855882802 22.78377960300068 32.53910374136642 0 0 0
1240 1 16.246278885621855 22.52911206601916 30.213253700197548 0 0 0
1244 1 20.71675435106556 23.111082742999884 30.443840864719448 0 0 0
1382 1 18.39044025230001 22.734195941748062 32.383529040078265 0 0 0
1386 1 22.566073007087923 22.9346457309751 32.26129871975723 0 0 0
1558 1 2.0576391015934408 2.2373720781862683 36.45635008717439 1 1 0
1415 1 2.0336376533968945 0.31288269821820514 34.4330857819784 1 1 0
1416 1 -0.17081024319241322 2.5884762713951814 34.792853167015224 1 1 0
1396 1 4.1592253700142 2.483938947075347 34.606554149381644 0 1 0
1538 1 6.160416653045935 2.41825969517369 36.5515147277812 0 1 0
1395 1 6.303628274998413 0.640330945460728 34.332481700589334 0 1 0
1537 1 4.445923253645852 0.22377438756513124 36.84353746570812 0 1 0
1400 1 8.266510008575993 2.7088202513647848 34.05252745031108 0 1 0
1542 1 10.770091299057794 2.1231727111370953 36.55406203946058 0 1 0
1541 1 8.447430147204273 0.4518993092585315 36.26734591270791 0 1 0
1399 1 10.395000728930045 0.45877281569235195 34.38199704609075 0 1 0
1404 1 12.635259293563253 2.371830099170233 34.53976115239668 0 1 0
1545 1 12.571407183963862 0.1404183966569965 36.78742238829394 0 1 0
1546 1 14.44550691831085 2.2863829108903753 36.67030337551658 0 1 0
1408 1 16.467729403587825 2.468656978801315 34.503256455084085 0 1 0
1549 1 16.103053677370518 0.2472520893856353 36.649187043262565 0 1 0
1403 1 14.356162390367802 0.38057281580697655 34.46441649869719 0 1 0
1550 1 18.70213330133013 2.268517340563369 36.73451644780109 0 1 0
1412 1 20.512689119729103 1.8961236541207094 34.6544440191716 0 1 0
1407 1 18.12389049129569 0.5562433302855576 34.625840576340025 0 1 0
1553 1 20.15506340407366 0.1974756779920379 36.923119094101764 0 1 0
1557 1 0.17325791553169068 0.10527084776829465 36.42190315796742 1 1 0
1554 1 22.375702780902095 2.4479848081373374 36.67578315944422 0 1 0
1411 1 22.770895768795995 0.43203190869161223 34.37124463433271 0 1 0
1439 1 2.05081896206033 4.473035437490004 34.592019838872524 1 1 0
1582 1 2.1056706573140174 6.6803773265423345 36.61515506048584 1 1 0
1581 1 0.19204598728468641 4.648879363061549 36.65164481773756 1 1 0
1440 1 -0.0012606384205457732 6.614945240973594 34.82212667439976 1 1 0
1561 1 3.955578787394048 4.686450818199215 36.53828068081237 0 1 0
1419 1 6.217289980984251 4.311493456105109 34.38483740217722 0 1 0
1420 1 4.226342512613642 6.346156237436357 34.23523938192049 0 1 0
1562 1 5.860421833856407 6.576560742434202 36.28746824779367 0 1 0
1565 1 8.261333926174125 4.670934170081601 36.235425788601994 0 1 0
1424 1 8.478282967657783 6.642094747544419 34.489642800492305 0 1 0
1423 1 10.635541827075656 4.407663661537223 34.72017927894839 0 1 0
1566 1 10.42362806455618 6.524697177963726 36.55081679045102 0 1 0
1569 1 12.479498585882022 4.461833698350153 36.61310603261184 0 1 0
1428 1 12.463687506451874 6.328950270188122 34.760131091090464 0 1 0
1427 1 14.202816162863751 4.506607704725777 34.57477030514613 0 1 0
1570 1 14.559295369304975 6.585280579325114 36.509575744401886 0 1 0
1573 1 16.299626980920458 4.331365715900788 36.794193631092476 0 1 0
1432 1 16.283146681592193 6.442993652976938 34.86440341138027 0 1 0
1431 1 18.521543636399393 4.1976704121084545 34.63889571229908 0 1 0
1577 1 20.67676520188587 4.391711267128484 36.42092331795016 0 1 0
1574 1 18.566234446508865 6.0569101683899484 36.94570956613281 0 1 0
1436 1 20.46573698523578 6.31554831122058 34.60836998589124 0 1 0
1435 1 22.59625243840518 4.569578315442679 34.63535246989575 0 1 0
1578 1 22.459011252010377 6.435421476696011 36.822761664328574 0 1 0
1319 1 2.11859736953533 8.254959244848763 34.7529580392528 1 0 0
1320 1 -0.10102056580906767 10.403666421102495 34.76309456900497 1 0 0
1461 1 0.1622382617975915 8.668875940364103 36.874698390752094 1 0 0
1299 1 6.342474020858413 8.795914853593262 34.34473706999134 0 0 0
1441 1 4.127580038497123 8.733327025952521 36.817428714510406 0 0 0
1442 1 6.219606867711681 10.624001171009866 36.42984488705345 0 0 0
1303 1 10.62749596410935 8.4720366363685 34.54851533976006 0 0 0
1445 1 8.147079829015963 8.5609587041946 36.45816262283657 0 0 0
1304 1 8.572184794400012 10.688165791363106 34.84033092911417 0 0 0
1449 1 12.324115651866222 8.499244919640024 36.693689534092236 0 0 0
1308 1 12.302688542589278 10.59251981808302 34.37191460184483 0 0 0
1307 1 14.333804630803733 8.457553619538283 34.707968991436864 0 0 0
1453 1 16.47139263304787 8.498820972404873 37.023382952917956 0 0 0
1450 1 14.397085919224093 10.549675813345326 36.66351143500821 0 0 0
1311 1 18.610643514886405 8.272515310977237 34.865738172311445 0 0 0
1457 1 20.59976266503819 8.552516811985113 36.69120494621802 0 0 0
1454 1 18.289011682775907 10.405129043108237 36.551703372514645 0 0 0
1315 1 22.310781214589113 8.514192754679092 34.57103504504696 0 0 0
1458 1 22.769825988705378 10.439856967676237 36.77269893416895 0 0 0
1462 1 1.9499175171198075 10.729389284678087 36.94998268938129 1 0 0
1343 1 2.084085903841157 12.784471525621866 34.49069410645705 1 0 0
1485 1 0.35274676472167243 12.66240853384007 36.49599966180497 1 0 0
1300 1 3.971550773710124 10.819700347074328 34.35496573773096 0 0 0
1465 1 4.218141854523516 12.49159817967123 36.8349722406751 0 0 0
1323 1 6.070181489565948 12.628083680850377 34.636783967472205 0 0 0
1446 1 10.619624322744254 10.648206176683647 36.63337587062339 0 0 0
1327 1 10.348991916795663 12.743313875404695 34.544443563706245 0 0 0
1469 1 8.356304426605764 12.56474248582146 36.47276047295151 0 0 0
1473 1 12.612802774778652 12.801439218183855 36.276593098201765 0 0 0
1331 1 14.508129616373898 12.589954332620838 34.609610557260744 0 0 0
1312 1 16.566867125124908 10.510798487411622 34.71322651147918 0 0 0
1477 1 16.393804827765592 12.771244908547114 36.54241400640261 0 0 0
1316 1 20.552873806323724 10.557201567939083 34.63386328198405 0 0 0
1335 1 18.503814718070807 12.341253676738416 34.69073125774447 0 0 0
1481 1 20.621928640167148 12.502423062262329 36.46392296979824 0 0 0
1339 1 22.82268959583081 12.521839318964929 34.894006880539536 0 0 0
1486 1 2.426902509932215 14.505192816233306 36.69226646763435 1 0 0
1367 1 2.0557509943474472 16.57944131294728 34.535799950044385 1 0 0
1466 1 6.345237236404551 14.625331890468361 36.80581287605219 0 0 0
1324 1 4.094944917871536 14.799708792006498 34.842518934610546 0 0 0
1489 1 3.8689050047107054 16.779585113868094 36.76526187389071 0 0 0
1347 1 5.95310563012124 16.878562041478453 34.48299040143941 0 0 0
1328 1 8.163918203669132 14.713796978047078 34.37824187903857 0 0 0
1351 1 10.0761829176841 16.746816817656935 34.840536520558736 0 0 0
1493 1 8.147502610628095 16.503554415078256 36.56088311775935 0 0 0
1470 1 10.334456471354104 14.710034815559577 36.77484406573338 0 0 0
1332 1 12.17196846593071 14.882458395763262 34.52233313328306 0 0 0
1497 1 12.434293076573098 16.909145965119812 36.7199415407428 0 0 0
1474 1 14.213521610764769 14.745023276153425 36.759268256725065 0 0 0
1336 1 16.65912954054449 14.371124239026269 34.59708807510368 0 0 0
1355 1 14.39808695818535 16.653922476791386 34.41982156496439 0 0 0
1501 1 16.67456601101135 16.318659020297225 36.42892305642266 0 0 0
1340 1 20.56082940832499 14.752567094506514 34.69269099438511 0 0 0
1478 1 18.884245584968163 14.739926087160573 36.71873846834143 0 0 0
1359 1 18.390666811517484 16.701922816868915 34.65055178491452 0 0 0
1505 1 20.565277007307266 16.817364566991756 36.50333408445825 0 0 0
1344 1 24.450903577276236 14.78158135410923 34.9304411201801 0 0 0
1482 1 22.669226221717643 14.605913733607023 36.952131655344395 0 0 0
1509 1 0.29353370971074944 16.846621089279438 36.64614036232631 1 0 0
1363 1 22.64321496867771 16.801497655601054 34.773361457371976 0 0 0
1510 1 1.937666299987216 18.820596953787494 36.514430224099335 1 0 0
1368 1 0.04439244016945276 18.905124023820562 34.45407228963138 1 0 0
1348 1 4.152126407646876 18.831872451882028 34.7172424005352 0 0 0
1490 1 6.232768019347598 18.82779952122938 36.53252438047796 0 0 0
1513 1 4.137517188019667 20.810088159691922 36.606699915979945 0 0 0
1371 1 6.397677454184862 20.749879023100796 34.53019803589436 0 0 0
1494 1 10.415698376637655 18.619497775389675 36.76585108613072 0 0 0
1352 1 8.602344940947596 18.793363840232047 34.74723625880614 0 0 0
1517 1 8.628065286413936 20.817004427426284 36.4699748550861 0 0 0
1375 1 10.34559052306013 20.847165769978538 34.364849423402845 0 0 0
1356 1 12.435700477600967 18.548213298280253 34.340639378981635 0 0 0
1521 1 12.26424275626911 20.602828893938955 36.45057470518878 0 0 0
1498 1 14.35677669601707 18.763121379191027 36.49913462332347 0 0 0
1379 1 14.302424936337264 20.566706636403943 34.79290771204173 0 0 0
1360 1 16.441051294178813 18.652896296774898 34.48549752441763 0 0 0
1525 1 16.36044231947924 20.875782964018256 36.830419201174834 0 0 0
1502 1 18.269333836695672 18.863066846467603 36.57751295682322 0 0 0
1364 1 20.406786944654556 19.01478135814976 34.82596517540103 0 0 0
1383 1 18.227042128811057 21.185961771339883 34.47365104179482 0 0 0
1529 1 20.502989762401285 20.98334065137763 36.71666611094542 0 0 0
1506 1 22.41608623887197 18.61272378607253 36.873561129144974 0 0 0
1387 1 22.665592319217893 20.901476978477262 34.36403325534513 0 0 0
1391 1 1.8546161273204946 21.12921321708309 34.75280079341871 1 0 0
1533 1 24.40012019056016 20.93485114243053 36.70292569312599 0 0 0
1534 1 2.5038901870862436 23.064296805680584 36.573131742186376 1 0 0
1392 1 -0.028658401842200476 23.04058959403104 34.39612382759491 1 0 0
1372 1 4.1444161493872365 22.938788359161904 34.470225218218886 0 0 0
1514 1 6.219289319978165 22.66418690525252 36.58365961265987 0 0 0
1376 1 8.33453401680929 22.72787399330005 34.442678615447164 0 0 0
1518 1 10.422372388314667 22.705116339968704 36.85264166330444 0 0 0
1380 1 12.491737654556198 22.89871551733018 34.69154994077428 0 0 0
1522 1 14.2827507203434 22.758067784041877 36.88662701530839 0 0 0
1384 1 16.150737404617892 23.056427486475293 34.608093974341855 0 0 0
1388 1 20.577336412663293 23.152011788542822 34.729468321252874 0 0 0
1526 1 18.534442563792737 23.003749328209516 36.57844278621749 0 0 0
1530 1 22.7079506344294 22.996318008920156 36.16391041673489 0 0 0
1559 1 1.80344340930157 0.15377203768529868 38.73436003302711 1 1 0
1560 1 0.15071300763217077 2.6167563100321543 38.4646534706725 1 1 0
1701 1 0.14934447705748954 0.227061868497475 40.82916992012886 1 1 0
1702 1 2.2298294379971275 2.381021269708277 40.645307478823284 1 1 0
1540 1 4.127643763359823 2.20998092114889 38.580628207511744 0 1 0
1682 1 6.466638399476823 2.786488769233625 40.74470698696671 0 1 0
1539 1 6.32610619951184 0.12891940386398687 38.62997200160309 0 1 0
1681 1 4.57834253142058 0.29933726985535997 40.62855298418091 0 1 0
1544 1 8.29928206104001 2.0901295134599964 38.79490785833184 0 1 0
1686 1 10.483268276520299 2.5952958723139794 40.8377512474207 0 1 0
1685 1 8.261453623242128 0.5240840829977605 41.16329509973095 0 1 0
1543 1 10.297516369065418 0.4287764174317523 38.869021921717334 0 1 0
1548 1 12.691283799337352 2.6060540336227924 38.432024678830516 0 1 0
1689 1 12.381992884966646 0.4860290084309993 40.577974853793634 0 1 0
1690 1 14.456674553280672 2.4533163634389195 40.83887159199197 0 1 0
1552 1 16.702033837334774 2.2796301211626107 38.80932858150562 0 1 0
1556 1 20.592396156873136 2.467894600019594 38.90725560552142 0 1 0
1694 1 18.589103364466105 2.180084588574133 40.923959656931636 0 1 0
1697 1 20.59817622800214 0.34261276174949556 40.586856396836325 0 1 0
1551 1 18.325285328577586 0.0853039095595402 38.81469656187767 0 1 0
1698 1 22.701265176003908 2.2979659822562777 40.55653831742621 0 1 0
1555 1 22.43040137551909 0.278625283587976 38.69808625667598 0 1 0
1583 1 2.3156930813852994 4.32707445465458 38.518061250686856 1 1 0
1726 1 2.1483850335437293 6.585806223372142 41.01853659327515 1 1 0
1705 1 4.5344005056388195 4.613242580051605 40.53475988393952 0 1 0
1564 1 3.9301800568334944 6.623361119698381 38.75102939251419 0 1 0
1563 1 6.253668766503383 4.367255566300209 38.16077198998354 0 1 0
1706 1 6.279192812514674 7.007105044348117 40.58137344397898 0 1 0
1567 1 10.510565733004144 4.606102781621368 38.39446543846248 0 1 0
1568 1 8.201313469770724 6.610167735439296 38.30551312439657 0 1 0
1710 1 10.146206069709633 6.484313387919384 40.6602879293043 0 1 0
1709 1 8.317913003515672 4.6718496976799315 40.41107881930547 0 1 0
1713 1 12.568716093731735 4.660275987853462 40.90915957005579 0 1 0
1572 1 12.677159165684484 6.6929447085288 38.83018478573271 0 1 0
1714 1 14.593637126400136 6.617889596123635 40.8328053614 0 1 0
1571 1 14.383037434199377 4.805157546543607 38.842756710974996 0 1 0
1717 1 16.70376383422137 4.177444070501602 40.77814042458553 0 1 0
1576 1 16.659504761833645 6.406875094734652 38.67321288516296 0 1 0
1575 1 18.693907241255317 4.078692949640726 38.714051358315395 0 1 0
1721 1 20.649697030193146 4.452507600435666 40.8218415958384 0 1 0
1580 1 20.744350433454855 6.5437742884579855 38.69280568587943 0 1 0
1718 1 18.45782653460271 6.333920805800419 40.75644985409915 0 1 0
1584 1 0.06831933017575409 6.391988472915405 38.86719885023212 1 1 0
1725 1 -0.10951747188670782 4.41579374701388 40.84726039611353 1 1 0
1579 1 22.806193254232944 4.413857500841881 38.611343336575075 0 1 0
1722 1 22.558430198953104 6.653082714357073 40.62795574215561 0 1 0
1463 1 1.87559637410798 8.454186900287908 38.788227977552985 1 0 0
1606 1 2.1676139419355276 10.651213141574637 40.907119737144306 1 0 0
1464 1 -0.016661005642678417 10.50977045352075 38.82955908894828 1 0 0
1443 1 6.4332070897347675 8.886418214898466 38.5517465846866 0 0 0
1585 1 3.919854187696515 8.590071487230567 40.41834138168535 0 0 0
1444 1 4.263750207743769 10.616120532556838 38.64268982917144 0 0 0
1448 1 8.426407751757674 10.443552306361873 38.56507550323425 0 0 0
1589 1 8.420859354315903 8.650320339521294 40.69821012926198 0 0 0
1447 1 10.447444586107146 8.44772136723851 38.758666227410444 0 0 0
1593 1 12.54844317481632 8.514675497012654 40.928099233397965 0 0 0
1451 1 14.335383343265102 8.960215339513924 38.715899928600344 0 0 0
1597 1 16.599053673537988 8.627284986207272 41.136386895844545 0 0 0
1455 1 18.718131064613367 8.64157744873553 39.12595174739128 0 0 0
1601 1 20.679174933308182 8.59401732637137 40.93912908361063 0 0 0
1459 1 22.82976898576858 8.634488820469855 38.62896890299182 0 0 0
1605 1 0.04993171233954835 8.815333561213675 40.993770583393896 1 0 0
1487 1 1.7885599857543275 12.626209170606359 38.74883232263354 1 0 0
1629 1 -0.034262337941261406 12.538430797333739 40.69842546513392 1 0 0
1586 1 6.386150263363329 10.550499631541609 40.9534813700569 0 0 0
1467 1 6.177428718671269 12.430547234940793 38.69697867948305 0 0 0
1609 1 4.164183783400991 12.48009649195247 40.6981752755026 0 0 0
1471 1 10.101195172161876 12.534028079228907 38.64718557030686 0 0 0
1613 1 8.213502096057793 12.67167315386451 41.030719803098805 0 0 0
1590 1 10.403874702562385 10.552067931626654 40.709190796956264 0 0 0
1452 1 12.222281429270314 10.773918269625256 38.587546500347095 0 0 0
1617 1 12.252477947472972 12.654670476590058 40.882311293984515 0 0 0
1456 1 16.60665032183188 10.675974041097065 38.8456100640783 0 0 0
1594 1 14.556502481291856 10.91293274593349 40.82076987691408 0 0 0
1475 1 14.288255578941468 13.215281140636069 38.848318506436016 0 0 0
1621 1 16.390015052384612 12.978124577804012 40.70006050041922 0 0 0
1598 1 18.601832593243998 10.84287704662433 41.03904282107904 0 0 0
1460 1 20.586108929895552 10.553049951636162 38.941401295479324 0 0 0
1479 1 18.53876652370039 12.794627015945537 38.813067084187374 0 0 0
1625 1 20.702664757369455 13.101949288991909 40.88566088601663 0 0 0
1602 1 22.84542372324276 10.684753781715855 40.79027787258302 0 0 0
1483 1 22.285267763669246 12.672511865827339 38.84103077925074 0 0 0
1511 1 2.242409616715225 16.703287777597467 38.61154914527243 1 0 0
1653 1 0.30083893716525695 16.88498756297973 40.688946409056506 1 0 0
1488 1 0.23858332286807898 15.093787941153888 38.70233218903328 1 0 0
1630 1 1.9335043718853857 14.495949986156791 40.56575502344954 1 0 0
1468 1 4.06636798895215 14.513720115542865 38.98381115355883 0 0 0
1610 1 6.158821022438186 14.594205973015848 40.97710381281322 0 0 0
1491 1 6.142914824307186 16.805536029093105 38.67949674571175 0 0 0
1633 1 4.151595442366275 16.858542095050773 40.52825141283487 0 0 0
1472 1 8.210948677710569 14.714280820034599 38.84059499193728 0 0 0
1637 1 8.275550112647457 16.67219501245488 40.87055245076991 0 0 0
1614 1 10.088778982347268 14.558187434744315 40.946819630781214 0 0 0
1495 1 10.314963252214774 16.765972850330897 38.97636394845189 0 0 0
1476 1 12.049106095347957 14.391582362872123 38.66018270810427 0 0 0
1641 1 12.167859631315169 16.698888630161555 40.74166243421864 0 0 0
1499 1 14.291040611563462 16.7334012842445 38.84504532910189 0 0 0
1618 1 14.20102729411849 14.806734750598254 41.13436214743687 0 0 0
1480 1 16.763074651541636 14.763103988439756 38.55099397399989 0 0 0
1645 1 16.314622065272722 16.68060751322264 40.55192167728503 0 0 0
1622 1 18.51357480828395 14.800424115745258 40.93348246375258 0 0 0
1484 1 20.60995396719379 14.690345662667559 38.99729763876421 0 0 0
1503 1 18.609676885356244 16.7664573971092 38.81122877039638 0 0 0
1649 1 20.969426023417228 16.935084194417584 41.00603228349655 0 0 0
1507 1 22.760110322874347 16.77157370576439 38.829706360260694 0 0 0
1626 1 22.824406321498344 14.687857583351716 40.98156274858433 0 0 0
1535 1 2.0944858892703238 20.88128569056579 38.62442610282534 1 0 0
1654 1 2.1401061881083536 18.83736866546723 40.71348159621793 1 0 0
1677 1 -0.09285345650887852 20.882160060477666 40.78378170519358 1 0 0
1512 1 -0.06856862177773054 18.972527234975047 38.704417429599474 1 0 0
1492 1 4.201135075789864 18.82686179792828 38.51619480839026 0 0 0
1515 1 6.29740966509771 20.65442746275498 38.401048612912156 0 0 0
1634 1 6.165037182311818 18.85810095429047 40.69536104996226 0 0 0
1496 1 8.278584955287922 18.741106386534916 38.83732569321621 0 0 0
1519 1 10.410274539998314 21.083335108264173 38.76698365407821 0 0 0
1661 1 8.48075528398574 20.57546024596565 40.794206083365566 0 0 0
1638 1 10.434611602994776 18.87100667858371 40.8796652838355 0 0 0
1500 1 12.396391485517862 18.72054342572141 38.82761736469052 0 0 0
1665 1 12.346466588547916 21.00935279435047 40.889308068155124 0 0 0
1642 1 14.02030948587261 18.947019694791976 40.89784936359223 0 0 0
1523 1 14.459257653755113 20.58644068474907 38.85691900316432 0 0 0
1504 1 16.35631292058128 18.70947931785527 38.6985679493656 0 0 0
1669 1 16.527345964132905 20.850665011344724 40.801053334255016 0 0 0
1508 1 20.520837316747155 18.648702710990747 38.703287800213594 0 0 0
1527 1 18.56797143779984 20.72475426259357 38.767924770467594 0 0 0
1646 1 18.510412838626976 18.62454761760592 40.7261753504536 0 0 0
1673 1 20.795537542209622 20.993035398009333 40.88876938021876 0 0 0
1531 1 22.628889068446576 20.931391650328464 38.585197614422135 0 0 0
1650 1 22.81892545023971 18.976466274961957 40.76413485007091 0 0 0
1678 1 2.0147088222466794 22.564662140576026 40.71501911950666 1 0 0
1536 1 -0.11316050334864514 22.859917727426755 38.7069125667103 1 0 0
1657 1 4.19773599891815 20.63219071648802 40.422890873426056 0 0 0
1516 1 4.1152837043131605 22.94350679409149 39.08000138280685 0 0 0
1658 1 6.366195280118738 22.69463602762537 40.690302175361225 0 0 0
1520 1 8.274945954154175 22.885034657664335 38.96442799311915 0 0 0
1662 1 10.306992590151589 23.342427133522442 40.92959736297829 0 0 0
1524 1 12.35034772801442 22.728658972597586 38.92821387374317 0 0 0
1547 1 14.422054888870715 0.45866760451990096 38.81039656262697 0 1 0
1693 1 16.25369329408354 0.4987454856208815 41.17960851306651 0 1 0
1666 1 14.470667894752948 22.98839016535291 40.77687157924861 0 0 0
1528 1 16.438875735283318 22.710937954782814 38.781395929807566 0 0 0
1532 1 20.50333057394205 22.893957112163157 38.68660379185746 0 0 0
1670 1 18.37393801818095 22.736774157327176 40.794054385554496 0 0 0
1674 1 22.61122293686705 22.91307921988159 40.729737339562995 0 0 0
1704 1 -0.15319087065023762 2.23572609795751 42.639995815491126 1 1 0
1703 1 2.4408719876721863 0.2891703986368092 42.74274627244954 1 1 0
1846 1 2.4026568562918054 2.3776565350522763 44.828832088184605 1 1 0
1845 1 0.5740764495855372 0.4406028818951031 44.68369272979351 1 1 0
1684 1 4.228671989812477 2.440453845970896 42.48685335418895 0 1 0
1683 1 6.257904825593644 0.7024110513922004 42.76979174585913 0 1 0
1972 1 6.330602871476503 2.6715545874001325 44.88239766798669 0 1 0
1688 1 8.34232084832871 2.387973476501282 43.0658329038591 0 1 0
1830 1 10.536338601274633 2.6801828845530085 45.02657656938557 0 1 0
1827 1 8.49641837534631 0.5931302186883396 44.95093684171771 0 1 0
1687 1 10.70049022446885 0.37649164948095115 43.25622233436719 0 1 0
1692 1 12.32190972224207 2.6347273209870012 42.74349558350375 0 1 0
1833 1 12.502469658811444 -0.13051489836068322 45.17771967704648 0 1 0
1696 1 16.559468196397198 2.352652722832251 43.171882300134634 0 1 0
1691 1 13.935272260191153 0.4652089813951842 42.87604244980918 0 1 0
1834 1 14.547744612812721 2.537656455805813 44.90855085503324 0 1 0
1837 1 16.219181193808417 0.0544870845631687 44.96330345879184 0 1 0
1700 1 20.94908946837716 2.162423382157765 42.71704036131616 0 1 0
1695 1 18.677557247523502 0.18116940893715472 42.859582473076934 0 1 0
1838 1 18.72807771940149 2.126101017387204 44.63355105121335 0 1 0
1699 1 22.776223558094692 0.2746266926963695 42.80678430948502 0 1 0
1987 1 22.719249454820464 2.351230790738914 44.84565985536391 0 1 0
1727 1 2.100504901418127 4.215080425771508 42.68567207007686 1 1 0
1707 1 6.279340134794057 4.691500775714718 42.70810062212102 0 1 0
1708 1 4.02224949800929 6.746983010065217 42.76935609363103 0 1 0
1712 1 8.127496057548097 6.861097301834045 42.78139053031306 0 1 0
1853 1 8.25803469022454 4.828352596572826 44.85316020874432 0 1 0
1711 1 10.30462302555079 4.632635082287455 42.62694950238098 0 1 0
1716 1 12.17291382252224 6.64460578783672 43.19918615261141 0 1 0
1715 1 14.529870907235104 4.595858145710819 42.926226022723895 0 1 0
1720 1 16.264535733349973 6.403129450459139 43.08115461751705 0 1 0
1741 1 14.390996608133126 6.5355311116260815 44.94958007058712 0 0 0
1861 1 16.353373035435453 4.4474305754369965 45.213730782644554 0 1 0
1719 1 18.543998051338626 4.348661958181266 42.802573347866456 0 1 0
1724 1 20.679720885871788 6.587163617859424 42.90960592676891 0 1 0
1862 1 18.58845425830537 6.385479652030635 44.89152077896195 0 1 0
1728 1 0.10099481287096834 6.438441818022885 42.87672770714561 1 1 0
1723 1 22.544414632792545 4.603243925445236 42.563114578800395 0 1 0
1866 1 22.789694884620197 6.519331174702918 45.15642945290843 0 1 0
1607 1 2.0239227223698264 9.012735339188046 42.959352357658396 1 0 0
1749 1 0.06795125421781356 8.526171090566429 44.93855121663556 1 0 0
1587 1 5.781869481746934 8.713376009492883 42.70601289709572 0 0 0
1852 1 3.9323663352861153 8.628771574931813 44.890717366045564 0 1 0
1588 1 4.064946122202612 10.903027473938668 42.76938562097959 0 0 0
1591 1 10.231148779411336 8.606557997006398 42.876208578544734 0 0 0
1734 1 8.01200513578492 8.799635437497622 44.72045496615933 0 0 0
1739 1 10.077734512785295 10.928378185648835 45.16791019425528 0 0 0
1737 1 12.261537878252373 8.820517243350226 44.69673325574722 0 0 0
1595 1 14.435007948596166 8.508112807259057 42.740248264035884 0 0 0
1599 1 18.522141888725592 8.49947962169042 42.68961845914991 0 0 0
1604 1 20.8737335755078 10.555328360020729 42.69812605781016 0 0 0
1745 1 20.586578109509972 8.48416959261447 44.78081085184664 0 0 0
1603 1 22.732126594580144 8.387416543871206 42.939418291364746 0 0 0
1608 1 0.03579275530800885 10.77289295311335 43.16822678496445 1 0 0
1631 1 1.8855408658567425 12.967198478062631 42.727962560798005 1 0 0
1773 1 0.14765212152538093 13.02316235570023 45.26922736554755 1 0 0
1611 1 6.236925107568867 12.658679324155882 43.04798356981762 0 0 0
1731 1 4.058101151613803 12.787936062738828 44.998629616298764 0 0 0
1592 1 8.125275782466874 10.504209755679552 42.82137551877629 0 0 0
1615 1 10.100033688339435 12.562508880846663 43.10032000915471 0 0 0
1757 1 8.33518994431463 12.820950899051741 45.07997564888194 0 0 0
1596 1 12.420224913953696 10.818165012835497 42.82909579433425 0 0 0
1761 1 12.290389091428759 12.706287091871426 44.83802213850597 0 0 0
1600 1 16.284309551219486 10.88121171558134 42.85831537602299 0 0 0
1619 1 14.645567356027396 12.873170263706514 42.77997660122785 0 0 0
1766 1 14.564911809685938 10.697288960294514 44.94301220260654 0 0 0
1623 1 18.651703084197827 12.674704891535166 42.88149111387443 0 0 0
1627 1 22.56171016229895 12.593840230064838 42.927799782733786 0 0 0
1655 1 2.1087685421482667 16.814852206617495 42.44479630273984 1 0 0
1774 1 2.1880809478473293 15.049295411267556 44.88149462587992 1 0 0
1797 1 -0.19434762167078973 16.571774267362414 45.01882555632428 1 0 0
1612 1 4.1625208033522725 14.86661329522697 43.17452154338249 0 0 0
1635 1 6.262074086589028 16.846201948185225 42.90673068512627 0 0 0
1754 1 6.385753610243651 14.886600187263824 44.8028325516587 0 0 0
1616 1 8.260369536400493 14.774497929956501 43.200403606880634 0 0 0
1781 1 8.48288039807998 16.965978237288603 45.00112034366301 0 0 0
1639 1 10.344866886563683 16.937603700886825 42.74789218923548 0 0 0
1758 1 10.609453451377782 14.773169735573848 44.790436600618335 0 0 0
1620 1 12.504872492287051 14.908084367071535 43.09080264780681 0 0 0
1787 1 12.403502385012674 16.782639033491577 45.10380116922192 0 0 0
1624 1 16.650813072106622 15.08392118226605 42.78848805625024 0 0 0
1643 1 14.469854292277837 16.88108499218977 42.81843354585396 0 0 0
1628 1 20.80854192408991 14.789726938370109 43.31596073866495 0 0 0
1647 1 18.72166445089465 16.91285239324271 42.72959354607929 0 0 0
1772 1 18.59745273643668 14.692592041417331 44.91845556261777 0 0 0
1632 1 0.03537704109526155 15.040340830984958 43.04250680350549 1 0 0
1651 1 22.79798483804668 16.87976789301031 42.77408936687623 0 0 0
1770 1 22.856346388958677 14.650700221958719 45.0129700951091 0 0 0
1679 1 1.7971573581779638 20.80695464981664 43.05111019893185 1 0 0
1656 1 0.04909985645118553 18.731650295906995 42.804573683960925 1 0 0
1798 1 1.6977827046980605 18.416872291609735 44.90746873157076 1 0 0
1636 1 4.317318189569408 18.87317492004332 42.56709590689414 0 0 0
1782 1 6.038659899521746 19.31778530534657 44.75559263489502 0 0 0
1659 1 6.277547526265097 20.844523860726227 42.707222545670916 0 0 0
1640 1 8.275647658437888 18.903133818375757 42.80829852931628 0 0 0
1663 1 10.492574792869329 21.057608775499226 42.851864753835386 0 0 0
1644 1 12.547184962378248 19.118388370171274 43.082634675462785 0 0 0
1667 1 14.493580466196594 21.091975534712724 43.07255342822192 0 0 0
1648 1 16.12698290463942 19.00107082010328 42.82832237639017 0 0 0
1813 1 16.512521581951432 20.64732346130559 45.04740680808835 0 0 0
1786 1 14.569149586531045 18.71859328850391 44.81594082254048 0 0 0
1652 1 20.70833120420245 19.041959032345474 42.805103307756305 0 0 0
1671 1 18.327708723628447 20.67393882636376 42.94295332369021 0 0 0
1959 1 18.655222237603752 18.76432030474942 45.09937701432629 0 0 0
1675 1 22.747159861306365 20.93679457596371 42.785570474951285 0 0 0
1794 1 22.62622325279245 18.71683455483516 45.08059424845383 0 0 0
1680 1 -0.08091220004253663 23.036236822179518 42.939826365344345 1 0 0
1660 1 4.145966612548313 22.508297740780684 42.59750325598523 0 0 0
1801 1 6.427304030517033 23.17315359584071 44.59980677959731 0 0 0
1664 1 8.71017856387858 23.120714224741654 43.16236003583641 0 0 0
1806 1 10.389793871726729 22.84219826519871 45.26037759791726 0 0 0
1668 1 12.366509927852007 22.956077576156744 42.82900508130903 0 0 0
1672 1 16.48264874543323 22.99314418480146 42.814840465818016 0 0 0
1810 1 14.573482318617772 22.683204344619497 44.97317877494398 0 0 0
1676 1 20.683421168106754 22.768638309572317 42.71167260107822 0 0 0
1814 1 18.676300390776575 22.775500467662646 44.624455800972825 0 0 0
1818 1 22.775242012756557 22.890913442876794 44.78122714794566 0 0 0
1961 1 2.0398760700585976 0.11970762688806469 46.958856755923215 1 1 0
1825 1 4.511026984474438 0.44219593886361586 44.83742687184657 0 1 0
2000 1 4.062894380893538 2.3790925388894406 46.90811887465353 0 1 0
1779 1 6.510050865816787 0.5010299760652628 47.01804872535744 0 1 0
1826 1 8.651251894193855 2.437022840746573 46.91454092092267 0 1 0
1981 1 10.306710704674773 0.056110592064495285 47.084777062123976 0 1 0
1859 1 12.511252842867558 2.173508740926736 46.68853639143129 0 1 0
2003 1 16.437012787863345 2.3709702669978863 47.07592477161757 0 1 0
1976 1 14.304601313184929 0.4567295838482639 47.14160940072928 0 1 0
1842 1 20.53981187989016 2.078797793076582 46.85777969407803 0 1 0
1988 1 18.47032139714041 0.3012512034128281 46.711482441173594 0 1 0
1844 1 22.767993236944776 0.33884783677065605 46.647452335791314 0 1 0
1986 1 0.3294270971722735 2.1865974470564393 46.93032953673397 1 1 0
2016 1 1.9939153525775648 6.442340353959083 45.029428322568144 1 1 0
1849 1 1.9722481660702962 4.156686113403302 46.66632238543237 0 1 0
1752 1 0.1422127955184317 6.495717112692088 46.981096575381 1 0 0
1850 1 6.1780626365377165 6.511285021089471 44.73293024330589 0 1 0
1828 1 4.071191776868669 4.556353539006291 44.72116938405654 0 1 0
1802 1 6.4031837228034645 4.521337243460197 47.07628587089028 0 1 0
1848 1 4.102059204828711 6.3995959420777 46.70468663404884 1 1 0
1854 1 10.411603555648162 6.63138319761744 45.14916124438191 0 1 0
1860 1 10.153378849475551 4.611055003778192 46.7412388936404 0 1 0
1856 1 8.740085422259387 6.606216381343176 47.24780258331193 0 1 0
1857 1 12.51375485147459 4.30711124496258 44.88457086096768 0 1 0
1858 1 12.622265551569916 6.513732486501242 47.1384490330356 0 1 0
1816 1 14.436590023377263 4.292770495735207 47.253616249844285 0 1 0
2126 1 16.58168449405813 6.372231664631209 46.704312773991056 0 1 0
1865 1 20.817865227272705 4.1182852753823616 44.723258304398605 0 1 0
1863 1 18.608558408880782 4.446387322495071 46.59023612588034 0 1 0
1872 1 20.621887850498318 6.291809102835025 46.6526678824706 0 1 0
1869 1 0.11690071048003159 4.3716058402655324 44.66658623269216 1 1 0
2271 1 23.128277059954847 4.426340619127761 46.716855753557866 0 1 0
2137 1 2.1192222811101513 8.652891308592954 46.8859158008028 0 1 0
1870 1 2.1473949495910016 10.733000962099135 45.14253228256871 1 1 0
1994 1 6.679322442443666 8.69767109270907 47.07728286815081 0 1 0
1730 1 6.068515026773161 10.635045097305605 45.13509660494066 0 0 0
1905 1 10.84621260304454 8.649588264745681 46.8514278793013 0 0 0
1738 1 16.600160367349936 8.160279770927794 44.741347634497956 0 0 0
1762 1 14.414206966627722 8.648082395240497 46.86068835285486 0 0 0
1742 1 18.62311672831838 8.850202442927111 46.87389503307266 0 0 0
1892 1 22.542603615378255 8.630618721987137 47.017857866310095 0 0 0
1729 1 2.0986704409144097 13.10220439685816 46.91928121663668 0 0 0
1820 1 20.655123005183974 22.9839685243875 46.74944188215359 0 0 0
1871 1 4.1813689749631635 10.672915010117928 47.138933297917994 1 1 0
2065 1 6.318380209372843 12.836412448570833 46.772652317724585 0 0 0
1751 1 8.283284096872823 10.892048511924177 46.994187357709194 1 0 0
1756 1 10.19789855096417 12.875150231301541 47.2578181413066 0 0 0
1882 1 12.56928731138461 10.754649529092575 47.11196727239727 0 0 0
1765 1 16.400275840232112 12.79547912255798 44.88070223401671 0 0 0
1886 1 16.520600267958812 10.465612940740508 46.51617003896639 0 0 0
1823 1 14.335770021609857 12.656954687803275 46.53028918404689 1 0 0
1927 1 18.745971961026463 10.660334652600719 44.6951583674734 0 0 0
2063 1 20.537012253187754 10.589653473707276 46.814733228811214 0 0 0
1769 1 20.499988908418217 12.67246117535297 45.06706051823419 0 0 0
2054 1 18.391365274836673 12.424681182931591 47.22189213307565 0 0 0
1746 1 22.64791748140206 10.328549561810428 44.83738331381212 0 0 0
1920 1 24.441814319245815 10.772253012524686 47.06934905938647 0 0 0
1791 1 22.441229126065274 12.633367614539639 47.03962823950731 0 0 0
2094 1 2.216879124415198 17.03291142733881 47.03768299895048 0 0 0
1799 1 0.06988958592705369 14.74668906194372 47.39910747779283 1 0 0
1777 1 4.056324419198028 17.085026903927655 44.85670215099835 0 0 0
2230 1 4.442249023994237 14.959956099332333 46.922439751048756 1 0 0
1949 1 6.427897569527833 17.04517813791371 46.798089988789144 0 0 0
1811 1 8.570531079851554 14.98594441357558 46.86497793155307 0 0 0
1945 1 10.389895750716091 17.113575224196047 47.32708081699435 0 0 0
1755 1 12.182869051731135 14.843613056921273 47.12979715362708 0 0 0
1763 1 16.38389444920005 16.747315232230356 44.759462600418864 0 0 0
1783 1 14.375049685252744 14.63927650340711 45.005929184568025 0 0 0
1913 1 14.752118647584881 16.431900360326303 47.27124110468597 0 0 0
2078 1 16.45334239820145 14.409815363944304 46.77060126330999 0 0 0
1796 1 20.500379791455885 14.705502717538842 46.95811042833737 0 0 0
1789 1 18.48936217820026 16.48676307856706 47.18855104701797 0 0 0
1793 1 20.452382912788565 16.705327682416915 45.08153372015339 0 0 0
1841 1 20.762189774707394 0.19469679197339695 44.54083815588536 0 1 0
1939 1 22.867988456690732 16.780975066977987 47.46333652377052 0 0 0
1821 1 24.4830476056428 20.592667642929065 44.97438180574014 0 0 0
1829 1 6.126073444686315 21.3746647036471 46.83211475323611 0 0 0
1943 1 4.203524257399251 18.930084872373364 46.79448106087273 1 0 0
1904 1 8.281039705991883 19.126726245581253 46.84271383917431 0 0 0
1808 1 8.083443950591635 21.089147955218138 44.76295887638952 0 0 0
1807 1 10.298109956038196 20.80505519482884 47.038628402815505 0 0 0
1803 1 10.547625534286524 18.791827869764383 44.99653688525527 0 0 0
1809 1 12.576495084120324 21.03142453865214 45.26667836445388 0 0 0
1835 1 12.571972540663584 18.792527820386248 46.96299449060023 0 0 0
1785 1 16.641971584773316 18.497743286828793 47.20364057056707 0 0 0
2099 1 14.632110590991507 20.687992987847004 47.20472782117652 0 0 0
1817 1 20.560269180431142 20.95615286687395 44.962637566463094 0 0 0
1795 1 20.653031610217788 18.66217137343689 46.93694264248963 0 0 0
1792 1 18.726624256346405 21.08204753756595 46.89649674441266 0 0 0
1819 1 0.06768013423972974 18.731911323479352 46.902687449070235 1 0 0
1822 1 2.146860042368796 22.796037894116154 44.645563508430236 1 0 0
1992 1 2.3064836747178217 20.687366779423556 46.74408868168147 1 0 0
1970 1 -0.18223668313643882 22.765515149070694 46.90117532556617 0 0 0
1989 1 3.986036515759772 20.958065134128752 44.717422910661746 1 0 0
1778 1 4.01649785386344 23.102488625866357 46.73703401716898 0 0 0
1969 1 8.331423785600013 22.622468464461875 46.77964541247679 0 0 0
2101 1 12.421078485526142 22.784908270313792 47.54855748834342 0 0 0
1957 1 16.596474046520036 22.75495586189328 46.97117103228829 0 0 0
1910 1 2.324473448825616 10.587473077135288 48.492259107841456 1 0 0
1995 1 1.9792725548704384 0.14075614004889397 51.149586818602366 0 1 0
2345 1 -0.08004627919204907 2.3713333663553637 50.99681951895698 1 1 0
1931 1 14.487694604713838 22.83450231797302 49.0825424900239 0 0 0
1935 1 4.051191101432128 2.22029812320123 51.02623980523128 1 1 0
2013 1 4.247224990626461 0.3079782452075864 48.90898139515294 1 1 0
1867 1 6.138720103957792 2.454234316518239 48.929190142016516 1 1 0
1873 1 5.906476718403112 0.0638378945066464 50.98000518016611 0 0 0
1735 1 8.221863276883356 2.236048273891724 50.936860965517404 0 0 0
1832 1 8.299067237049634 0.34417961864513297 48.96859665471835 0 1 0
1980 1 10.19357192250427 0.22524125787415678 50.76673371287663 0 1 0
1881 1 16.640593752771267 4.464009422295598 49.06883971731141 0 0 0
1977 1 12.207517760268294 2.256188083502173 51.04043052365658 0 1 0
1955 1 12.405354807090662 4.2675345280829315 48.82270374079 0 1 0
2071 1 16.944340563274878 2.1705049101058744 51.17622749869429 0 1 0
1991 1 16.575150881051812 0.4000849632733414 48.978219188991055 0 1 0
2110 1 20.56330581516241 16.692936345249414 49.11126886360104 0 0 0
2289 1 14.497923312615423 0.00627748508291695 50.98240098348619 0 1 0
1839 1 20.99837052973298 0.3201659866738249 48.8107757451652 0 1 0
1958 1 21.09485490193189 2.2391956826338473 50.88047158269263 0 1 0
2053 1 18.885104326319045 0.3113553700681812 50.646062990353954 0 1 0
2114 1 22.94169936410458 -0.0473457268189708 50.936716418830976 -1 1 0
1960 1 22.94062311864235 2.028657472465303 48.67357459690089 0 1 0
1879 1 2.1779859143653155 4.3324812507212505 50.81441866527827 0 0 0
1896 1 0.018950459171203554 6.312526173109917 50.99208622902209 1 0 0
2100 1 14.522347016069356 2.4358203514945616 49.54848336141274 0 1 0
2164 1 2.131708929165663 6.4302623682922295 48.822962522063854 0 0 0
2001 1 4.08386609960779 4.674033207663106 48.638680381841176 0 1 0
2150 1 4.122056175420755 6.732999597192897 50.8797571963198 1 1 0
1900 1 6.009374439211276 4.541133830664793 50.6799380334256 0 0 0
1790 1 18.66136618563351 22.929384870666922 48.98345243949483 0 0 0
2109 1 0.27275889212722515 3.9913582853477294 48.69217939060055 1 1 0
2021 1 10.515458606435566 4.394812697396506 51.003550568707446 0 0 0
2120 1 8.22294852313774 4.4935433147844215 49.010474176202514 0 1 0
2005 1 8.29520159601825 6.553606316799073 50.98572833181312 0 1 0
1851 1 12.549941024745552 6.289724986799874 51.35075798748824 0 1 0
1923 1 10.246275685191078 10.575384351373735 48.86873192645566 0 0 0
1975 1 10.746049519918728 2.4691107595427058 48.868425819622516 0 1 0
2143 1 14.651297771366961 3.826892787319422 51.39259952915869 0 1 0
1740 1 17.170064011656557 6.401045542943061 51.15483417460863 0 0 0
2348 1 22.528332061722786 18.388069438117334 71.61203493185974 0 0 0
2006 1 19.105943892076176 4.4063508183143085 51.02563167306511 0 1 0
1887 1 20.8651244949476 6.706407587558667 50.65659374936403 0 0 0
2151 1 20.67823911990058 4.3562584456501305 48.710947749466 0 1 0
1978 1 18.67141503725366 6.759339965878758 48.808576625949755 0 1 0
1748 1 21.03845753343178 12.7018864267922 49.022809145534694 0 0 0
1990 1 22.770917463865565 4.5108195474874915 50.425827369280626 0 1 0
1890 1 2.086722797323403 8.350361322036786 51.018792617111664 1 0 0
1847 1 -0.00899572706983054 8.607724407491636 49.14184013910494 1 1 0
1903 1 6.177221643589139 8.447045206916336 51.32141510634408 0 0 0
1993 1 4.371707813180922 8.645192357174516 48.794201438539446 0 1 0
1733 1 8.328664362383153 8.707782078176864 48.94876968599465 0 0 0
1836 1 10.273155088560912 8.494516474564879 50.8455744724463 0 1 0
2073 1 12.616274992556447 8.619526501247899 49.09896466051461 0 0 0
1864 1 16.485453497862352 8.391090570607355 48.941981594478975 0 1 0
2047 1 14.294204282716628 8.527889073903983 51.04125362563033 0 0 0
1747 1 16.689435736537128 10.72138946383911 50.91017521517359 0 0 0
1771 1 20.622561977864038 8.562703823490109 48.69344202230614 0 0 0
1767 1 18.632352559890627 8.968756211030227 50.82261697426514 0 0 0
1937 1 21.04594009212657 10.844381018071646 51.057303416316124 0 0 0
1891 1 22.750621807085842 8.423256841824552 51.026155585845636 0 0 0
1944 1 2.283879188861386 12.593329240300717 50.680404855239495 1 0 0
1973 1 6.03456392928819 10.769143166127451 49.37003952684072 0 1 0
1893 1 4.138503170761092 10.527679471657793 51.03031312658376 1 0 0
1901 1 4.203706064130915 12.95565387016092 48.91281772592935 0 0 0
1921 1 6.294940915341981 12.54114242613153 51.19255857014167 0 0 0
1788 1 8.328127807010993 12.621305580369953 49.13536730684935 0 0 0
1877 1 8.111349213954005 10.482771537327443 51.22027379234771 0 0 0
1899 1 10.487062451630853 12.539878029679134 50.89515887752938 0 0 0
2495 1 5.124907477656203 22.4735515131972 71.72549518299334 1 0 0
2061 1 12.039601035104152 10.501611268933704 51.28773999877276 1 0 0
1926 1 12.37525181786379 12.742056103043645 48.73077196689225 0 0 0
1883 1 14.713347020760036 10.515755747607452 48.80196156510138 0 0 0
1912 1 14.296999763360526 12.634868621499734 50.965457761681854 0 0 0
1743 1 16.541107829693843 12.639873127039468 48.94444894612381 0 0 0
2930 1 9.479365224704644 21.941806962216376 73.13450349147848 0 0 0
2085 1 18.747092803510398 12.632951292197946 50.84058431015675 0 0 0
1917 1 0.1656525772429155 10.673978631092911 50.767605738299274 1 0 0
2086 1 0.39030527959933314 12.39188197375986 48.74673327596558 1 0 0
2011 1 22.773939179154603 10.613282584951529 49.162416391832366 0 1 0
2030 1 23.050679741877445 12.513589869477764 51.14431548873609 0 0 0
1942 1 2.4724620729166173 15.080633502016779 49.15111327560952 1 0 0
1968 1 2.3031443872008395 16.958116154417226 51.00984955513005 1 0 0
1914 1 0.22124407048286798 14.716169385111778 50.65069289279447 1 0 0
2018 1 4.320372009294078 14.88959238770014 50.9874523554765 0 0 0
2107 1 4.438612460527326 17.064665743201758 49.03532375213836 1 0 0
1805 1 6.404125710453339 16.70205884797408 51.017435781084785 0 0 0
1878 1 10.645846650046822 6.180302141246737 49.123953096395304 0 0 0
2044 1 8.424361505941521 16.795804564519784 49.05661222134708 0 0 0
1951 1 8.349803008119002 14.471518390506553 51.13377699717983 0 0 0
1938 1 10.400262106591398 16.71636854029815 50.810336283637156 1 0 0
1971 1 10.296615429599687 14.71851048943216 49.16562371515273 0 0 0
1736 1 12.311913901714016 14.63074554142326 50.933850809558564 0 0 0
1930 1 12.361628759100164 16.712573012075524 49.14180846769885 0 0 0
1982 1 14.510247118268762 16.58525490832033 51.14761965415312 0 0 0
2237 1 16.507976745991954 14.394567710196476 50.79136807230097 0 0 0
1950 1 16.504235532827302 16.530147293235515 49.081247464094666 0 0 0
2077 1 20.51992776878192 14.525874806939914 51.09542137119423 0 0 0
1940 1 18.551723248097503 16.479200255057776 50.87689950016718 0 0 0
2008 1 18.545450341031405 14.580984161051791 48.75105031069088 0 1 0
2057 1 0.502449416454051 16.865568290055926 49.0897152513795 1 0 0
2279 1 22.937404327809254 16.821277075641135 50.86235851646597 0 0 0
1776 1 0.3573134738453826 18.792146727806504 50.75105656152011 1 0 0
1967 1 6.456773762677551 18.927344118934194 48.86109215396603 1 0 0
1800 1 4.151572628040609 20.988304455559273 48.91702044047412 1 0 0
2713 1 4.325766248483457 18.813335422427116 51.06651996311491 0 1 0
1919 1 6.46960189025468 20.58455480707137 51.09236126633274 1 0 0
1897 1 8.52014482807119 18.72952033337301 51.201251786918284 0 0 0
1966 1 8.398075757311384 20.76300990003454 49.17316802011613 1 0 0
1760 1 12.322040647357484 18.66838001361335 51.18937388405086 0 0 0
2252 1 14.675175047843554 20.617372774282003 51.08501447050767 0 0 0
1936 1 16.665732054003342 18.542211663920128 50.81769765353314 0 0 0
1906 1 14.596752872705288 18.461231851931466 49.18363183200376 0 0 0
1768 1 16.63936407349742 20.91060730826323 48.99771642076312 0 0 0
1918 1 21.05380853263525 18.800806905808848 51.285789993948306 0 0 0
1983 1 18.764066186392697 21.04672796879032 50.98593155073032 0 0 0
1962 1 20.66042668440027 20.790194260532814 49.11758634027857 0 0 0
2111 1 22.82267898716063 20.940867995940273 50.644059961115836 0 0 0
1780 1 22.480649256881215 18.86777199404166 48.99506566164445 -1 0 0
2245 1 2.292664111907809 20.904227694739596 50.86691119743315 1 0 0
1965 1 0.1676300382215954 20.697285464345683 48.78550275945513 1 0 0
1964 1 2.36627186028333 22.77807514874368 48.74881055146708 1 0 0
2125 1 0.23673726576679116 22.98426239487035 50.655073772415115 1 0 0
1831 1 4.397912672051008 22.432606404843746 50.63032020714551 0 0 0
2091 1 10.189479630578864 20.978377913135205 51.24478421043375 0 0 0
1952 1 8.255551867906926 22.905189548657745 50.87116987608085 0 0 0
2121 1 10.164225071893167 22.399832683228702 49.14713499896414 0 0 0
1925 1 12.656705272512234 20.434407934378413 49.29678062870507 0 0 0
2298 1 12.336773481716968 22.76996477061258 50.608786241457366 1 0 0
1979 1 16.767970515410347 22.886947955730122 51.27050234573365 0 0 0
2806 1 19.167294593260586 22.015301374416595 73.71815952464544 0 0 0
2889 1 14.681639822681573 15.196650685612479 74.0150583275935 0 0 0
2343 1 20.79514029180379 22.804083558816103 50.74276514282863 0 0 0
2156 1 2.2920276670440836 2.222944476864364 52.97684981150113 1 1 0
2024 1 1.9938471522080308 0.35376297684024216 54.70452664553074 0 0 0
2297 1 -0.021822230589822966 0.4629089094792209 52.73513776825692 1 1 0
1775 1 4.194257326559765 2.384977207527321 54.96573748851307 1 0 0
2278 1 3.984452556600636 -0.022508337146595808 52.84147203855372 1 1 0
2083 1 6.498366925844953 0.2856783955715446 54.72364195986491 1 1 0
2113 1 7.992727205103916 2.2560908586514365 54.63253998097225 0 1 0
2355 1 10.203006286006508 2.1653472801620963 53.00296033995201 0 1 0
1924 1 10.177860023743662 0.2903123361945126 55.213049571462435 0 1 0
2258 1 8.10811326424615 0.2734877956424145 52.67440624026424 0 1 0
2117 1 12.418400915841561 2.0721236212936716 54.88156315319963 0 1 0
2122 1 12.491351619822096 0.07090403272086865 52.96081246344109 0 1 0
2262 1 16.633022310910476 2.14211689854139 54.999749158854215 0 1 0
1812 1 16.81526330417212 0.2738031595347236 52.87516724497772 0 1 0
2136 1 14.690876172042461 0.05643447662273601 54.82870058274102 1 1 0
2103 1 20.930053479612113 1.9432316350240644 54.99756696939523 0 1 0
2058 1 18.857629845882663 2.3470408573446093 53.136400405858225 0 1 0
2225 1 21.145792479108387 0.5026667361615204 52.90507509790225 0 1 0
2223 1 18.57300302376924 0.2676185144031124 55.01924478409649 0 1 0
2275 1 0.295155786164439 2.198293542841 55.12346541955292 1 1 0
2222 1 23.319701172023194 0.1833903931873112 55.04250971533948 0 1 0
2177 1 1.993926887513406 4.443176329303897 54.67900276526219 1 0 0
2160 1 4.653882467615344 6.433654309999479 54.79139405740283 1 1 0
2102 1 4.2038832056171165 4.458634852364539 52.83266762932575 1 1 0
2189 1 6.29270439030147 4.526605569152684 54.99336219069114 0 0 0
1915 1 6.211797273575984 6.498694666967717 52.92211860224439 1 0 0
1804 1 8.067804446151252 4.2756949022918525 52.54118593177878 0 1 0
1954 1 10.058576408601882 4.043582618108721 54.97078621249956 0 1 0
1998 1 9.861056876681085 6.278228392733493 52.961579867555535 0 1 0
1956 1 12.387386067698442 4.4235013648384705 53.29010268342481 0 1 0
1884 1 11.950458211546877 6.585234934998375 54.80615482065454 0 0 0
2027 1 14.723867497529364 3.776668021950482 54.870848362065395 0 0 0
2025 1 14.601337261165979 6.087799407453539 52.86919883366678 0 0 0
2242 1 16.895935113786038 4.283399921756077 53.17934216038234 0 1 0
2031 1 16.826144798886453 6.250394323550208 54.75578336225159 0 0 0
2293 1 21.091441620737577 4.290775149221451 52.706120191564146 0 1 0
2299 1 18.81556724409434 4.252065417701313 54.92848801709206 0 1 0
2049 1 20.65401802625498 6.274090221647466 54.83942518389258 0 0 0
2155 1 0.3023291553959147 4.289466913505169 52.73258738548703 1 1 0
2154 1 0.16525763920500391 6.532039851798026 54.814838213638296 1 1 0
2173 1 22.993871846285607 3.9998008378821996 54.62373899241609 0 0 0
1909 1 22.72194409581217 6.361840331451924 52.88739598309733 0 0 0
2133 1 2.1220355500706365 8.450218976923539 54.37690605592092 1 1 0
2205 1 24.28045755544812 8.601450219823821 52.78113576085583 0 0 0
2184 1 4.320726883895238 8.6298814014826 52.965629287012916 1 0 0
1974 1 6.188485016036051 8.538389856610479 55.15735130325066 0 1 0
2014 1 8.242955715336073 6.559598380016615 55.073223577620844 1 1 0
2037 1 8.440990459536838 8.579914113846302 53.05689786181884 1 0 0
1902 1 10.522183787416003 8.604135515987927 55.129211372975604 0 0 0
1764 1 11.94398744892674 8.436732750110147 52.67637223388486 0 0 0
1907 1 14.412218137294664 8.384382275377458 54.46675507531224 0 0 0
1840 1 16.555128707751294 8.224350925664076 52.558364541422776 0 1 0
2040 1 18.758825637692595 8.46586695721116 54.905486541525555 0 0 0
1744 1 20.73729355416865 8.662747099041372 52.818582440671435 0 0 0
2082 1 20.362877191433483 10.57216878986143 54.94221765061398 0 0 0
2180 1 22.721319836133738 8.676705571537322 54.78909367340578 0 0 0
2153 1 2.194416967079789 10.478127203891072 52.78334061478878 1 1 0
2034 1 1.9341418410405238 12.845333529034889 54.746511128036545 1 0 0
2144 1 4.23764877383395 10.545322715382119 54.844830389780434 0 1 0
1753 1 3.8488419492453554 12.51799966819014 52.981575849795604 0 0 0
2066 1 5.858955006593376 12.65677286610342 54.91182202129326 0 0 0
2350 1 8.038932800463378 10.51242139937695 55.00568441213426 1 0 0
1997 1 10.114677747567923 10.71289134861182 53.27471944568745 0 1 0
2119 1 10.273316751206632 12.626935357044417 54.84132581880196 0 1 0
2257 1 7.911647655834367 12.533651968342676 53.04546201698921 0 0 0
1759 1 12.184215444160328 10.660239995940191 55.122516561136905 0 0 0
2026 1 12.327667097664358 12.591080214148711 52.81377203358163 0 0 0
2201 1 16.506466581697843 10.288482102599385 54.76213263282102 0 0 0
2055 1 14.283584419365262 12.211280286280667 54.876050692364025 0 0 0
2152 1 16.547932227814876 12.519723474359509 52.89702761350955 0 1 0
2317 1 18.815995067633892 10.544619305772216 52.71466703449594 0 0 0
2304 1 18.343069554566526 12.677428817435258 54.78051401616289 0 1 0
2060 1 20.639639695884846 12.476251369213932 53.033695075945666 0 0 0
1941 1 0.07019056976197446 12.579612160561858 53.04021094996718 1 0 0
2009 1 22.574846733691004 12.99042411060503 55.0715762273423 0 1 0
2398 1 2.0641533782028243 16.840541555066174 54.80669114621723 1 0 0
2438 1 -0.07798195211681758 14.640840603926913 55.13721365118614 1 1 0
1947 1 4.350237148417513 14.9797656872387 55.20164576183044 0 0 0
1946 1 6.143746707949946 14.736540925566 52.935000874148514 0 0 0
2209 1 4.1301016681061204 16.827744565320167 52.914654143250594 0 0 0
2118 1 6.4656855886798885 16.895716031002053 54.85627491914516 0 0 0
2098 1 8.232971394000502 14.644535704856736 54.81459911564813 0 0 0
2176 1 10.366103899074464 16.661886968403508 55.208163993531215 0 0 0
2357 1 8.338139171743276 16.708634968096284 53.037585920160076 0 0 0
2138 1 12.459732465443189 14.35327325886547 55.12022021097922 0 1 0
1880 1 12.322913646938163 16.5868725267918 53.23217047745752 0 0 0
2033 1 14.151341082525695 14.587362745614032 52.959440510141945 0 0 0
2067 1 14.506233438560145 16.9312780998281 54.928891096141804 0 0 0
2218 1 16.18917603650111 14.51242735087875 54.8520160976821 0 0 0
1889 1 16.568106820687376 16.39996453608692 53.03455890480674 0 0 0
2489 1 20.42957139517678 14.781343208232789 54.93647847870702 0 0 0
1916 1 18.556646769363873 16.678303745041802 54.684720275895145 0 0 0
2079 1 20.607260083074806 16.71954923453152 52.873735961460945 0 0 0
1784 1 0.13297821165944856 16.551839027588443 52.892470897570156 0 0 0
2174 1 22.73507432433589 14.662234347775298 52.98945308536009 0 0 0
2270 1 22.736273859781065 16.61625720486169 54.86882838599717 0 0 0
2210 1 2.0767076420995934 18.93299067622256 53.06800815886712 0 0 0
1985 1 4.322468574245443 20.834234232517232 52.965259697946315 1 0 0
2198 1 4.18178176882839 18.705939297965152 55.07200532534919 1 0 0
1948 1 6.200026231450555 20.719379958845906 55.17073105426233 0 0 0
2380 1 10.247781421678884 18.70136768928147 53.00069723950655 0 0 0
1898 1 8.503033444727341 18.800282802201203 54.9562453422606 0 0 0
2095 1 8.23463093325385 20.965236355934096 53.245746078228066 0 0 0
2360 1 10.458893285484011 21.07532621526289 54.95433788377729 0 0 0
2234 1 12.496221363107969 18.732237652611147 54.761860727236666 0 0 0
2389 1 14.564284707584223 20.96355299450559 54.9208893977263 0 0 0
2339 1 16.677912236297807 18.587782398301158 54.68843760347581 0 0 0
2032 1 16.876787990754046 20.77366845606933 53.0829786004073 0 0 0
1934 1 18.46377384382258 18.888482575817925 52.874444885395754 0 0 0
2341 1 20.695738341713614 18.76409658558437 54.77112154876941 0 0 0
2238 1 18.604373607223856 20.49232815359808 55.10557060440987 0 0 0
2147 1 0.11960521686183712 19.00179362610953 54.78766373435751 1 0 0
1933 1 22.61638880147136 20.9087003882534 54.88846315505094 0 0 0
1963 1 2.094311174637697 20.806068784171536 54.940090970134335 1 0 0
2397 1 -0.0024491469956380296 20.900617986242082 52.396498981065854 1 0 0
2050 1 0.3032117948670182 22.507692020976982 54.6257071711953 1 0 0
2131 1 4.212371838927267 22.726653091923566 55.08065458638312 1 0 0
2158 1 6.16532812976605 22.772566015105177 52.90085934892242 1 0 0
2106 1 8.25338251599518 23.036961069171262 54.75504502679777 1 0 0
1953 1 12.4915014408099 20.610299481738352 52.75098474964052 0 0 0
2606 1 12.590361552466723 22.6271713200641 55.03461551896169 1 0 0
2096 1 14.446233867263524 22.68370894780265 52.77389197909341 0 0 0
2243 1 16.620858458962545 22.833614814188955 54.80755921296001 0 0 0
1843 1 20.731922837756834 20.682899886483526 52.938627808915186 0 0 0
2232 1 20.727322246423817 22.97706853131441 55.0733992543242 0 0 0
2084 1 22.613627417738286 22.787475596835137 52.909235822871565 0 0 0
2436 1 2.4530172304812745 0.530081228972713 58.75512489325758 0 1 0
2301 1 0.3801141693535728 0.2019075406756291 57.122537525112676 1 1 0
2295 1 4.346735325727027 2.3523203757467215 58.771322861350555 1 1 0
2190 1 5.978345624906911 2.4901509326405513 56.58217537633226 0 1 0
2123 1 6.188334675437219 0.19140721614933243 58.81624976736125 0 1 0
2169 1 4.515825475507964 0.45212907657634693 56.78494659173956 0 0 0
2217 1 8.078063491486393 2.422626906955156 58.74603161835995 0 1 0
2400 1 7.971822527994458 0.593627773471138 56.83204765956773 1 1 0
2141 1 9.992631577038306 0.12976428254687494 58.94679281180032 0 1 0
2115 1 12.450813084672134 1.9075865521197097 58.7308058641616 0 1 0
2220 1 12.292993909464952 0.09228711696608707 57.05609307019911 0 1 0
2168 1 14.643694962241158 2.0883905636242774 56.780386114618146 0 0 0
2092 1 16.871377200143137 2.0650084714264096 58.49398871676121 0 1 0
2080 1 16.752922090217155 0.02656310089063585 56.66910264465222 0 1 0
2283 1 14.690906982929878 -0.12957578539320222 58.65292673759783 0 1 0
2421 1 21.15906595108281 2.3058169582344767 58.83235282569196 0 1 0
2481 1 18.7926384921303 0.07875965485339642 58.540573114620095 0 1 0
2235 1 21.163878889569553 0.25808836691494863 56.95945110967962 0 1 0
2224 1 0.12182106660053155 2.245800583034997 58.85612963093376 1 1 0
1932 1 22.950015781530176 2.2183621209647817 56.75207055553675 0 1 0
1984 1 23.07957617823859 0.349826561223634 58.59780361980589 0 1 0
2259 1 2.1658675580430238 4.376358180292242 58.61454404884222 0 1 0
2020 1 2.116043263897502 6.389698474517871 56.772891200474724 0 0 0
2181 1 -0.13069788470791366 6.403737693194071 58.596388144494725 1 0 0
2035 1 0.003807831465401368 4.626192797404975 56.797784269644765 1 0 0
2441 1 3.994758873058891 6.620306774084186 58.70783278569248 1 1 0
2015 1 3.985253110124673 4.455101847009072 56.82894041269932 1 1 0
2566 1 5.955606054008684 4.882926252769065 58.71432727412186 1 1 0
2097 1 7.964630412836431 4.537863376368054 57.06823740141268 0 1 0
2185 1 10.173369314006004 6.281772801275919 56.916957782111616 0 0 0
2186 1 8.260639828715902 6.5101168280433255 58.94143974282534 0 0 0
2569 1 10.232209718984457 4.138061421296391 58.98623477801824 0 1 0
2263 1 12.314694662859898 4.228512618611837 56.46598044949525 0 1 0
2148 1 12.814835730384385 6.129186214179231 58.2071055896295 0 1 0
1868 1 14.551754778403986 3.905725177335194 58.58373478898826 0 1 0
2124 1 16.765440199425086 4.247093367106763 56.789739745518936 0 1 0
2149 1 16.749122234321945 5.94058000488629 58.56163652134898 0 1 0
2387 1 18.88535416764858 3.902367788306613 58.77681407087167 0 1 0
2241 1 20.86538841591981 4.346384711796119 56.646029020664436 0 1 0
2287 1 18.869570115491065 6.177263204477573 56.633078990075134 0 1 0
2326 1 20.685522921608943 6.338146485367592 58.71436962064232 0 0 0
2290 1 22.896297098054276 4.436364439100812 58.28139570284573 0 1 0
1894 1 1.7685467377028234 8.66058316145497 58.36549797394988 1 0 0
2206 1 24.3891544745851 8.427213657530027 56.66703579607961 0 0 0
2333 1 3.8456016181146992 8.376176828271259 56.64745373850492 0 0 0
2002 1 6.201192151770078 8.928687223117338 58.546853371564126 0 1 0
2038 1 8.621677799860008 8.632061411326506 56.992907193584415 1 0 0
2042 1 10.692018483670491 8.342783133224739 58.81514177710167 0 0 0
2048 1 12.349492024286416 8.448242545208716 56.86358831259384 0 0 0
2455 1 12.786561205816845 10.143150458118066 58.87736475805155 0 0 0
1911 1 14.522685253888264 7.957867887320257 58.21863651404365 0 0 0
2182 1 16.728800514883865 8.13680096470446 56.62105362700223 0 0 0
2036 1 18.659337973234038 8.232520046531086 58.72516073488835 0 0 0
2315 1 20.437969202394882 8.286568410823417 57.06399700960803 0 0 0
2007 1 22.709066260543906 8.406141777023333 58.76513538743511 0 1 0
2088 1 1.6767555069308882 12.768516785048186 58.7417812421319 1 0 0
2432 1 4.003683013973085 10.600972277046644 58.418017652567436 0 1 0
1876 1 6.019289556130328 10.519634896862579 56.8052923556721 0 0 0
2286 1 3.867997929098671 12.88457613960808 56.50287281142369 0 1 0
2307 1 6.116792427822518 12.8341477378721 58.28386669935959 0 0 0
1874 1 7.9298730065061385 10.945788669461066 58.579752027776685 0 0 0
2590 1 8.201577041856117 12.809027475031257 56.59957609730509 1 1 0
2253 1 10.065005232923774 12.537107628161333 58.83831963216866 1 0 0
1888 1 12.332088081455588 12.364046407888106 57.31749026494556 0 0 0
2344 1 16.705425167202776 10.137418293447427 58.66576821890861 0 0 0
1999 1 14.560173046919815 10.240453698062327 56.70332709008242 0 1 0
2221 1 14.904274164317819 11.980568571706812 59.12540568097023 0 0 0
2311 1 16.286063208263847 12.25408573300977 56.72815578039818 0 0 0
2170 1 20.536958791516803 12.621376830212542 57.0309450823152 0 0 0
2029 1 18.801521283811603 12.62007988443089 58.55598888316129 0 0 0
2442 1 -0.06041064413307046 10.621714881404221 58.477977239800346 1 1 0
2319 1 22.38824723025462 10.489473964297114 56.739059216112075 0 0 0
2472 1 -0.18807254966461784 12.705830308551533 56.85654719760849 1 0 0
2162 1 22.66355483112531 12.538794757247553 58.74995203073287 -1 0 0
2178 1 2.166677111861143 14.841006097468636 56.803537980239994 1 0 0
1895 1 1.9387773879114656 16.867793558602408 58.91027764405177 1 -1 0
2127 1 -0.07658167350577867 16.9296393312229 56.91694326111541 1 0 0
2251 1 4.307833185324872 16.921673411009237 56.84123240093421 1 0 0
2517 1 4.026517593795109 14.880467003137817 58.49173576046441 1 0 0
2129 1 6.440313129890512 16.19565751978778 58.845137921338704 1 0 0
2193 1 8.361007609663618 14.583566036199038 58.7624806153536 0 0 0
2309 1 8.312579234138038 16.54023298499221 56.94688293371742 0 0 0
2072 1 10.618803041375894 16.44835140382491 59.2067255782499 0 0 0
2349 1 10.524633525878558 14.507784811750312 57.1216983015748 1 0 0
2337 1 12.762301291845978 14.446905740345297 58.89868701439372 0 0 0
2329 1 12.463689379929859 16.394222593795156 56.94953687592834 0 0 0
2451 1 14.658889840182708 16.512177679595446 58.85318648068406 0 0 0
2454 1 16.707627568873065 14.289901521650316 58.681640200807394 0 0 0
2087 1 16.80059811399707 16.685883225675653 56.823973946178654 0 0 0
2310 1 18.56242128700319 14.715047224053404 56.65352576081181 0 0 0
2202 1 20.372498389736265 14.459975299246 59.30639903841695 0 0 0
2076 1 18.55197712725373 16.661253592260152 59.12178179477607 0 0 0
2196 1 20.31778638744825 16.568783998523237 57.16414459072337 0 0 0
2161 1 -0.17671700846096883 14.814626716030636 58.54041893567103 0 0 0
2039 1 22.500718162577726 16.44781821749416 58.92646838755622 0 0 0
2188 1 0.14793594037120267 20.70866923793784 56.816410775733175 0 0 0
2327 1 3.9961118809165317 18.5194022284276 58.81119253479971 1 0 0
2273 1 6.383762762962052 18.66718180541403 57.01527955868174 1 0 0
2074 1 6.075602060832177 20.46118080514664 58.98476644000244 0 0 0
2476 1 8.486293755886901 18.381977815708808 59.052759756746504 0 0 0
1929 1 12.577358884662155 18.494181288189033 58.701261342407186 0 0 0
2075 1 14.45255673009936 18.927896785613832 57.052633022717416 0 0 0
1922 1 14.36108892713388 20.978278177393612 58.9339886628075 0 0 0
2474 1 16.616864887332596 18.730259611633244 58.68258846665364 0 0 0
2465 1 16.520611292994637 20.86161636765852 56.95778204947548 0 0 0
1908 1 20.389688992604498 18.519781023638714 59.02717523864606 0 0 0
2247 1 18.83688468382193 20.9966166630726 59.00253975211531 0 0 0
2227 1 20.479079313292942 20.60216602292828 56.89501558712382 0 0 0
2332 1 24.479123349408006 18.813310872578533 58.656374036811314 -1 0 0
2324 1 22.387589532335525 18.544774577822785 56.8079693204581 0 0 0
2229 1 2.28914189781248 21.06312230784006 58.74403557600047 1 0 0
2090 1 2.438109904068188 22.99096316465637 56.84518163623959 0 0 0
2261 1 0.3027606562664812 22.99669600345088 58.6830355462083 1 0 0
2187 1 4.220141632553629 20.879509645477683 56.91152954189291 0 0 0
2535 1 4.277946348584246 22.895302206046445 58.806793676356726 1 0 0
2255 1 8.365890041361443 20.78214577147854 56.995972919491955 1 0 0
2056 1 10.276446633781084 20.569649291977996 59.21828453834426 0 0 0
2497 1 10.449285589210504 22.625225756243047 57.21722026439243 0 0 0
2331 1 8.245596466638176 22.581455660617372 59.04382387655026 0 0 0
2052 1 12.461730681244308 20.755463301655965 57.0175649392724 0 0 0
2378 1 12.378778237670767 22.789140168528228 58.957654904312626 0 0 0
2403 1 16.719167657898062 22.683756919758935 58.84146438153154 0 0 0
2364 1 20.97773624691144 22.918616136753045 58.58707662515752 0 0 0
2199 1 18.62763878940173 22.73546671888313 56.81336240407544 0 0 0
2366 1 22.581060054182103 20.833319325652752 58.66979733317301 0 0 0
2112 1 2.12872636132202 2.3705954307357833 60.75652014056588 1 1 0
2352 1 2.0023155936983836 0.18864746678912392 62.70499223479728 1 1 0
2425 1 3.8367642853694246 2.6077115266552386 62.987840261240784 0 1 0
2134 1 5.943932962053768 0.27908804566872075 62.28830298430221 1 1 0
2165 1 4.0126098312150384 0.2760548825331418 60.65350982954338 0 0 0
2135 1 8.202855331727491 0.44249439749808683 60.90270529834198 1 1 0
2159 1 9.30982936114608 2.8575330005907 63.41296091307695 1 1 0
2139 1 10.868005824027813 2.2710945424475573 60.7531700329447 0 1 0
2384 1 12.992644688982994 2.0191742250567484 62.58719796217138 0 1 0
2353 1 10.789068332639353 0.4924364707743052 62.91146409389392 0 1 0
1750 1 12.554020660027602 -0.1110237817235782 60.596858672632976 1 0 0
2340 1 17.061284321948342 1.7898394585985293 62.56505589886405 0 1 0
2240 1 14.788885832675227 0.0468659868765636 62.70488600719944 0 1 0
2264 1 16.797832285885413 -0.08872328072434917 60.69500969247011 0 1 0
2254 1 19.009385999016537 1.7835503632990775 60.50170931853389 1 1 0
2132 1 21.008196315932288 1.9580041558125654 62.57434468074164 0 1 0
2248 1 19.077675994181995 -0.14425795691747823 62.53522993156188 0 1 0
2486 1 20.902067607621333 0.03392235290443679 60.52963768919693 0 1 0
2394 1 22.91937716793182 0.16787250668778037 62.50490602722983 1 1 0
2330 1 0.2452401217363942 0.1746795422866751 60.61861886842409 1 1 0
2267 1 2.199761336396919 4.601758769390557 63.09916307177168 1 1 0
2396 1 0.28982082415417953 4.267350657463438 60.663366640907164 1 1 0
2404 1 4.020513125386395 4.592694720072728 60.901610888946074 0 1 0
2401 1 5.793666593017991 7.024401405880379 60.48160464987238 0 1 0
2430 1 8.762684621989282 4.220827867437709 60.92546252582911 0 1 0
2183 1 9.898750242585278 5.718063233050772 63.32388545666431 1 0 0
2146 1 12.843594375200912 4.049720984409051 60.48404606406725 0 1 0
2019 1 12.2989386948336 5.193641035930622 62.65633465521885 0 0 0
2004 1 15.210742529694961 3.8312015551925445 62.32856269030871 0 1 0
2282 1 14.608620943647205 5.945297848030876 60.44510606576765 0 1 0
2244 1 16.873767489943795 3.668121301702144 60.38082099697626 0 1 0
2581 1 16.966424787030768 5.798713055388315 62.20707093918838 0 1 0
2433 1 18.867929303981853 3.799035572328968 62.21602740106294 0 1 0
2157 1 20.85847810143308 4.294696615037806 60.67619303324319 0 1 0
2268 1 22.412183347759438 6.315563422815554 60.87930603835849 0 1 0
2819 1 22.674736601510887 3.9856051806290704 62.204486554248994 0 1 0
2395 1 -0.10407477747586569 6.172555946717896 62.3805934669388 1 1 0
2445 1 1.300125211603865 8.70726967870173 62.39714345297113 1 1 0
2422 1 -0.09001258261114839 8.214899334417066 60.31976514876017 1 1 0
2266 1 3.452959291586802 10.333132643517345 62.88171464838975 1 1 0
2305 1 3.653670355808568 8.881041156585141 60.32544782522308 0 0 0
2426 1 5.673884211969365 9.143277324603261 62.20031776563901 0 1 0
2447 1 3.70886752022439 6.850489070587874 62.24433066480143 1 1 0
2375 1 7.816399428469579 6.427211043118417 62.169766561226886 1 1 0
2302 1 7.865297183458484 8.759239359304123 60.389293627350916 1 1 0
2215 1 10.167564387282157 8.243019778912931 61.600867817319646 0 0 0
2467 1 8.221587183011652 8.863070118070205 62.990441352154456 1 0 0
2284 1 12.57618369652908 7.68565956868313 60.584820392482904 0 1 0
2475 1 12.340604516675583 10.068243067282152 62.32813936021696 0 0 0
2316 1 12.087881316438727 7.7193513706107115 63.30403203549481 0 0 0
2265 1 14.652119910713314 7.830400067142069 62.169625869473954 0 1 0
2171 1 16.52293372090726 7.9345788836946 60.38459105446276 0 0 0
2418 1 20.913647983896084 8.281911817429803 60.86717341659149 0 1 0
1855 1 18.63348295109226 8.090918718325321 61.994836581500046 0 1 0
2409 1 18.609531641723954 10.308019137992202 60.44313218312371 0 1 0
2303 1 21.496291091276397 10.340498508708203 62.62672865000027 0 1 0
2419 1 23.231198365892453 8.710599478528462 62.19748247121975 0 1 0
2064 1 1.862502545306297 10.546554694194327 60.406031995992855 1 0 0
2469 1 1.4203819494305236 12.55066977533855 63.183243986244655 1 0 0
2351 1 4.0551527896994 12.390115689343123 60.430610217303176 1 0 0
2163 1 5.322179928959152 12.193471499836754 62.603194901026036 0 0 0
2142 1 10.161721535138529 10.456661961798597 60.4199149097544 0 1 0
2069 1 8.337183869352357 12.353061697838392 60.70638229952559 0 0 0
1928 1 12.290387681452083 11.989362047326669 60.58255950601847 0 0 0
2314 1 14.483959251419005 11.898717000908592 61.958153174503714 0 0 0
2046 1 16.77203993813717 12.216919196373777 60.567198680268255 0 0 0
2578 1 16.46505276839197 13.528722627000947 62.981555430300965 0 1 0
2323 1 20.657646823006317 12.043380577295958 60.42183981068395 0 0 0
2558 1 18.816942388166886 12.317581459594095 62.420038985042204 0 1 0
2434 1 -0.12423111248622831 10.7016845074522 62.601769492373144 1 1 0
1875 1 -0.033088214405702254 12.478930556769328 60.58906748320204 0 0 0
2280 1 22.380966507032177 12.62521879948978 62.571237772657575 0 1 0
2613 1 1.6185601523070032 16.756796220365494 62.90473851242405 1 0 0
2276 1 3.2209528516406496 14.248420695007331 62.48707115919661 1 1 0
2045 1 5.763281233805548 14.31929436295416 60.91568248720486 0 0 0
2108 1 3.7065777952301935 16.568097026880487 60.89462435839646 1 0 0
2626 1 5.864594100931165 15.93615070356516 63.14797890929635 0 0 0
2471 1 7.961483142375037 14.117003300688895 62.79224625111424 1 0 0
2197 1 7.879446149808297 16.3310709340469 61.097996066485955 1 0 0
2093 1 10.195871730655599 16.065599577145903 61.792372449257975 0 0 0
2068 1 12.719753555826268 16.16263573781675 60.9538527573766 0 0 0
3011 1 12.341991583446777 14.203212649670494 62.91517087637056 0 1 0
2213 1 14.794012071212324 14.41951768504035 60.95733010879931 0 0 0
2346 1 16.737306554191534 16.595650157069045 60.997317732820754 0 0 0
2028 1 14.568136253184587 16.1028892635532 63.045889413898315 0 0 0
2308 1 20.783840762792238 14.661528992774649 63.06358498041421 -1 0 0
2231 1 20.839085201696633 16.652543395133847 61.15549350324846 0 0 0
2361 1 19.139807055995725 17.038918071307165 63.03188680382289 0 0 0
2277 1 -0.026011116793274724 16.494948061040816 61.018300548586446 1 0 0
2322 1 24.251760595681127 14.436301453039276 62.815442597884235 0 0 0
2089 1 22.486914395428784 14.627689158252501 60.80559634183368 -1 0 0
2488 1 23.44683514203839 16.914014362774793 63.324123069992204 0 0 0
2456 1 1.6629317298436093 19.0689644970616 60.83463490696829 0 0 0
2756 1 2.10488801181258 21.223337026242348 62.677657809937735 1 0 0
2204 1 3.528000398397327 18.583869740514103 62.738478981746944 1 0 0
2211 1 5.682796358237006 20.51240871703287 62.70504007751136 0 0 0
2402 1 10.100137727975397 20.312839927397256 62.256179470007645 0 0 0
2192 1 11.565644967528547 18.260598168999273 61.168379751560146 0 0 0
2381 1 12.865334951717585 19.696438382059704 63.164763921298736 0 0 0
2532 1 15.023002196412891 21.14337374770696 62.77388007922493 0 0 0
2464 1 16.590609181900682 18.412567049011315 63.15109395289988 0 0 0
2382 1 16.729170044737806 20.657529552361545 60.859857760394426 0 0 0
2208 1 18.84995365231495 18.780413699718935 61.070371390187 0 0 0
2386 1 18.88871801277547 21.24529250936463 62.2752872033822 0 0 0
2062 1 21.150500048309254 18.74327268836459 62.629687138434726 0 0 0
2377 1 0.23350277627294025 21.085380488845452 60.705838953967294 0 0 0
2482 1 20.80405224111476 20.72259566123033 60.741147337971555 0 0 0
2490 1 22.980011468653522 20.84318317477873 62.68406904722311 0 0 0
2012 1 0.14771048081816762 22.86772570195501 62.486296066176585 1 1 0
2041 1 4.016461299691937 20.518095717865272 60.92121136697805 0 0 0
2493 1 6.101919174008424 22.601835449226833 60.755243573298564 1 0 0
2342 1 7.945101295407772 20.830444182631922 61.16200567116318 1 0 0
2542 1 7.2662884298767025 22.47845823572326 63.31340227190467 1 0 0
2484 1 12.73106633338446 20.627489327126355 60.877528016872496 0 0 0
2214 1 12.413736231019687 22.704969474703795 63.1974236103102 0 0 0
2354 1 14.637881514926642 22.749241352064878 60.83339872952065 0 0 0
2116 1 16.94439358101259 22.82867470395354 62.672535330028886 0 0 0
2081 1 22.767864727733112 22.627436232205845 60.52846161590952 0 0 0
2541 1 1.789033825351039 0.8134266671304788 65.79201219086059 1 1 0
2294 1 3.509764365883582 2.463064876201297 67.08186760681616 1 1 0
2693 1 6.307413260001564 2.4685637558474167 64.12931690044715 0 1 0
1996 1 3.998308077617967 0.5088031577594141 64.21418362257035 0 1 0
2549 1 6.605475077773257 0.02901755260647204 65.10875377837573 0 1 0
2140 1 8.656027227697306 -0.14077949161775646 63.57441030433636 0 1 0
2128 1 10.313270468053775 1.473959319538749 65.54659177928136 0 1 0
2407 1 12.829884124059323 0.36151571749092704 64.60885597669719 0 1 0
2383 1 15.181442049119209 2.086648546975752 64.41864525135622 0 1 0
2070 1 17.369630315648976 2.0333765997760738 66.59298780111936 0 1 0
2411 1 14.740233787809952 -0.051227569132327816 66.27032683381941 0 1 0
2362 1 17.287989858515488 0.010582541109586757 64.91468299602889 0 1 0
2249 1 21.29106360987057 -0.10091946455005389 64.95028361890144 0 1 0
2203 1 19.300028722859167 -0.11457778750567373 66.75222628515374 0 1 0
2274 1 24.44479318888496 0.13492002743689474 64.30042268931834 0 1 0
2372 1 22.469298574027967 2.154915941327032 64.68320862994364 0 1 0
2194 1 24.438857288778244 2.393520390640425 66.16714026098765 0 1 0
2415 1 22.870792064688715 0.47083229126635084 67.14430468377614 0 1 0
2515 1 -0.19051154412239213 3.920046104377276 64.10855509551124 1 1 0
2634 1 1.651710305813786 4.435111681510512 66.35771463869656 1 1 0
2537 1 1.2832064295120087 6.498411551036994 64.52736070207672 1 1 0
2573 1 4.983185441913083 4.974997604361726 63.020187068859975 0 1 0
2477 1 5.980342949334786 4.63619167261521 65.4122018459864 0 1 0
2561 1 7.6687584440833705 4.567349854390038 63.65649693991963 1 1 0
2567 1 8.254940020548597 3.0111769901714815 65.87694707438936 1 1 0
2674 1 11.362785161323114 3.6533976060941655 66.62863059903 0 1 0
2017 1 11.697652585300869 5.875183392895679 65.09410182137549 0 0 0
2576 1 13.963866521851529 4.281773759191257 64.66426914793058 0 1 0
2427 1 13.406154911211262 5.22763542484421 67.26430956671302 0 1 0
2388 1 17.364802492533933 3.9554422559658446 64.34366259572613 0 1 0
2553 1 16.28895402122587 4.366055099363178 66.61922903070831 0 1 0
2374 1 19.178604559906454 4.097134096796519 66.26625807815992 0 1 0
2677 1 20.70269500954825 3.9877863073147477 64.11249644466102 0 1 0
2321 1 19.05686118683368 6.200218337319654 63.998314084390536 0 0 0
2557 1 20.742388239950664 6.414569679975495 66.03220817653167 0 1 0
2104 1 22.084007478885468 4.0920860350490615 66.20504045109337 0 1 0
2296 1 0.4795482809199467 8.371337054698651 66.15876034467075 1 1 0
2877 1 3.01868675867343 8.579887955375382 64.85587615888761 1 1 0
2367 1 5.219757216340999 7.64016619994863 66.25803334763813 1 1 0
2408 1 5.556220095299569 10.041518305807589 64.64734673592136 0 1 0
2236 1 4.527770854865144 10.532133167594989 67.0428809706165 0 1 0
2452 1 9.809621443097614 8.053031787418865 65.39359435019105 0 0 0
2860 1 7.413843878436911 9.116590181254523 66.09709591685638 0 1 0
2516 1 14.413692296607264 6.889063157209474 65.15929791274837 0 1 0
2043 1 14.415420211590796 9.462454306428752 63.78313756862759 0 0 0
2522 1 16.885138598290418 8.063368297065141 63.609739811760726 0 1 0
2288 1 16.165837270674317 9.327684307081979 65.91274562600506 0 1 0
2292 1 18.906809208013748 8.104499291184634 65.54077459369631 0 1 0
2191 1 20.994400935998485 7.993397735588728 63.50728736824812 0 0 0
2414 1 23.193224086833773 9.1637952072028 64.91396203750224 0 1 0
2592 1 2.9734957199818544 12.043636621831013 65.17175132086871 1 1 0
2417 1 0.8780695132932554 12.742796756722607 66.74644280155641 1 1 0
2347 1 7.732228181008755 11.614719773696896 63.347718847097205 1 0 0
2562 1 9.38232988651631 10.775125876978816 65.34753733360358 1 1 0
2166 1 10.159884876775177 12.250443069852935 62.677377546554645 0 0 0
2022 1 14.257446423422891 11.18702342964601 66.15321665503058 0 0 0
2630 1 12.836287306512412 11.937122317573248 64.089917196875 0 0 0
2285 1 13.220914182098873 13.726142098756286 65.87979720793041 0 1 0
2748 1 11.745329155069888 11.762944045370187 66.35164702111771 0 0 0
2023 1 16.545807498513348 11.046148561902944 63.70473910766858 0 0 0
2446 1 18.373437975817815 10.811086609230987 66.25643713398719 0 1 0
2272 1 18.06292640065373 13.31445549261118 64.77188748213152 0 1 0
2439 1 20.223662641888822 12.144246915363903 64.48326627528033 0 1 0
2291 1 21.25814455261966 10.511301964132075 66.1198474428609 0 1 0
2534 1 23.864453483958073 10.637550736539906 67.02772078698143 0 1 0
2325 1 23.274946797355398 12.314296930954317 64.93058507918875 0 0 0
2725 1 23.012112551348494 13.025513639752658 67.37068175120064 0 1 0
2577 1 1.8280464470259572 14.549607558845837 65.02853798073812 1 1 0
2621 1 2.95932951660943 16.411868876287755 67.03489562618745 0 0 0
2172 1 3.789333103432673 13.618418149336277 67.19107488704833 1 0 0
2449 1 5.565354340559426 15.831026575018171 66.06337779008436 0 0 0
2552 1 3.3605051376194623 16.551106401597757 64.27846699097233 0 1 0
2864 1 8.8400781479289 13.313340447035836 65.56263443772906 0 1 0
2216 1 8.33885191668857 16.477543422552714 63.79533774898787 0 0 0
2179 1 8.072651285597244 15.928852739645924 66.40627105880088 1 0 0
2336 1 10.385074576023163 16.909537549085208 65.99153739565216 0 0 0
2773 1 12.017363945274685 16.67463164600315 63.483572661583786 0 0 0
2668 1 13.202481188184652 16.105802355910797 65.60518301285498 0 0 0
2602 1 15.701313976451152 14.896417594454896 65.33665872334734 0 0 0
2611 1 17.302920501222914 15.8079950919627 63.84501982860852 0 0 0
2328 1 18.989927359070165 15.625897488076294 66.0176580300161 0 0 0
2509 1 20.94963594226376 17.010325588709932 64.91041591411783 0 0 0
2226 1 0.8723479205928071 17.22473635085864 65.12327942154272 1 0 0
2437 1 23.043120009022367 17.1130682414721 66.38328934218103 0 1 0
2734 1 21.414806606199264 15.08078759335522 67.11121300734419 0 1 0
2494 1 0.06923763047350806 21.363126807265317 64.49330457966605 1 0 0
2233 1 5.721733901469076 17.968469847283366 64.38723584066773 0 0 0
2539 1 5.955038474329083 20.273996554976478 65.51802444344193 1 0 0
2373 1 3.5980430077396415 20.897263104532826 64.49111280255502 1 0 0
2498 1 7.79870812839803 19.609283568808628 63.7613515022309 0 0 0
2428 1 7.933739589059675 18.668215816626578 66.3155188504881 0 1 0
2548 1 10.078236492242864 18.886539434733585 64.29486668785663 0 1 0
2480 1 12.629542449020958 18.287007152731896 65.07247057719582 0 0 0
2239 1 13.94003681331657 20.336384625000754 67.78450910176667 0 0 0
2633 1 14.772752739424531 19.913292334272754 65.11264064868018 0 0 0
2460 1 16.555591488340042 20.094589071137904 66.85033391393154 0 0 0
2502 1 17.014121220712454 20.963020412673323 64.59810746645948 0 0 0
2485 1 18.4248446396592 18.137888867868128 65.7987067835754 0 0 0
2736 1 19.09014635810454 20.658057571654986 65.94492125663342 0 1 0
2300 1 20.928561316632702 20.983439793626403 64.34276027587174 0 1 0
2610 1 20.37220629647573 17.4695697732559 67.67200515213867 0 0 0
2470 1 0.35850817262730916 19.475305467850966 66.0950423827064 1 0 0
2533 1 23.164237867078775 19.007205925349083 64.55676993675806 0 0 0
2385 1 23.05847144963719 21.139356370602854 66.2468907182294 0 0 0
2246 1 2.224709773482548 21.462977919672525 66.44140879944166 1 0 0
2473 1 2.0699097216423104 23.173824018726975 64.57973482082284 0 0 0
2256 1 3.5516186702000834 23.894690828939076 66.68161294349818 1 0 0
2594 1 9.501982339947864 21.318980744606804 64.54548304085873 0 0 0
2312 1 8.024295865002236 22.894363216814895 66.04253598621378 0 0 0
2391 1 12.201146469682627 20.918193182886718 65.58590699897559 0 0 0
2207 1 10.800018549573497 23.638214346536422 65.25974095144261 1 0 0
2145 1 19.256292216979503 22.86692607494507 64.81304237828593 0 0 0
2529 1 21.067571906582053 22.55239030160513 66.81957902667756 0 0 0
2399 1 1.003147076060049 1.3135307212319571 68.25707934126979 1 1 0
2369 1 0.5377968007140178 0.1781867525384957 70.7403613347 1 1 0
2492 1 2.3469324979620994 2.0310319745143177 70.86909407465225 1 1 0
2615 1 3.3610920140547265 24.097639202605027 70.83753616295178 1 0 0
2416 1 5.141390113705903 2.3601022980821695 70.09992599577637 0 1 0
2528 1 5.551931803352609 0.8005658212099125 68.09550591151776 0 1 0
2689 1 6.276506194466004 0.2784854965345617 70.89990581275586 0 1 0
2706 1 7.415472899157214 1.9752342296519454 69.07435801679861 1 1 0
2531 1 9.642902420273266 2.2297889858683484 68.07146557508938 0 1 0
2815 1 9.364138338005379 0.44247651334449967 70.10784439779852 0 1 0
2692 1 9.648761990610184 3.041147889379951 70.57541500855217 0 1 0
2379 1 12.194761933454652 1.0416329500526011 67.17389895322364 0 1 0
2572 1 13.18245780771991 3.074652264171641 68.92024416876939 0 1 0
2356 1 11.633889905106843 1.4241271186961633 69.96773801829039 0 1 0
2563 1 13.748997298800449 0.3912218736279176 69.03472129452129 0 1 0
2786 1 14.86512259767551 1.8070726918880158 71.06366860700464 0 1 0
2854 1 15.788428230526915 23.78962025808645 70.57625805864902 1 0 0
2781 1 18.967905510931374 1.5602832264370428 68.81402897954587 0 1 0
2688 1 20.70151884578928 0.7455853803157894 71.09147563649316 0 1 0
2420 1 22.024221797674578 2.910036867299693 70.66090090871333 0 1 0
2656 1 23.36166036916945 3.1157455900498183 68.437147486735 0 1 0
2514 1 0.00834835350208249 2.8041659279942586 70.58092322307715 1 1 0
2731 1 2.0174638755210523 6.8672990420786 67.41576709820745 1 1 0
2538 1 2.7605412694111533 4.325479529463922 69.0385354111323 1 1 0
2443 1 4.1333446584721125 5.393957067359993 66.8598548518523 1 1 0
2520 1 5.924125575129073 3.452487180502175 67.7040897515759 1 1 0
2250 1 6.478749248275052 6.13604586184386 67.68927750545441 1 1 0
2546 1 7.681454750779712 4.525278260714037 69.30231806236608 0 1 0
2524 1 10.199556916357938 5.7904282655843495 70.03368768374327 0 1 0
2429 1 11.217101605452097 6.460798909005482 67.49306318779108 0 1 0
2540 1 12.679164982580755 5.568640309612124 69.7394310768656 1 1 0
2406 1 15.297041604539723 4.541483349769097 69.12755552334619 0 1 0
2457 1 15.397158149410677 7.056524739103205 67.67298181192606 0 0 0
2704 1 17.24987631610427 6.316447724330282 69.64260464993032 0 1 0
2228 1 17.877836722211065 3.927321864065078 68.78831043167716 0 1 0
2808 1 20.512759299854025 3.7808264046551594 68.78090694425669 0 1 0
2306 1 22.128342062044908 5.795343904007356 67.98554337341315 0 0 0
2424 1 24.182175668930647 7.137663149765656 68.95937622535348 0 1 0
2871 1 23.408220092671407 5.239199890364044 70.30399814407676 0 1 0
2518 1 2.3699981435072197 7.305396322668017 70.11626607282622 1 1 0
2682 1 1.0119700601471056 9.1683414384002 68.75426478683639 1 1 0
2716 1 3.734563578122937 9.43426729947692 69.52706499870254 0 1 0
2313 1 6.183879399399737 8.449001084112668 68.48106839939152 0 0 0
2281 1 7.569556401366472 6.872283389611919 70.4575229355518 0 1 0
2591 1 8.927684491850389 7.496256012676144 68.16597749395339 1 1 0
2167 1 10.271394326475244 9.699928806008856 67.68270461718149 0 0 0
2838 1 11.089733777524042 8.086487658765162 69.65101724583599 0 1 0
2574 1 12.651755847412517 10.350889896382062 68.66051577132421 0 1 0
2545 1 13.748968267513183 8.982332018144579 70.73699623798132 0 1 0
2580 1 15.174466293809715 9.877805300799668 68.18022904262463 0 1 0
2318 1 16.30400342513898 8.546211647888267 70.2635877632319 0 0 0
2874 1 17.635918288703657 8.74931879358283 68.025412073638 0 1 0
3012 1 18.89899179139495 8.334372565331964 70.18253301805868 0 1 0
2368 1 20.31379745102977 8.530895802908553 67.9028496848403 0 1 0
2435 1 22.842906113476502 8.257514011317499 67.19959452071336 0 1 0
2873 1 21.814838351287904 7.600336096295693 70.13448245699652 0 1 0
2412 1 1.4524692239804773 10.403093942217648 70.68236316551548 1 1 0
2463 1 2.6431918908654746 11.578491190964096 68.47086893159664 1 0 0
2856 1 5.122192003273926 11.972330365022085 68.93277355871487 1 1 0
2858 1 6.369556794821754 10.204678325181389 70.47066550632178 0 1 0
2448 1 9.633327611670795 12.166285187112255 68.22717258432243 1 1 0
2453 1 7.525608005805906 12.639983247079433 69.60710587266303 0 0 0
2568 1 10.676801630256037 10.62114291921179 70.37378806517745 1 1 0
2790 1 10.1304839741456 13.201572580374286 71.12034166159967 0 0 0
2624 1 14.10645823753774 12.549681482151684 68.17459476507457 0 0 0
2728 1 15.075748835642148 11.234383638458958 70.5173741945477 0 1 0
2564 1 19.70876303041301 11.065043427067032 68.72918892053872 0 1 0
2440 1 19.734448178593404 13.092695355552431 66.80130501348765 0 1 0
2468 1 18.616193966350757 13.37231123866171 69.50115617365856 0 0 0
2320 1 21.059848867987746 13.553218988434171 69.33102252867138 0 0 0
2922 1 -0.07578578497947319 11.819213714233525 69.41921352092817 1 0 0
2850 1 1.986605845241416 17.012385433923882 69.7174864153391 1 1 0
2444 1 0.763283220737972 17.48462514125667 67.771440890176 1 1 0
2589 1 5.649092526343375 14.198356987397903 70.53022586219117 1 1 0
2593 1 3.970910466608136 15.398849487549095 69.05890382380028 0 0 0
2831 1 5.797694854438269 17.378947708615577 70.46589632598747 1 0 0
2595 1 6.540881382112908 14.1589211668227 67.66887085959237 0 0 0
2769 1 9.350034633394399 14.68492815339602 68.23084740332581 0 0 0
2603 1 9.412139255158865 17.30637207037261 68.49189777549418 0 0 0
2852 1 13.192136491560477 14.4326096279989 70.24145077589611 0 1 0
2504 1 11.825483280362151 15.995748151225326 68.11392205019095 0 0 0
2718 1 10.431779819318464 15.708756245011315 70.59484911379494 0 1 0
2747 1 15.767553323322458 14.10948909396444 69.72524010394997 0 0 0
2500 1 14.217748933056182 14.989414363821421 67.82366312239034 0 0 0
2749 1 16.89444967693894 13.86642824229822 67.32823386895305 0 0 0
2335 1 15.537871484269333 16.723090762355667 69.43859627368633 0 0 0
2616 1 23.63358835277991 15.44809192001414 68.69307739355699 0 0 0
2483 1 23.035464556704788 13.77825587558643 70.68381424431797 0 0 0
2642 1 2.565387636859802 19.116666812044542 67.28628912717352 0 0 0
2466 1 0.013131012226111238 17.4681146537162 70.38118385753569 1 0 0
2195 1 0.49815902122512634 20.95799325042085 68.20657603332245 1 0 0
2588 1 4.293490123824661 18.116942921032454 68.64752150797199 1 1 0
2491 1 4.7820304436139205 20.418664737916544 67.77193691301966 1 0 0
2371 1 4.937939696083517 20.143346264707205 70.4032253064162 1 0 0
2617 1 6.862325606880573 19.186197880398318 68.84719884248915 0 0 0
2521 1 9.347240508865616 19.81317241965231 69.26799413000299 0 0 0
2766 1 11.561091774437983 20.609729440113135 68.62222265956623 0 0 0
2450 1 11.30659841871924 18.300863743548646 70.37565718520267 0 0 0
2459 1 13.512816255411078 19.061419219614322 70.17993515376423 0 0 0
2059 1 13.899404879372696 17.799365556702696 67.61643086642681 1 0 0
2722 1 15.9800071712121 19.10729049988435 69.15332453572103 0 1 0
2707 1 20.310414784385728 18.69596361707987 70.03674461632201 0 1 0
2462 1 18.59894749373141 19.60382999475234 68.32838022186525 0 0 0
2582 1 22.473754788542223 17.766981422923635 69.10432601668683 0 1 0
2496 1 21.216967714393995 20.231214687643586 67.88469565358167 0 0 0
2200 1 23.770681798876957 20.01651035076312 70.07470689299541 0 0 0
2685 1 3.9457626468629297 22.532617746200202 68.96562453687119 1 0 0
2461 1 0.17571997383147675 22.356790472480768 70.42929645958614 1 0 0
2370 1 5.632982423087822 22.913396370022653 66.95935890967795 1 0 0
2648 1 7.750192296665509 21.147570033934407 67.83164207799643 0 0 0
2525 1 7.610340118193824 23.798866176004353 68.72156526617476 0 0 0
2645 1 9.614148580035163 22.388462360881306 70.09802621039802 0 0 0
2618 1 10.20572901960952 22.20077673273137 67.1246328369349 0 0 0
2650 1 12.774324605776828 22.875168641722766 67.12021508487504 0 0 0
2776 1 16.79802890218847 21.734615010550876 69.2078355763426 0 0 0
2501 1 14.931852113619998 22.55809489881549 68.46904675604156 0 0 0
2510 1 16.835265576094763 24.424286584638168 67.67245600893386 0 0 0
2393 1 18.54186646455053 23.924532063298287 69.82158138118118 0 0 0
2051 1 20.942593894980504 24.231287336987556 68.96679148251698 0 0 0
2798 1 22.695195609246234 23.813329175795197 70.97930376840216 0 0 0
2175 1 22.927667511115963 22.471601333951988 68.64339549119646 0 0 0
2487 1 20.343256084514508 22.708175920156435 71.55757007722326 0 0 0
2586 1 4.2295257524803365 1.946006602535597 72.65336537740399 1 1 0
2672 1 10.943841155659335 1.8272104111020888 72.71985844407192 0 1 0
2717 1 9.305869815191418 3.7992760058691424 73.98312769826273 0 1 0
2801 1 20.800842161180057 20.229935405534967 72.7506291115752 0 0 0
2793 1 13.229996017183733 0.01958435186440466 71.43483856817019 0 1 0
2671 1 15.402886110601763 3.576760959537878 73.28272056812682 0 1 0
2512 1 16.41030148133151 1.1795212426350095 72.74682211823284 0 1 0
2219 1 19.545795849617853 2.958947366074547 71.03204307494724 0 1 0
2679 1 17.85786581261229 2.8596898689900687 73.25635883922988 0 1 0
2334 1 20.901836495931505 1.880603719229697 73.06259397140181 0 1 0
2777 1 23.78399805393554 1.0673420075949918 73.10860919293813 0 1 0
2598 1 18.764187013877148 20.75757895889995 70.62975675100947 0 0 0
2625 1 3.5970669301776623 4.051962484959068 71.56458891500384 0 1 0
2822 1 1.6458867789640004 5.131316792515586 73.84011095009558 1 1 0
2661 1 1.1543331367591194 5.299878326205395 71.06851087253108 1 1 0
2980 1 3.810432430690179 6.219194059869335 72.25802529065905 0 1 0
2878 1 6.39400932120132 6.705988431448038 72.69878023992962 1 1 0
2269 1 12.52847299947226 0.3218532038558761 49.112455273510555 0 1 0
2526 1 14.96563530009836 23.577560158987552 73.25910913958379 0 0 0
2523 1 8.714543443922452 5.339238026093643 72.14895213102344 0 1 0
2687 1 11.384501055848029 4.570896488312504 72.27763510712688 1 1 0
2405 1 14.10523041444167 4.449557207619313 71.51371861379761 0 1 0
2554 1 14.04688304008459 5.5980012673424815 73.92565733441614 0 1 0
2536 1 16.76058097365989 3.651177788860497 71.03916548638466 0 1 0
1885 1 14.800959009213045 6.354188866849575 48.85134974362428 0 0 0
2844 1 18.46614887463761 5.21577748508454 72.03807983682225 0 1 0
2010 1 18.583940017074205 2.3691015444551295 48.862330953948465 0 1 0
2544 1 23.868052544557756 3.7678232858763177 72.72528292342912 0 1 0
2709 1 23.807280886871176 6.736108628503517 72.21041637296827 0 1 0
2609 1 2.837025827566583 9.06432968917311 72.38980239903907 1 0 0
2977 1 0.025634123928016395 9.580175597211513 72.71558924106981 0 1 0
2543 1 2.687002944679907 21.761219575514566 71.08151903386366 1 0 0
2875 1 4.981153602550291 8.111233637158344 71.15790751342988 1 1 0
2458 1 17.77937885287254 18.185043449113948 70.88599346417706 0 0 0
2547 1 7.559627853954401 9.022403697938808 72.23260753487776 0 1 0
2750 1 2.2202824466161726 11.173762981151286 73.5337961320152 1 0 0
2646 1 6.790002540208022 21.37817142371002 73.31680520912926 0 0 0
2555 1 12.877272538943012 6.980468023389886 71.85683014228556 0 1 0
2565 1 11.82913705204186 9.332697713850125 72.50116511808875 1 1 0
2823 1 17.373017101799263 7.530452572997865 72.54428248194259 0 1 0
2839 1 15.031226427503103 8.076014286503442 73.00842864584132 0 1 0
2701 1 20.052490003197768 7.305828736723546 72.44498749091517 0 1 0
2392 1 20.770447040842583 9.803789675507842 70.87686631847396 0 1 0
2559 1 22.27888819390916 8.689176704800342 72.85989105777622 0 1 0
2513 1 0.5054976070763918 23.190122604438166 72.85555852123005 1 0 0
2729 1 0.4347655318522723 12.266317859541237 71.86175382452839 1 1 0
2683 1 4.400374670805831 8.22219413929782 74.24833853155934 1 1 0
2738 1 6.700593985739118 12.656114230168845 72.51846233757175 0 0 0
2714 1 8.782356759803648 11.02771795512401 71.69947419859389 0 1 0
2508 1 7.886834690329602 23.41263510414538 72.02047324794836 0 0 0
2715 1 11.32856208376182 12.064191507084207 73.13672847440711 0 1 0
2413 1 16.40882718649049 10.206001186982148 72.3087911316533 0 1 0
2723 1 14.748698430136134 13.384660126022649 72.29826004951568 0 1 0
2719 1 17.237606397668998 12.579866063495897 71.78474157569258 0 1 0
2868 1 18.542606000245428 11.37287993150485 74.07423988928443 0 1 0
2925 1 19.823061329373274 11.943547270070496 71.38597796830794 0 0 0
2530 1 21.173979876903353 10.894501741023236 73.86617244288408 0 1 0
2698 1 22.48019550824454 11.338867552429033 71.57240165313641 0 1 0
2775 1 1.9479642305390508 13.810170290967848 73.32738378048893 1 0 0
2410 1 0.5198550583338937 14.973289804660142 71.52316506458541 1 1 0
2817 1 10.892633505803994 23.849871572155195 71.82196870486095 0 0 0
2859 1 4.937421767999034 14.241889372039143 73.28149523461806 0 1 0
2596 1 3.1362758865408917 15.588587413076352 71.51155995188049 0 0 0
2771 1 6.7244986925189885 16.186149331523538 72.08206609464179 0 0 0
1824 1 6.510526295188778 6.7378489201267024 48.86684778678426 1 1 0
2575 1 10.192466322942327 15.5190919483523 72.98937690266152 0 1 0
2765 1 5.757977803894073 24.39936961605479 73.46045308155135 0 0 0
2338 1 15.425127887167994 17.946370292495878 71.8788690607193 0 0 0
2600 1 12.43548935921974 14.443561579466113 72.71348853300088 0 0 0
2937 1 12.845373729661405 17.05323183726796 72.0506123179272 0 0 0
2632 1 17.218393513905745 17.342370491903722 73.41109104788254 0 0 0
2583 1 17.617988487325313 15.457841066287834 71.11708920881978 0 1 0
3150 1 19.7083822281354 14.576916435842657 72.03058035991694 0 1 0
2636 1 19.683827218105655 17.704827520203132 72.4118779666685 0 0 0
2629 1 12.519801969157466 22.32994963760148 73.49813228962282 0 0 0
3166 1 23.813314687009772 13.876776970049747 73.32853425994549 0 1 0
2605 1 22.096750711706463 16.133566890435795 72.74566416692267 0 0 0
2678 1 21.55779809571127 14.292991473797576 74.1793390471399 0 1 0
2359 1 17.641530129515367 23.13951101405363 72.33175522795739 0 0 0
2519 1 1.772134620444353 17.032564610504387 72.40922184543803 1 0 0
2740 1 -0.0530085312632238 18.12783011561759 73.49404126468869 0 0 0
2949 1 1.361572156727395 20.02876377253545 71.96128634443559 1 0 0
2812 1 6.817170471398708 19.159262981482087 72.38114721745518 0 0 0
2601 1 3.9453551344542586 20.592817047580688 73.3634380207879 0 0 0
2597 1 8.524060001965246 17.819891239458016 70.92767330667976 0 0 0
2622 1 11.149070282212284 20.709898063997606 71.49610989196205 0 0 0
2726 1 13.270999269282456 19.73651264906693 72.7216779159892 0 1 0
2507 1 22.048078998904984 18.433545369290158 74.3303554190249 0 0 0
2105 1 22.639534788950186 6.4531291468510235 48.69049315680253 0 1 0
2676 1 9.875795336539143 9.525285743256989 73.90171889999453 0 1 0
1732 1 6.295081246692431 14.426908739662116 48.87595573459552 0 0 0
2824 1 21.608128760760444 6.655547183500701 74.31369006326062 0 1 0
2130 1 0.05705012969913881 0.10426720419070185 48.80510720971769 1 1 0
2758 1 8.24408932191624 17.584893948293512 74.07585464951887 1 0 0
3049 1 8.131660288015265 14.457900775547285 74.14009723136576 0 0 0
2848 1 8.643031157001207 7.348884840356388 74.09596146741481 0 1 0
3006 1 11.30558170198191 20.161345906942216 74.14749334359118 0 1 0
2842 1 19.873401067046352 4.693470507365443 74.20943516437137 0 1 0
2918 1 14.733255929747795 17.715915249643004 74.34527366354939 0 0 0
2527 1 6.99549805961036 4.726839733903943 74.3468294432671 0 1 0
2478 1 15.94293155286831 12.00222639248522 74.21102588526409 0 0 0
2675 1 19.32488800471743 15.8134362388912 74.36719154258279 0 0 0
2506 1 18.70821030537526 6.81454269106304 74.36126710862817 0 1 0
2647 1 12.257196278187134 0.24746151233399227 74.08410982732144 0 1 0
2614 1 2.2449145693202204 18.87957960969443 74.16847606057982 1 0 0
2927 1 3.1947949909185747 2.9723691504247953 78.63971202098074 1 1 0
2390 1 1.7836841789590816 1.3578600022639962 77.05787166698317 1 1 0
3427 1 22.487009131302436 23.335541666622824 98.56172922503157 0 0 0
2695 1 8.209629255626783 3.466255937406361 76.39172955613236 0 1 0
2950 1 10.264281012288642 1.7125450088557714 75.38705033813255 1 1 0
2791 1 10.139124239392363 1.9836811674241002 78.14031445503869 0 1 0
2851 1 7.757742666299506 1.0196452122854445 76.14344242173232 1 1 0
2652 1 11.999286875540157 0.28928135642522523 77.00866427772189 0 1 0
2835 1 14.32230476783404 1.4984335149404642 76.72429934043294 0 1 0
2699 1 16.567362994436102 2.2082521506840105 75.22152599704987 0 1 0
2669 1 18.076868475053764 1.1830885392539365 77.25858738110873 0 1 0
3110 1 19.507516240778244 1.9737151612620778 75.27270088868286 0 1 0
2511 1 18.080956296979032 24.228572053509783 74.95228910904237 0 0 0
2673 1 21.943384184062047 2.872316682342444 74.98622265784613 0 1 0
2662 1 -0.14767214163696593 2.2365302670626823 75.11488718943005 1 1 0
2644 1 1.4650936064323545 3.706576791061713 76.42765403207238 0 1 0
2681 1 3.1181758947779254 5.394730564163036 77.6191165308505 1 1 0
2631 1 1.3580705881943387 6.327670647337018 76.13729487757033 1 1 0
2639 1 5.3721009343271575 3.9449925805837474 77.13039383072092 1 1 0
2696 1 8.606030560888149 6.0209221019500045 76.11310167831348 0 1 0
2882 1 3.3658215791987005 15.918810419448674 74.38598657669476 0 0 0
2560 1 13.4058107178094 6.313736683108055 76.39826589582924 0 1 0
2666 1 11.404825404376583 6.380213307353338 78.26446666177827 0 1 0
2556 1 14.699547839346556 3.9992940105960137 76.15662364618862 0 1 0
2857 1 16.268263200549967 5.850158325205965 77.3591123269228 0 1 0
2664 1 21.182978516493023 5.236296175360332 76.32995633521847 0 1 0
2826 1 23.99683286060595 7.475358718642275 74.466488774776 0 1 0
2779 1 23.35151036033799 4.038499750189752 77.46944292857822 0 1 0
2870 1 23.880839620439872 4.911350927829276 75.09920347923443 0 1 0
2612 1 1.6347820883473567 8.597847216682547 74.716815209743 1 0 0
2690 1 3.4490468235617575 8.002116559469393 76.81284350025487 0 1 0
2703 1 5.723003998436149 9.534651514280975 76.5346422004886 1 1 0
2571 1 8.223488767792572 8.934577760552964 76.23228844134312 0 1 0
2914 1 10.7407765158567 7.905101261448799 76.04966682535758 0 1 0
2735 1 12.930702553778604 9.204470559722699 77.2003589396704 1 1 0
2700 1 15.984937420805712 6.877838440433932 75.12786004613042 0 1 0
2869 1 16.907963253602638 10.887546489866137 76.5838569100242 0 1 0
2970 1 17.135472192486446 9.092123902588021 74.72493591894582 0 1 0
2834 1 18.273329128990056 7.362508534338819 76.61132714970705 0 1 0
2846 1 20.180668195228556 8.14816363378218 77.86216423800093 0 1 0
2849 1 0.36528257434990297 8.448905911053089 76.9258037973919 1 1 0
2705 1 23.60491292269959 9.835090530768593 74.74507687682004 0 1 0
2996 1 22.63994831862602 8.792897229511658 78.05397749147741 0 1 0
2903 1 0.9365368943658419 12.504204853042376 75.6646845570931 1 0 0
2754 1 3.3662460414182265 12.946886975241116 75.26336068316624 1 0 0
2587 1 1.7682973100489767 11.647112773818158 78.19575699715921 1 1 0
2784 1 3.5325159378184754 10.485464539544557 75.50074785962852 1 0 0
2732 1 4.271609303027951 12.596646500315856 77.63149580744971 1 1 0
2811 1 6.028958354660843 13.334191033042625 75.84630299429597 0 0 0
2906 1 7.683374379267253 11.316675434750655 76.9073409426278 0 0 0
2720 1 8.724361846774212 13.381746093397714 76.52019077567704 0 1 0
2836 1 11.977717558619988 10.417420033294977 75.18297480194957 0 1 0
2584 1 12.137351515322411 12.341585556513637 76.9691929173313 0 1 0
2944 1 13.558055572642658 13.085271080678542 74.92117696870426 0 0 0
2840 1 14.279433750232705 11.317518076624946 77.1756685232049 0 1 0
2910 1 15.713577851160077 13.8453745345846 76.10057687778124 0 0 0
113 1 22.19087658620157 21.358429672903277 96.79738468280354 0 0 -1
2751 1 19.154211084650235 10.112618723056771 76.24854794291497 0 0 0
2847 1 20.05872130316135 12.915086393180799 75.68223329351906 0 1 0
2880 1 21.502980052255623 10.405967107298746 76.32506020849408 0 1 0
2730 1 24.246414217009182 10.964799055691786 77.17056423032491 0 1 0
2774 1 23.048686742845895 12.265174634116603 75.31556826913427 0 0 0
2654 1 24.1779415651175 13.478971281615118 77.77625463251931 0 1 0
2767 1 1.6027026884923645 17.328894737228488 76.21001890869641 0 0 0
2753 1 0.037470943055965183 16.165258660597345 77.79539936180834 1 0 0
2599 1 4.200217471971931 15.229352066062956 76.5492765023503 0 0 0
2570 1 9.394079660674937 16.10276118981176 75.85338040445356 0 1 0
2721 1 11.08835427531377 13.824159399739377 75.24894756364353 0 1 0
2934 1 11.591756341943016 17.076769850459016 77.49522646064477 0 0 0
3198 1 14.478730782798674 16.401773996957623 76.69267624392037 0 0 0
2897 1 16.693516233888737 16.392221773923033 75.77875082024826 0 0 0
2604 1 16.153525066833588 15.097435986668268 78.27438421136245 0 0 0
2649 1 18.062813285411814 14.290499235574405 76.70648175869255 0 0 0
2807 1 20.15335704403808 15.574491537489928 76.97272267598683 0 0 0
2780 1 23.58538825163619 15.264072474364225 75.66632406110665 0 0 0
2917 1 22.054187437770935 15.963047888019238 78.39074644157884 0 0 0
2550 1 12.799863694911418 3.026838570303305 74.38667407716511 0 1 0
2762 1 4.273567056401782 17.75548709196373 76.04825009732963 0 0 0
2929 1 3.4477746991907177 20.543242727492924 76.12343503244261 0 0 0
3050 1 5.510214185552227 19.769915126497416 77.45610771723534 0 0 0
3231 1 18.182079156302223 21.065068792929345 96.73626316308915 0 0 0
2619 1 7.435277397004161 18.346072838918893 76.77313878261367 0 0 0
2866 1 10.039693561130203 18.79800230860964 76.00679159124695 0 1 0
3107 1 12.899737033658473 18.65756271340731 75.69894497863166 0 0 0
2667 1 11.570680976215856 20.16213756817193 77.44981928396555 0 0 0
2376 1 3.33763495288916 1.0512454815456265 74.74155969623297 1 1 0
2799 1 16.87212390518541 19.231487419734357 75.89016821886474 0 0 0
2896 1 18.753658839945437 17.887435765335688 76.44333724264192 0 0 0
2879 1 19.554475795230154 20.035264252128 75.08192741978667 0 1 0
2942 1 18.52413607146496 21.94362261005567 76.60973497062909 0 0 0
2640 1 19.96285014229605 19.628802019840542 78.0745932778957 0 0 0
2757 1 23.607947901129307 17.749404674269933 75.97803001541965 0 0 0
2794 1 21.27464308016353 18.109357341190595 76.86359611103529 0 0 0
2770 1 23.053069469462372 20.171734986494045 76.08114253285223 0 0 0
2657 1 0.6952531738255854 21.631687777094612 77.00970325572561 1 0 0
2691 1 2.9947043363085823 23.33695870752065 76.23451829259841 0 0 0
2796 1 1.2194725957245043 24.393484882793043 74.80808515961226 1 0 0
2829 1 5.392322964225965 24.415219589849098 76.14243092477605 1 0 0
3219 1 4.643345320507929 22.312730941737584 77.8958653515671 0 0 0
2499 1 9.73872503644313 21.56691496819903 75.91248394932603 0 0 0
2641 1 7.200574672537298 23.188335156972506 77.46251263375106 0 0 0
2855 1 9.55025354133101 24.11988708454438 77.01464575862391 1 0 0
3423 1 20.401094614230786 23.33520033178369 96.51374325639296 0 0 0
2655 1 16.634631856661493 21.988922155025207 74.65888950228191 0 0 0
3241 1 5.874978472519609 19.404752172376064 74.89593476192115 0 0 0
2745 1 15.489534749633426 21.19959742131082 77.31982036704628 0 0 0
2957 1 14.120620105963216 23.165256189118466 75.94359069883376 0 0 0
2505 1 20.252102525298575 24.43935671837457 76.78722817718037 0 0 0
2939 1 22.83715449981014 22.986782348053055 76.84440764292381 0 0 0
2637 1 0.31172349484791617 2.80229620059662 78.6482782994899 1 1 0
3068 1 0.5353997231937122 2.610646717801075 81.55319732726804 1 1 0
3037 1 2.2754598018339833 1.1422385644096857 80.32227648655729 1 1 0
2365 1 3.6682967243524156 0.3385022726793615 78.44239974968369 1 1 0
2212 1 4.9300368213362376 2.0817843476220395 80.24004895496171 0 1 0
2966 1 7.182504986811243 1.107802881616207 81.18075161094663 1 1 0
3117 1 5.871684405120044 23.814581172323877 79.71608556414725 1 0 0
2816 1 7.319802177032855 3.1767262769369395 78.67600117688926 0 1 0
2887 1 9.903922533816019 2.613070835364249 80.41985677244242 0 0 0
2787 1 9.618673924359195 0.25319343205115413 81.9739268954441 0 1 0
2820 1 11.582549006062047 0.43937175751296054 80.0120233133359 0 1 0
2832 1 16.492598331858083 2.6667155291651365 77.89213582954832 1 1 0
2802 1 16.11477896203653 2.7042756254599785 81.04646461661093 0 1 0
2965 1 17.60932576167079 0.9712287620169944 79.9101739259402 0 1 0
2908 1 15.228422360660678 0.14770954015790172 81.08999940548568 0 1 0
2863 1 18.42555043576813 3.3740033263945577 79.40335842617415 0 1 0
3086 1 20.148903644559887 2.7920867073625724 81.51099884119063 0 1 0
2651 1 20.2847261370488 1.3969161129244803 79.15255448782906 0 1 0
2821 1 22.550518526886698 1.9520295089473634 79.46377648140981 0 1 0
2912 1 21.825528195140357 0.2640285742982354 81.3475691664147 -1 1 0
3008 1 3.376058511448616 6.40702012915908 81.66601094553002 0 1 0
2989 1 0.814645565400091 5.444692633245607 81.7179226303918 1 1 0
3267 1 5.214219850564975 5.029993843590483 82.68076931812342 0 1 0
2684 1 4.84603686754263 4.853799268982282 79.82007868195265 1 1 0
2789 1 5.81303609956211 6.843038906446614 80.86365146278666 0 1 0
2712 1 9.656331853148899 4.635096655301012 78.86549140954148 1 1 0
3410 1 7.019177799995341 4.00289654217245 81.3111243955733 0 1 0
2711 1 11.928477525134186 4.756227324053418 80.52863129594513 1 1 0
2423 1 13.954623634974144 4.911805902208197 78.681577698604 1 1 0
3271 1 13.007029029453978 6.426679234156419 82.03874587615562 0 1 0
2724 1 16.583800335805996 5.108175715081905 79.79350375136718 0 1 0
2841 1 19.02608024267265 5.703317224034899 78.80358094052883 0 1 0
2955 1 21.04384254581735 4.089894248153826 79.14910493636668 0 1 0
2818 1 19.09330628981045 5.422931822168116 81.5261479400126 0 1 0
3112 1 22.045109420096914 6.371754474269977 78.83556820982142 0 1 0
2947 1 23.648766017652783 4.310831458286696 80.19364734880148 0 1 0
3157 1 22.717928588950883 6.170037036007285 81.72899660564062 0 1 0
3139 1 1.9383968653353634 7.160541209440499 78.93681256820514 1 1 0
3023 1 1.443529896984064 8.168880848489188 81.3658998422155 1 1 0
2755 1 0.4375365374866307 9.631317741161615 79.09150201924928 1 0 0
2778 1 0.2296301406613102 10.266058345177305 82.1456452182654 1 0 0
2959 1 4.443874623768406 7.527772653427152 78.88198024160585 0 1 0
2760 1 6.627407994308645 8.969796110642827 78.9749256670712 1 0 0
2861 1 5.276646123693892 9.358808948699101 81.06679697812785 0 1 0
2694 1 8.797885414865002 7.218235987412276 78.35748869626241 0 1 0
3143 1 8.448502331977624 8.285019728941064 80.75598383135002 1 1 0
2984 1 9.073273477532664 10.03767362861261 79.05939977094621 0 1 0
2865 1 13.42403589945576 7.712700921183989 79.55464903920054 0 1 0
2741 1 12.711387464662355 9.214261128763324 81.88854917975402 0 0 0
3047 1 10.687024471602736 7.254327997961287 81.04758607642606 1 0 0
2607 1 15.306348136784132 8.348212596215557 81.19455401938603 0 0 0
2886 1 15.213788113791695 9.64042286951196 78.84257624160506 0 0 0
2800 1 17.187472350112245 7.757287426197046 79.50302785370812 0 1 0
3226 1 17.362517998187954 10.161913506649295 80.39313492213935 0 0 0
2900 1 17.64782335568733 7.452413308601488 82.1965451413534 0 0 0
3020 1 21.909410473375374 8.341607514504064 80.2712950127779 0 1 0
3001 1 20.186249000212186 9.956027820347346 81.36727196286813 0 1 0
2895 1 24.14439956043995 7.119590171099561 79.61252284798425 0 0 0
3019 1 2.3419069108296893 10.578708978200336 80.76887273624291 1 1 0
2952 1 4.204162026603264 10.341617231457715 78.5849922769439 1 1 0
2883 1 3.979910326976505 12.346180582402207 80.41610318012764 0 0 0
3070 1 7.214127649310557 13.498801527274141 78.546926715817 1 0 0
3025 1 6.078675678883137 13.425870894172874 80.7475711985798 0 0 0
2659 1 9.899370567348006 12.620060044848461 78.94712375033782 0 0 0
3029 1 8.559034615168693 12.215046091561321 80.84411594342333 0 0 0
3021 1 10.831426132197292 10.96441948308819 80.63753737347295 1 1 0
3007 1 12.724343418776165 10.755511378163005 79.09046424976549 0 1 0
2986 1 12.353699143044214 13.224426578370363 79.52405836377639 0 1 0
2990 1 13.296938015595464 12.022662695611734 81.49134906238083 0 1 0
2431 1 16.7355456775107 12.47999820097205 78.68410691855547 0 1 0
2727 1 20.801387675239873 10.607209028693724 78.78995838218162 0 1 0
2862 1 18.854591324308792 12.183142021515332 80.6582638499467 0 1 0
2894 1 19.70132740706351 12.714693169839844 78.32505675635733 0 0 0
3015 1 -0.08122846905624617 12.21690399503893 80.38091356758852 1 1 0
3054 1 21.346345255844184 12.760342255976068 80.27616956313312 0 0 0
2901 1 2.5796067842906125 16.77437943575712 78.64100245954907 1 0 0
2761 1 4.759766757877132 14.67718708619866 79.11690241962589 0 0 0
3053 1 6.009393797239801 16.958901902255235 78.28122795509574 0 0 0
3216 1 5.1667953845246375 16.94502049356327 80.58841986025152 1 0 0
2479 1 10.620456178928567 14.750966629617295 77.75237334072187 0 0 0
2954 1 8.27196813829417 15.107782699180062 80.65194117979718 0 0 0
2744 1 8.971718659195007 16.564221000246206 78.54938992680857 0 0 0
3077 1 10.811397768904989 15.586535401350952 80.23962570390219 0 0 0
2743 1 13.301272082061619 15.572200934052987 78.9019240290076 0 0 0
2803 1 14.524634891976824 14.030770203986357 80.52529080651217 0 0 0
3325 1 15.999585190421302 16.903417068349874 80.15739146836509 0 0 0
2608 1 17.405794488778675 14.402715715450098 80.24860969514884 0 0 0
2923 1 18.473361307431666 16.225259668694278 81.39515356729962 0 0 0
2643 1 23.562137447546 14.492247514558008 80.05040824579916 -1 0 0
2867 1 22.56826067963319 16.907879857830167 80.93830292847639 0 1 0
2658 1 0.2929371669863648 19.136460899967204 78.11251540352458 1 0 0
3073 1 0.5125084689782671 16.75841262491992 80.29787604453716 0 0 0
3236 1 1.7713464051232992 18.863964934903343 80.23220093528417 1 0 0
2997 1 4.54686364598734 19.60259263829795 80.47692531370342 1 0 0
3194 1 7.502928789774935 18.74049488422839 79.33950363356035 0 0 0
2928 1 9.237861496056485 17.57095158999315 81.06561289269578 1 0 0
2827 1 8.86870491545989 20.44496313867873 80.92897518706891 1 0 0
2911 1 13.493276646799522 18.457261594298878 78.56737640693413 0 0 0
2795 1 13.824755196270715 18.677533812068816 81.26771854166174 0 0 0
2981 1 13.504717419130495 20.946687493973357 79.14976251687548 0 0 0
2772 1 16.024512399615872 19.700273931305894 79.74952091182135 0 0 0
3375 1 20.26544793458018 17.36154960712453 79.41828736498778 0 0 0
2913 1 18.21998480863548 18.597625817842257 80.10448941486374 0 0 0
2804 1 20.13460663325982 20.544398205140737 80.43907795874674 0 0 0
2663 1 24.132059695237402 19.602615662656348 81.8873103652727 0 0 0
2825 1 0.6744118780588223 21.450934194621837 80.07101090397623 1 0 0
3162 1 1.5224403929116235 23.38000262521693 81.15978934304331 1 0 0
2363 1 2.8890259772190783 20.694432836097704 78.74104546354639 1 0 0
2809 1 6.649240433249279 21.093201644137864 79.3452664493135 0 0 0
2953 1 9.137014933360831 21.891548925048568 78.71517841159428 0 0 0
2788 1 7.969695735775376 22.92646387324276 81.00579603068371 0 0 0
2797 1 11.659708925677347 22.654184675659934 77.62532639465798 0 0 0
2503 1 11.031744575221117 21.687813153958963 80.49385135254576 0 0 0
3369 1 13.749932273452748 22.763329004361864 80.9865005054898 0 0 0
2358 1 14.017478148739603 24.01696201708652 78.48644333563476 0 0 0
3082 1 15.794818609530552 22.628465102204473 79.72013371982595 0 0 0
2665 1 20.67767836478555 22.17958544143371 78.14350782640727 0 0 0
2653 1 17.96341107620364 20.98498953243022 78.92542045405577 0 0 0
3059 1 18.271862652667892 23.01553437541245 81.28602698723034 0 0 0
2551 1 18.347460672659267 23.49488256592398 78.50685076135679 0 0 0
2926 1 23.40178934820336 21.559625173459104 78.90704904753687 0 0 0
3106 1 24.360425921225485 0.15756009156708384 80.00423837290359 0 1 0
2964 1 22.166938261751838 24.10640647671309 78.92581987613346 0 0 0
3116 1 23.45244812457416 22.255342964050442 81.94177714486347 0 0 0
2973 1 1.5222734265016662 0.9300717042618767 86.14893479197144 1 1 0
2992 1 1.1632897618546998 2.841685298295241 84.17413298678395 1 1 0
2972 1 1.614099979007798 0.37262904332485336 83.48895909734327 1 1 0
3121 1 6.155238624442694 2.3627234228041067 83.91128487009317 0 1 0
3114 1 3.6206260061314293 2.6942794474627596 85.42541675175411 1 1 0
2969 1 11.494001501291482 1.8371104508847382 82.59634438844662 1 1 0
3087 1 12.059971457798444 2.8457957562650114 85.05622200359895 0 1 0
3221 1 11.98567048257376 24.146465162869326 82.29540571587836 0 0 0
2982 1 14.17923681022757 2.1495227922228506 83.04170501022946 0 1 0
2985 1 16.630164584232993 3.654145419381011 84.00271411369755 0 1 0
3289 1 16.703365082213196 1.0104178045345886 83.00342809476149 0 1 0
2967 1 19.000463179839862 2.887077346083304 83.7977394627581 0 1 0
3062 1 18.143138001627904 0.5879865872294161 85.0489034596466 0 1 0
2968 1 19.492153370168147 -0.1379356671789459 83.16030729667676 0 1 0
3138 1 21.439785607753713 1.722374643553004 83.71201721921011 0 1 0
2853 1 24.024674954197785 1.592099615230956 84.10699715500371 0 1 0
3000 1 22.603105939597206 3.9186636066770824 85.65184955671 0 1 0
3024 1 1.711537895386324 6.954505377641236 83.88914406338608 1 1 0
3105 1 2.006768102993189 4.889019665017204 85.82695757237727 0 1 0
2792 1 3.008185779758375 4.498378705016745 83.56707011895202 0 1 0
3252 1 5.966746782869377 4.530056307035831 85.2929809636114 0 1 0
2828 1 7.759500118306714 4.818259407614515 83.60350736580716 1 1 0
2979 1 9.030987699138766 6.87373920911832 83.17803374770534 0 1 0
3266 1 7.919957140383676 6.753888766990296 85.35527295477291 0 1 0
3032 1 9.795204458554293 4.230728426879547 82.47518694129866 0 1 0
3056 1 9.96304375576555 4.636938059584381 84.98383534594635 0 1 0
2940 1 12.225263252338557 4.404085490943778 83.11062313939019 0 1 0
2987 1 14.616704232812344 4.446732302583238 81.37972763829478 0 1 0
2991 1 14.50876999100916 5.256743922529916 83.85277523730954 0 1 0
2993 1 17.974692857488343 4.76341967136238 86.15415311823213 0 1 0
2660 1 21.163748357438585 4.464741146531043 82.99157888000329 0 1 0
3140 1 23.843814559459233 3.980372387340088 83.05557438858767 0 1 0
3115 1 22.202590952250794 6.372153743167177 84.19735339373054 0 1 0
2974 1 2.4752820519453396 9.579912931568582 83.53980959166088 1 1 0
2958 1 1.7649651009888567 8.353147118690293 86.00273628705762 0 1 0
2837 1 5.037898141251665 10.333293278082087 83.45124496455267 0 1 0
2961 1 6.808243679578511 8.587356991862602 82.95295965381328 0 1 0
3010 1 9.715163476423783 9.033155426776418 82.64440288183107 0 1 0
3389 1 10.21391412772283 8.774936295673522 85.07705260220897 0 1 0
3027 1 11.401225731277323 11.250210185274852 83.36910969352894 0 0 0
3154 1 14.577665941378937 7.821155888906468 83.76674025839444 0 1 0
2884 1 16.65773768985398 9.742984073995997 83.5860091217483 0 0 0
3445 1 20.396828712592317 7.353021100071214 82.65005899250013 0 1 0
3016 1 18.51302621594226 6.066510728445334 84.04836086015854 0 1 0
3017 1 22.232499595764864 8.974589173521665 82.61150998268212 0 1 0
3306 1 24.28114535201316 8.585792463119809 84.08295623409478 0 1 0
3005 1 0.6010374588227683 13.122328603879557 82.866640768021 0 1 0
3292 1 1.845301563751871 12.484642137208628 85.25052412850496 0 1 0
2898 1 0.0468077656843702 14.932669879287406 85.31147736858853 1 0 0
3142 1 3.8377049680415407 10.329168233895139 85.429829520449 1 1 0
2978 1 6.907453786038188 11.172308255593723 81.93551962589825 0 1 0
2759 1 3.176692770459974 12.22046081617724 82.9343334877394 1 0 0
3148 1 6.501536803230452 12.105443142213431 84.84267202010744 0 1 0
3128 1 8.867109699333454 11.098248055991649 83.76858423110909 0 1 0
3146 1 7.873123929563738 13.47537076143329 82.98452603163406 0 1 0
3332 1 9.980732027619064 12.929955320106995 85.43134992081434 0 0 0
3058 1 14.432708159955366 13.54665219332775 83.47271657470353 0 0 0
2960 1 16.215546454452216 12.045860965104316 81.68055885615078 0 0 0
2933 1 16.0962486144574 12.333267651121691 84.79729000154626 0 0 0
3317 1 14.189093470408128 10.688041668666191 83.36586606284911 0 0 0
3018 1 18.760213431156757 11.304370158354997 83.33051780379242 0 1 0
3052 1 20.784019148657464 12.657696818793525 83.02230568808397 -1 0 0
3034 1 23.11847761368748 11.035462171012876 83.61695688298622 0 0 0
2876 1 22.958333887816025 13.313183428988287 82.25048249095198 0 1 0
3160 1 22.4908161223424 13.07719185413128 85.280794600288 0 1 0
2763 1 2.324892839229915 14.813280749146353 83.5800450039199 0 0 0
2915 1 2.706362051747512 16.747256900153154 81.56086202226439 1 0 0
3051 1 1.8635604851441014 16.790024515036478 85.09682606557138 0 0 0
2768 1 0.20305548414917812 16.922519784535965 82.72686969589213 0 0 0
3099 1 3.987858266027037 14.469237593748405 81.77066013091053 0 1 0
3217 1 7.018981705852459 15.865866173764855 82.90734918763363 0 0 0
3066 1 4.387792792891916 16.378915251536114 83.34080577562679 1 0 0
2783 1 10.022713979058212 15.435290541029941 83.30445294245845 1 0 0
3035 1 10.05313061087122 17.7299522482717 85.15129607606642 0 0 0
2881 1 8.167321927236872 14.877739844674178 85.13948550962593 0 0 0
3028 1 12.223972091509076 14.981078450460366 84.6564043794844 0 0 0
2623 1 12.691492684264755 14.990301995784245 81.81130078365334 0 0 0
2892 1 12.033510522809102 17.536102822653596 83.07845134646112 0 0 0
3088 1 14.82974158103048 16.672647251705513 83.5431047835446 0 0 0
3057 1 16.24332717157482 15.145638097930261 85.16433912593197 0 0 0
2941 1 18.24634349313648 13.93285510248599 82.66746613450607 0 0 0
2907 1 19.813450556801236 15.21312504662034 84.48865139959946 -1 0 0
3069 1 20.852778700109027 15.092141087510226 81.70181273377375 0 0 0
3237 1 22.578020847042033 15.747810148265478 84.1728086099632 0 0 0
3268 1 5.9492526444014295 18.41299573587746 83.64031277766404 0 0 0
3127 1 6.978883435100676 19.282454067567308 81.80578394125862 0 0 0
3122 1 10.048759664362047 19.631222511636572 83.1473315442081 0 1 0
3253 1 11.96845408055331 19.97824173815401 85.11138458809069 0 0 0
3260 1 17.09624657986906 18.177684767101596 84.67979521121012 0 0 0
3214 1 13.935082764947659 19.30847725896006 83.72073237850938 1 0 0
2627 1 16.303096157934796 18.576012192787502 82.26591492876395 0 0 0
2733 1 16.393061352946496 20.671518370701968 83.64742292181296 1 0 0
2805 1 20.284967425915887 17.48944853863442 82.54257286742106 0 0 0
3089 1 18.857369759314878 20.385100824060373 82.97159193471188 0 0 0
3199 1 20.06113096653405 18.94309938379105 84.92865635789369 0 0 0
3213 1 21.508776637692222 19.73910335068785 82.4921005621938 0 0 0
3071 1 22.830527905601706 18.199988469033954 83.95712918947422 0 0 0
2830 1 23.210836856900066 20.762970436166512 84.55605498485878 0 0 0
2585 1 2.7951039239642768 21.22969264368409 81.76539085308525 1 0 0
3109 1 2.2211158821993604 22.71536383619881 84.01357094950754 1 0 0
2999 1 -0.11805422753765685 23.50119357112328 84.88698045553815 1 0 0
2951 1 2.526519319806368 20.60294382461197 85.34108377877021 1 0 0
2785 1 4.2597779442779515 23.599849232866163 82.30668700123138 0 0 0
2680 1 7.508599109056676 20.6539638295352 84.0933515509827 1 0 0
2710 1 4.784208030455637 20.514464667819077 83.05340393268122 1 0 0
2909 1 9.918251609356975 20.96992129223932 85.5046178686082 0 0 0
3094 1 7.279979820932626 24.167946862345026 83.2522411126246 1 0 0
3091 1 9.713226481053502 22.43090647385155 83.23582960819218 1 0 0
3245 1 7.618891830470722 22.732247670528984 85.48665851318646 0 0 0
3147 1 14.083786684774667 21.28157693526864 85.23537569801317 0 1 0
2742 1 12.47230137111937 21.359518005224288 82.60122516930053 0 0 0
2628 1 13.82863203523052 0.7114229090918853 85.17435452829346 0 1 0
2962 1 14.602825501890456 23.218015577156393 83.40144303897787 0 0 0
3085 1 15.994832345244758 22.969576769010253 85.68622546374834 0 0 0
2920 1 20.782127522661916 22.269942184916317 82.4815778192895 0 0 0
2975 1 17.610896145808034 22.964147765037104 83.76873041539523 0 0 0
2845 1 22.391953371810743 23.879098405129156 83.79217520619986 0 0 0
3104 1 2.162406754612823 2.7738974712434183 87.78834788463905 0 1 0
3224 1 1.884412199607418 -0.07191517064569154 88.84822112039646 0 1 0
2971 1 5.933869132259214 2.5484705402182004 87.18443242676636 1 1 0
2948 1 5.825273213267191 0.34952423875846683 85.25437599258336 1 1 0
3238 1 4.196873980165215 0.49260307894654176 87.31604866153845 1 1 0
3185 1 7.977848262489394 0.5021823666778941 87.23784064372302 0 1 0
3123 1 9.778838046338961 2.529767036871451 87.00523681275399 0 1 0
3129 1 11.662978590008846 0.9549174270244136 87.08424856119797 0 1 0
3273 1 13.895481640853143 0.6543324591638301 89.30738234971363 0 1 0
2943 1 13.716769057768827 2.4419098662169287 87.22770327670702 0 1 0
3130 1 15.874018504193108 2.7200053293699624 88.43668817178303 0 1 0
3280 1 16.18187912419844 0.4510878135210844 87.09691301025197 0 1 0
3278 1 18.098476534653507 2.5788133755681795 86.56729884233923 0 1 0
3145 1 20.14786143654848 1.1093144812954183 86.61273396982997 -1 1 0
3240 1 18.3084312424132 1.0336560777552262 88.77250208933563 0 1 0
3258 1 22.427991526230898 0.663531714745332 85.9323486791418 0 1 0
3004 1 22.261599562148994 2.642313483492899 87.89553693109582 -1 1 0
3334 1 1.5665460315613335 6.56954693248649 87.77340830297692 1 0 0
3046 1 24.210342114295884 6.634467649977374 85.94304711393556 0 0 0
3152 1 -0.11611092109685472 4.572654303075772 87.68994101880523 0 1 0
2938 1 1.730181482734888 4.506719227755702 89.81076039430155 0 1 0
2956 1 4.060321976496382 4.776645459592318 87.44428705024188 0 1 0
3043 1 6.189155168049559 6.513202516655581 87.15527224513255 1 0 0
3294 1 8.18543392973422 4.500763099137621 87.07939245659011 0 1 0
2891 1 10.279336361812643 6.735941797432757 86.99299668367422 0 0 0
3433 1 9.919107365798089 4.865209392836914 89.1829360240167 0 1 0
2872 1 11.928106375272021 4.539415945896132 86.97964048633892 0 1 0
3108 1 11.885388365439807 6.473134901199292 89.0946584216127 0 1 0
3425 1 13.757730858388873 6.589113490108393 86.95559247541678 0 1 0
3131 1 13.975334055791608 4.386764750660166 89.02946105976955 0 1 0
2813 1 15.30189964442704 4.3548483806418385 86.2768533815821 0 1 0
3432 1 20.180000792408492 4.308375217749059 87.20565607876512 0 1 0
3172 1 18.81379316679606 6.922934742260113 86.76052650728985 -1 0 0
3009 1 18.284778156499655 4.71041985907766 88.89097676320043 0 1 0
3282 1 21.87082882847028 6.6728346072909295 87.08251589247666 0 1 0
3264 1 1.3053708266123725 8.965855123448966 88.81987701049431 1 1 0
3103 1 6.141669163402448 8.642937352133115 85.6394887732805 0 1 0
3215 1 3.938717410238338 8.584185174606276 87.34865707119005 1 0 0
3269 1 8.378237967176698 8.357426183597465 87.32968861585937 0 1 0
2814 1 11.933477903679439 8.773539949063506 87.46456994017879 0 1 0
3134 1 16.425153555378635 6.772493060568962 85.64208467261639 0 1 0
3136 1 14.332426163486998 8.528533780970784 88.78091920535076 0 1 0
2902 1 14.08986381444692 8.843443286899113 85.85834999843237 0 0 0
3155 1 18.462324828759684 8.778653033517374 84.96061723966926 0 1 0
3189 1 20.358825776376158 9.505753118212843 87.11570172762418 0 0 0
2890 1 18.042089576409822 8.985611571148217 88.48220752295973 0 0 0
2998 1 22.26093852825128 8.672684602740762 85.27406004080305 0 1 0
3022 1 22.20092964639398 8.990232065008858 88.7891049908084 0 1 0
3125 1 1.85536467172507 10.773450979291212 87.14892409553701 1 1 0
3313 1 24.491427894217086 12.72500082686564 86.94303972018028 -1 0 0
3190 1 24.293430513529813 10.93177046630264 89.10237118600506 0 0 0
2988 1 5.89088162207159 10.975341920127123 87.27520229757849 0 1 0
3126 1 3.862973913054491 12.70537964158094 86.98366514942583 0 1 0
2810 1 9.870674827700475 10.449260201528503 87.26737554657328 0 1 0
3165 1 7.999691311710885 12.697416878535583 87.11016425423568 1 1 0
2833 1 12.123297197085186 11.202368178092424 85.78868827241055 0 1 0
3449 1 14.236333375060347 11.040849449408741 87.3425973972333 0 1 0
2737 1 12.166898448566217 13.851848290645489 87.21095738804479 0 0 0
3063 1 14.179223123751353 13.421209964276942 85.90515427713024 0 0 0
3274 1 14.087189822726094 13.255328925742546 88.94445699980301 0 1 0
3061 1 16.27771487997321 10.978390137273626 88.82484663141702 0 0 0
2916 1 20.60959533986646 10.966562481921825 85.05129607502676 0 0 0
3048 1 18.35368869702436 14.294894624639557 86.71490850996577 0 0 0
3014 1 16.19273108244358 13.224994352898472 87.45557184123794 0 1 0
3211 1 18.197736907837538 11.058417607718972 86.4808945428556 0 0 0
3301 1 18.18330163538932 12.836061665374459 88.74269454487538 0 1 0
3311 1 22.4158609440449 11.306291113458673 87.14093086662615 0 1 0
3076 1 22.39177221153497 12.957788954811559 88.94947001733664 -1 0 0
2782 1 1.9946900699851629 14.660635518830368 87.02693328185379 1 0 0
3191 1 1.6460758756418956 16.437195909328906 88.76865460523828 1 0 0
2764 1 3.8183283691204775 16.577917305050995 86.90115754065798 0 1 0
3357 1 4.01135512520915 14.68384650417274 89.02453172342467 1 0 0
3193 1 6.266691758915306 14.733637478350385 86.83598002946101 0 0 0
2739 1 5.698543238101545 16.55878564182254 85.34859864684134 0 0 0
3222 1 5.733549930196305 16.89030300171838 89.14637193319004 0 0 0
2905 1 7.912692437870161 17.147093204149627 86.99310549747997 0 0 0
3186 1 9.580149446767907 17.192678874271536 89.21317247191863 0 0 0
3040 1 9.774977794569875 15.155583591108766 87.33080303928764 0 0 0
3033 1 11.886364472313126 17.24375313586524 87.97257157185948 0 0 0
2924 1 13.783144210564773 16.18309770064935 86.49339444291527 0 0 0
3178 1 15.976898015281472 17.060462034519233 87.11879097022961 0 0 0
2921 1 18.757397315061795 16.640509593039255 86.442131474404 0 0 0
3204 1 21.15136145032563 16.95229194319367 86.70093413668911 0 0 0
3003 1 23.89549108130172 17.08748589231145 86.43799676970241 -1 1 0
3353 1 22.627852601551112 14.792589307353401 87.35878122353711 0 0 0
2752 1 22.29134821901627 17.05157503726457 88.82493832737757 0 0 0
3362 1 1.704513612825824 18.7647442285743 86.87537949144397 0 0 0
3235 1 24.282731883011657 19.17193351344627 88.60848203180564 0 0 0
2976 1 3.8410264468009023 18.47382715533893 85.16404532690373 1 0 0
2702 1 5.500952898697621 20.518540959376217 85.71924923898754 1 0 0
3249 1 9.99353857334514 19.055983056994926 87.36812472011621 0 0 0
2946 1 7.562729076699026 19.071852823846235 89.09834168553465 1 0 0
3030 1 13.533160203827164 19.058086807412167 86.86384520883004 0 -1 0
3111 1 15.81009075643445 21.26604902139801 87.45822063395622 0 0 0
3337 1 18.415673279326 19.025483060892938 87.21657359688098 -1 0 0
3158 1 22.27533170582707 19.598332888852276 86.65073930022513 0 1 0
3454 1 1.955150220510574 20.699486320119327 88.7352241699459 1 0 0
3171 1 0.3160091062286716 21.022945596815227 86.75691593489591 0 0 0
3135 1 2.5810922255410214 23.01833287009041 86.38928248791433 1 0 0
2931 1 5.489180196947066 20.845187790619384 89.06592575226205 0 0 0
3197 1 6.047087197975069 22.956348646506278 87.38477361847387 0 0 0
2843 1 3.8037611798077067 22.770116668327752 88.94444400896046 1 0 0
3101 1 7.82933088942462 20.614696335589315 87.26011877072025 0 0 0
3397 1 9.797958256169755 23.237969199983368 86.98551462582029 0 0 0
3075 1 12.029672693378096 21.5090926813129 87.07942472330043 0 0 0
2935 1 11.916772558384691 23.214349616114816 89.03571360791321 0 0 0
3287 1 13.949361167762806 23.73840328740907 87.2537392872234 1 0 0
3044 1 18.196459638909644 20.983676818015773 85.66819368181265 0 0 0
3090 1 20.14096509433317 20.748383756191288 87.42451256706497 0 0 0
2893 1 18.21679127803621 23.143145964906026 87.13696271371688 0 0 0
3255 1 18.114676040652355 21.147337188371885 89.29953885669272 0 0 0
3422 1 22.51005902635913 22.67802207574433 86.55031024305384 0 0 0
3262 1 2.1059301927013157 2.0773458448631157 90.53103281800409 1 1 0
2994 1 -0.03850584262151813 2.6702186717377967 89.38907183200118 1 1 0
3141 1 24.468491894455667 0.40824059424213544 90.71274525223771 0 1 0
3409 1 6.266056611112266 0.5465218729041954 89.14121221515632 0 1 0
3225 1 5.788831027430895 2.847255399808118 90.82277315752395 0 1 0
105 1 3.87399635125235 0.3842644264667283 90.86867721504152 0 1 -1
117 1 6.026025089051148 0.6017926228890019 92.9414817576095 1 1 -1
3118 1 7.903080190728447 2.7918518529639407 89.1349581339401 1 1 0
3297 1 10.153424219728 2.604282706463253 91.20555551364774 0 1 0
3443 1 8.096944150936778 0.513169229902926 91.1596508408451 0 1 0
3365 1 10.143934867592959 0.497706040832792 93.20947901107778 0 1 0
3246 1 10.097321193006081 0.5059668111343479 89.19046689433503 0 1 0
3202 1 11.934946611810998 0.5517693212889749 91.1773104324514 0 1 0
3250 1 13.95734447526838 2.504713882577482 91.14560824062713 0 1 0
3187 1 16.08529800385064 0.5334327734253166 90.66143788222445 0 1 0
3188 1 18.21495037936659 2.825805911378713 90.8567912654602 0 0 0
3159 1 20.463435744365476 0.5627613184776388 90.45453539915607 0 1 0
3312 1 22.061602942655355 0.18467102236491173 88.49334432984446 0 1 0
3257 1 22.362243294856107 2.629693690050823 90.72487456124327 0 1 0
3426 1 1.6518049600408309 6.970705729970168 90.90242709076674 1 1 0
3242 1 24.381933565801553 6.907004510297787 92.7558824311985 -1 1 0
3102 1 5.990640983434831 4.7499514397072735 89.01035804883008 0 1 0
90 1 3.862295962526902 5.1631402582023265 91.06162174732307 1 1 -1
3316 1 4.0092361309167055 6.867165431570237 89.20023872489884 0 0 0
3180 1 5.94961035499458 6.746974342931748 90.87575420819064 0 0 0
2932 1 7.976520917595307 4.633522046367563 91.11434970238983 0 1 0
2983 1 9.983134058706781 6.590202489120065 91.00607367625273 0 1 0
3392 1 12.220022699979499 4.5088106885362835 90.96513274285431 0 1 0
3300 1 16.25366500076973 4.692287867283537 90.51765354729287 0 1 0
3167 1 20.322785550898985 7.073258875757855 88.81556083252934 0 1 0
3119 1 20.104573377195194 4.935067760651189 90.89208733221483 0 1 0
3327 1 18.22166562200824 4.855893202170106 92.79256403738802 0 0 0
3394 1 22.19892932666624 4.813208621436085 89.19197683943875 0 1 0
2995 1 22.17070957430233 6.894452425544495 90.89301666241573 0 1 0
3450 1 24.260309600396653 8.85955757456564 90.83056259542155 0 1 0
3096 1 5.892150301621018 8.779513651347006 88.92608268420182 1 1 0
3195 1 4.12843509487049 9.145910417854317 91.16123547872374 0 0 0
2945 1 10.335221882083466 8.575065476502118 89.26086778127518 0 1 0
3315 1 8.230773619918425 8.418411169786062 90.57945430946774 0 0 0
3153 1 12.322965539734394 8.637241535321152 90.92211219614055 0 1 0
3290 1 14.399954448020084 6.511651717575648 90.93011641524004 0 1 0
3303 1 16.20823944893008 8.542276580672667 90.43835215512993 0 1 0
3164 1 18.30124508588051 6.70330951604977 90.68814435411113 0 1 0
3302 1 20.280863327857084 8.902816567587372 91.03477541527118 0 1 0
3435 1 1.7615340018753745 12.651584518024004 89.19026727232065 0 1 0
3341 1 1.749061065294528 10.566180832711769 90.99860427076302 0 0 0
3170 1 5.9195729558775225 12.955339078680126 88.96615769631504 0 0 0
3338 1 6.192160227994145 10.846651871397771 90.94559661884566 0 0 0
3196 1 3.6698339619471616 12.93291991707987 91.32565924534026 0 0 0
3039 1 10.089284633982755 12.77872048679516 88.78615252535707 0 0 0
3041 1 8.061711585617305 10.543965397745145 88.92748158100753 0 0 0
3398 1 10.168493053212316 10.679217052087422 90.86784456686013 0 1 0
3209 1 8.096690127257284 12.462643731562265 90.75593376409125 0 0 0
3036 1 12.192568650323222 12.632916794975747 90.82537369159309 0 0 0
3177 1 14.154469778743731 10.63712030093677 90.46669289460306 0 0 0
3156 1 16.214538914101333 12.919674317653387 90.82305619207403 0 1 0
3279 1 18.544442164261348 10.774943231119963 90.6515070761345 0 1 0
3207 1 20.348365335409213 12.944344699173563 90.7195433500707 0 0 0
2904 1 20.229322156127715 10.988296971951561 92.9258374608095 0 0 0
3446 1 18.215382256876147 13.014563583029995 92.42531912993269 0 1 0
3168 1 22.275362946492763 10.776558767545804 90.84387445394648 0 1 0
3359 1 24.420455584516397 12.988233588133767 91.17930970194737 0 0 0
3080 1 1.7480351918308175 14.996974464670094 91.02716751984693 0 0 0
3349 1 -0.17996940288246188 17.0536502081519 90.73226946389866 1 0 0
3320 1 1.765448247222816 16.97707919472012 92.7272335213664 0 0 0
3093 1 24.41810880680365 14.848959156453624 93.08558130397455 0 0 0
2885 1 5.799256913385491 15.047678780893483 91.05822035100371 0 0 0
3192 1 3.696111476830737 16.782932547842954 90.76623419959714 1 0 0
3149 1 9.313427446890405 14.780787137340338 90.62518519607934 0 1 0
3060 1 7.719231048796162 17.15327619275093 90.95865926669683 0 0 0
3083 1 12.03939012902314 14.939850060405417 89.55488611572889 0 0 0
3205 1 12.061879431966128 17.402161524244455 90.89051032381414 0 0 0
3064 1 14.35884362007386 17.163061699017085 89.19360165862619 0 0 0
3181 1 14.321391456037222 14.793533746122371 90.82705846859835 0 0 0
3161 1 16.406569266694774 17.038155603732058 90.96791615338546 0 1 0
3183 1 18.15295094458383 17.127980299158224 89.01246441259755 0 0 0
3326 1 20.033544698221775 14.965667500409223 88.75872219764602 0 0 0
3329 1 18.50399029439307 15.182408409955023 90.8334506623113 0 0 0
3206 1 20.39628345485245 16.781669890807486 90.76799274760566 0 0 0
3095 1 22.336715033546668 14.846459894023639 90.74453934318927 0 0 0
3308 1 22.718805716380956 17.04656218496072 92.7407106870136 0 1 0
3361 1 1.7121216474016279 18.922365550229102 90.98396619302676 0 0 0
2919 1 5.8749343451385885 18.97081315423364 91.20569467729723 0 0 0
3100 1 3.551211122310913 20.887956675606517 91.10380757060855 0 0 0
3124 1 3.8955202977745955 19.285859691460864 92.78088186727987 0 1 0
3026 1 9.81507888205067 21.33949254170586 89.16305224233724 0 0 0
3406 1 9.743409888565202 19.21574499273327 90.95046015557077 1 0 0
3232 1 14.235066957433695 19.21450567614398 91.04129042780298 0 0 0
3208 1 16.34051152579498 19.274850386358814 89.03706682281856 0 0 0
3233 1 18.270668261251302 19.100906350546268 90.99975773859376 0 0 0
3038 1 22.292619788338165 18.89018955242969 90.74857790351282 0 0 0
3386 1 24.04086212747135 21.10093776372276 90.74678310589175 -1 0 0
3385 1 1.8020088816032904 22.644659694184313 90.80266701266936 0 0 0
3439 1 5.871240383307861 23.208614626451727 91.09730738337979 0 0 0
2936 1 7.696978814720854 21.035889501661643 91.07455412430429 0 0 0
3229 1 9.721087946450874 23.106559142618124 91.17008419172112 0 0 0
3065 1 11.806351320496951 21.27540801415182 90.73385564480421 0 0 0
3256 1 13.85993880966524 21.542444122173194 89.06865484819599 0 0 0
3234 1 16.16219909428756 21.149225814197116 91.02585235086926 0 0 0
3133 1 13.968383880675344 23.213847155483236 91.01279168197362 0 0 0
3370 1 16.000803849131188 23.155283713602948 92.96307940116705 0 0 0
3120 1 20.369559657181824 22.93813559545839 88.78289679598595 0 0 0
3305 1 20.27025206626086 21.078014432947157 90.78084951165823 0 1 0
3356 1 17.866952988825638 23.202827457083657 90.53856670880853 0 0 0
3380 1 18.352746421241925 21.337017954292868 92.62546234190557 0 0 0
3212 1 22.372219608320755 21.192928884343374 88.77953534308597 0 0 0
3218 1 22.370847622249777 23.16863995526547 90.71909394959394 -1 0 0
3259 1 1.6442445197041198 2.6115577888798875 94.5387135008493 1 1 0
3405 1 1.4493608665055258 0.6319582237630397 92.66522910068258 1 1 0
3276 1 24.190721081849045 0.6961401842777184 94.36034777767946 0 1 0
3137 1 3.6635288257949736 2.3359825603797284 92.4372339866378 1 1 0
3411 1 5.279179449849977 2.6646561214015962 94.67585466104194 0 1 0
3092 1 3.7859179635338727 0.5145460819397547 94.70443829868708 1 1 0
3396 1 9.77159456236637 2.762462316498797 94.87649182631421 0 1 0
3393 1 7.985304246259556 0.5429501389134097 94.89898924732904 0 1 0
3254 1 11.956324861496752 2.6724308096785654 93.0629816634814 0 1 0
3413 1 12.003533786531031 0.6876087494113106 95.0716368435204 0 1 0
3399 1 14.020245636562192 0.5070950571586732 92.95743280183063 0 1 0
3151 1 14.252016235990732 2.6460344640297513 94.89926861256714 0 1 0
3400 1 16.192779462484523 0.7369000981349028 94.65317082568188 0 1 0
3230 1 20.357913298020847 2.518038164286466 92.61910567878627 0 1 0
3293 1 18.11485122367779 0.5992241210431928 92.27520622953921 0 1 0
3307 1 18.35477270442638 2.6540753446858303 94.53169053329674 0 1 0
3244 1 20.10939146243029 0.43600921753159017 94.27320019679198 -1 1 0
3261 1 22.46359331138904 2.618226205335492 94.2590172251615 0 1 0
3402 1 22.29930617305459 0.6333656112780925 92.34070077389245 0 1 0
3416 1 1.617988733668343 4.61840754088167 92.53270512945832 0 1 0
3453 1 1.5805062439217679 6.997221564610603 94.73583715482363 1 1 0
3412 1 24.415701241685724 4.820986138165527 94.801465990103 -1 1 0
3310 1 3.8874513505484263 4.844739765472824 94.64640094654538 1 1 0
3179 1 5.934460492001469 4.989669754401815 92.7984494667007 0 0 0
3144 1 5.988792177541828 6.800198413145367 94.73642619793966 1 1 0
3286 1 7.924153561173059 7.022514668890143 92.79197949464191 1 1 0
3113 1 10.094655052757984 4.704855802812529 92.91554672635479 0 1 0
3175 1 7.662061398015431 4.592694098677695 94.71746335105567 0 0 0
3272 1 9.839269285841016 6.594294199344147 94.65151079026256 0 1 0
3285 1 11.945666753057722 4.7889106233287375 94.82217950569634 0 1 0
3419 1 14.305291698333226 4.403411772178265 92.86554749252261 0 1 0
3281 1 16.388529762426337 6.569459801501934 92.63556020652814 0 1 0
3444 1 14.393742146874196 6.367925327173771 94.7863633599716 0 1 0
3275 1 16.280485278773227 4.490362527976497 94.78878233001416 0 1 0
3408 1 20.40067756267142 4.625573324339316 94.6771236514229 0 1 0
14 1 18.340076994431215 6.877148395340443 94.7028911528127 0 0 -1
3284 1 22.631494691793655 4.948426796423661 92.53484345706826 0 1 0
3288 1 22.453951709854692 6.750343097934412 94.74663484938145 0 1 0
3429 1 1.9683705518889676 8.834837886184573 92.80271497483324 1 1 0
3163 1 24.413182852905983 9.011055090733324 94.6305102087806 0 1 0
3333 1 5.969455831590669 8.977458719148817 92.8732597235227 1 0 0
3455 1 3.8407185685500718 8.931019555516981 94.64131044198396 1 1 0
3344 1 7.912111176794388 8.867990405427216 94.74258791377136 0 0 0
2888 1 10.208277212157016 8.698547305949518 92.86146232657754 0 0 0
3173 1 12.115923957136644 8.549486356025072 94.80772591640243 0 0 0
3291 1 14.38769031930881 8.625355266046295 92.52241490149157 0 1 0
2899 1 16.455753670980137 8.90603673897658 94.36297937008464 0 0 0
3331 1 20.358977697591655 8.747219215061499 94.64738711427125 0 0 0
3013 1 18.398483992617265 8.665202956544052 92.55060374206823 0 1 0
3045 1 22.572456113816862 9.212899355898509 92.89196742009997 0 0 0
3031 1 2.1155491335666814 10.801045125113065 94.96292093556028 0 0 0
3339 1 1.6962440554205813 12.904865443527024 93.23118546910217 0 0 0
3169 1 3.8745064664460704 11.038298285844895 93.08538569177452 0 0 0
3098 1 5.909603180944559 11.04127996550471 94.6056750920634 0 1 0
3314 1 3.7407502019528636 13.059955982707564 94.93616238500351 0 0 0
3243 1 5.615261012259011 12.996768047823306 93.00913293657936 0 0 0
3324 1 9.958613377726513 12.900837151960902 92.71424917940544 0 0 0
3342 1 9.912556561720768 10.766450496506335 94.3322646169544 0 0 0
3176 1 8.02723848988456 12.851588434269388 94.84619628292307 0 0 0
3418 1 12.287786145616408 10.828845838171647 92.65645884735588 0 1 0
3298 1 12.034250065258002 12.949298710792595 94.60181057029541 0 1 0
3441 1 14.220153740576505 10.48822318268096 94.72840576436764 0 1 0
3296 1 14.260354220079133 12.627824863457493 92.85122314396529 0 1 0
9 1 16.14122774063634 12.705398660025027 94.57378241578178 0 0 -1
3295 1 18.2393190492633 10.934998023247037 94.66823714687445 0 1 0
3350 1 20.16198497065431 12.9054960804 94.52238413910163 0 0 0
3434 1 22.37758041364124 11.086087740238098 94.7736717302632 -1 1 0
45 1 24.191691856253513 12.900539547353947 95.33729194115341 0 0 -1
3442 1 22.38709112878857 13.215186565685737 92.84505741965626 0 1 0
3382 1 1.876825537908494 15.0734175785447 94.75374492520467 1 0 0
3414 1 -0.08401499991214223 17.103964400037036 94.94492192302252 0 0 0
3079 1 5.922327580039354 16.980370270607175 92.95554000158012 0 0 0
3348 1 6.029012227998138 15.172738909112311 94.81291618023346 0 0 0
3097 1 3.7614531670267155 17.031480080545656 94.52283220111462 0 0 0
3072 1 7.812978854958059 14.663378181018656 92.72352118388645 1 0 0
3366 1 7.892703763888763 17.030368839418017 94.81738768064699 0 0 0
3200 1 9.946996546680062 17.147147679718607 92.65185006745699 0 0 0
5 1 10.05328058082587 14.848099603227032 94.47480018332024 0 0 -1
3201 1 12.006431813305234 16.994737409271316 94.35747491661664 0 0 0
3055 1 14.245851539607097 15.068059260346958 94.84713496287117 0 0 0
3182 1 16.136483478704108 15.09181073630253 92.89884673630701 0 0 0
3345 1 14.217959096534619 17.001518913052976 92.80985697441096 0 0 0
3376 1 16.194560725889616 17.360443162430634 94.84403370639797 0 0 0
3330 1 18.615952106466423 17.206181950899577 92.99613058092248 0 0 0
3042 1 17.828085702585113 14.906896151740574 94.80206825391758 0 0 0
3384 1 20.38550458906615 16.879764191509828 94.70861815684606 0 0 0
3358 1 22.420313858650587 15.110883192079449 94.92737725106613 0 0 0
3263 1 1.4659519294954406 21.04236341731839 92.7697535580296 1 0 0
3430 1 1.6373192896154358 19.187701611794893 94.8140576172502 1 0 0
3220 1 5.844778042455827 21.111214627044916 92.90658406809624 0 0 0
3223 1 5.833614755638153 19.286929547888384 94.93348740708356 0 0 0
3387 1 9.853205414804542 18.929792211340043 94.98381304923782 0 0 0
3174 1 12.269786483756983 19.134886357972867 92.8582557327077 0 0 0
3184 1 14.067190173324468 19.191749539899625 94.73742461175803 0 0 0
3084 1 18.305198341463274 18.92037954551676 95.09197451720217 0 0 0
3377 1 20.18695566286791 19.012193700453636 92.8990578560342 0 0 0
3378 1 20.140831375835965 21.2233221996902 94.9473427593326 0 0 0
3381 1 22.225779475108624 19.202528479402552 94.73648105177426 0 0 0
3404 1 24.29946064505681 21.32155636556967 94.75978273858374 0 0 0
3428 1 1.782137336311256 23.2268870174045 94.50911221220815 1 0 0
3283 1 24.200809640358457 23.318105738331703 92.76506614241097 0 0 0
3407 1 3.8225530849585567 21.07285443086124 94.47494761652823 1 0 0
3388 1 6.316573794427875 23.317910950151656 95.07128044477835 0 0 0
3228 1 7.933576900354371 21.02634584149653 95.00347613819949 0 0 0
3437 1 10.115370456853695 22.85883559890766 94.96104678150931 0 0 0
3074 1 8.014797274372803 23.03372773123887 92.97056901835109 0 0 0
3081 1 10.010627318558148 21.198061636838986 92.72791925455897 0 0 0
3078 1 11.835794950641931 20.964508496333636 94.80052055550436 0 0 0
2963 1 13.940192972573293 21.171594956193452 92.79464229973394 0 0 0
3372 1 16.25759410604296 21.40059056547912 94.93937801677546 0 0 0
3374 1 13.798146342790625 23.076211969353203 94.77158355658153 0 0 0
3351 1 18.111706935462237 23.317388319001623 94.4728996298503 0 0 0
3403 1 21.97210262974035 21.174739358346983 92.77343454216737 0 0 0
89 1 22.21733633258298 23.08229550758319 94.66096922935586 0 0 -1
118 1 2.1372559612019035 2.4998503622461206 98.23925237526205 1 1 -1
119 1 1.795037545530202 0.5791522777907222 96.3367399841189 1 1 -1
97 1 4.178362243247736 0.9146266400282494 98.43655611948464 0 1 -1
3431 1 6.046851392616281 2.7437640048793415 98.70226029950567 1 1 0
3132 1 5.8600822378646145 0.376882875496966 96.71210334769114 0 1 0
104 1 9.98008796017406 2.3550967327114063 98.65732086984559 0 1 -1
103 1 7.779110462165043 2.614110017560728 96.91921186123514 0 1 -1
102 1 9.908757595558614 0.3507720093930178 96.58223852669354 0 1 -1
101 1 7.858804508586125 0.3627190859725231 98.84505089550822 0 1 -1
3420 1 11.943941773940967 0.5983278491265233 98.57980474468192 0 1 0
106 1 13.757561300175329 2.493323243867108 99.09520845331144 0 1 -1
3438 1 14.20491853171734 0.5372394024331268 96.7345060026436 0 1 0
3390 1 16.14068768842609 2.8542892890158957 96.55447836851835 0 1 0
133 1 15.984289914592905 0.8543846197852023 98.50927231519208 0 1 -1
86 1 20.16070112279766 0.8571799757488163 98.23916627685227 0 1 -1
3277 1 18.211192051388878 0.36792115389122937 96.43599954338413 0 1 0
110 1 18.19450586032241 2.657952863766583 98.55462163095791 0 1 -1
115 1 24.34909593646823 0.7512611958038811 98.51704577914467 0 1 -1
114 1 -0.1801026051292709 2.6706514522752296 96.5930593952298 1 1 -1
3447 1 22.44934098569066 0.7853927406468451 96.3740691339163 0 1 0
139 1 22.340790705572566 2.7813809989456733 98.44845097015269 0 1 -1
3401 1 1.6855307920887856 4.562467157336785 96.62013087997803 1 1 0
3436 1 1.8011225950300644 6.7842599178089555 98.39550997340757 0 1 0
141 1 -0.154057205356672 4.668940452390832 98.74250991863505 1 1 -1
122 1 3.8950227860642244 6.866448318097743 96.7492302654073 0 1 -1
98 1 5.591890099875894 4.647900533168792 96.52450311664188 0 1 -1
121 1 3.9564809203375875 4.8947477580093475 98.77339224034236 0 1 -1
125 1 5.997587210628095 6.61917746772965 98.65987962279351 0 1 -1
6 1 9.72312349717606 4.710854327858575 96.58479671732968 0 0 -1
3321 1 7.946393754545449 4.509718282417434 98.49940527400167 0 0 0
126 1 9.925585556793903 7.008875844654986 98.39840297589984 0 1 -1
129 1 12.061539699339855 4.803806927545949 98.66153178642998 0 1 -1
3270 1 12.320632149952628 6.51671517657476 96.71484957570502 0 1 0
3417 1 14.013093331631296 4.628014592117913 96.86017636496533 0 1 0
130 1 14.436624680892006 6.785324702520928 98.98324954495499 0 1 -1
3424 1 15.705451437782152 4.356690096638975 98.7402049393896 0 1 0
137 1 20.416296058171447 4.667723967674902 98.40203916400046 0 1 -1
3452 1 18.125699499012114 4.5210647977871385 96.79215861251217 0 1 0
3451 1 20.262656948647752 6.353146635256095 96.5493269588109 0 1 0
3335 1 22.430669940241316 4.643356010980374 96.55293703163639 0 0 0
138 1 22.69764932426171 6.762611560524074 98.23274933308423 0 1 -1
142 1 2.044556415560728 8.977945292660959 96.72096871006278 1 1 -1
21 1 24.3831419899799 8.796918878396397 98.63926784721451 0 0 -1
1 1 4.225024405686236 8.94791949596972 98.75412109945967 0 0 -1
3440 1 6.071963509351824 8.909657784801023 96.65487551727736 0 1 0
3336 1 8.017949729540833 9.203748271482635 98.59159752890304 1 0 0
3299 1 9.987883879561528 8.653704612500613 96.39460402735355 0 1 0
3328 1 12.09205331650835 8.496549612346714 98.57570481007986 0 0 0
10 1 14.115810160352472 8.655824890916076 96.55524798287934 0 0 -1
3448 1 16.377751191945258 8.699464215403275 98.41001456209156 0 1 0
134 1 18.18199124804883 6.740319280659914 99.046011189225 0 1 -1
13 1 20.18346523098014 8.37521792767678 98.8592395922114 0 0 -1
3304 1 18.601688654142635 8.541863469874489 96.86851500773324 0 1 0
3456 1 22.24663794715959 8.846776685169864 96.61343178411227 0 1 0
22 1 2.1186313086267057 10.983546823951812 98.19054559376167 1 0 -1
3319 1 1.7333181249571472 13.46984870649814 96.81080324730488 0 0 0
17 1 24.37072989980694 11.172331114392842 96.84604813959268 0 0 -1
3360 1 -0.12375481677010924 13.273811604280326 98.51622586102627 1 0 0
2 1 5.798503792719452 11.018343604579915 98.33056559161545 0 0 -1
25 1 4.04194802256641 13.150987004466288 98.2137995221303 0 0 -1
3347 1 6.047694922606817 13.081261963867847 96.62118054532127 0 0 0
3239 1 7.997849292676078 11.011919690996162 96.59047563416908 1 0 0
3318 1 9.8356832479907 12.671836680919338 96.48294267693444 0 0 0
26 1 8.079644240655877 12.707655227213467 98.71707654945271 0 0 -1
29 1 10.187666887263337 10.587586760933352 98.31953189478739 0 0 -1
3343 1 12.202771109520304 12.588377646509846 98.42352498198787 0 0 0
37 1 14.118166181608288 10.684950944007918 98.44806510630488 0 0 -1
3323 1 16.16979104259925 10.880898730685994 96.61047696386757 0 0 0
3322 1 13.858066276866024 12.72798271173087 96.38955772161563 0 0 0
3371 1 16.112443303324902 12.909856173619707 98.48597595402617 0 0 0
41 1 17.962196490634398 10.964528940833855 98.6999344823466 0 0 -1
18 1 20.42768756524991 10.760668808213406 97.2856602981926 0 0 -1
3373 1 18.063435281257483 12.704975763343912 96.44961815117239 0 0 0
3352 1 20.1049961874974 12.792942507287233 98.76018203282996 0 0 0
3379 1 22.574135585156107 10.564989589864037 98.72195203758915 0 0 0
3355 1 21.96342625416652 13.039625993385101 96.72049706747006 0 0 0
46 1 2.146666223693673 15.248372044767946 98.79943959464441 1 0 -1
70 1 1.945033611412022 17.16134605463546 96.615103418361 1 0 -1
66 1 24.478499339681036 17.25626450560921 98.46617844360995 0 0 -1
3210 1 3.7579518776218688 17.24774803085394 98.42625928560571 1 0 0
3383 1 3.860148240245146 15.221018199392832 96.5225846129631 1 0 0
3363 1 6.029623176059673 15.192670994451873 98.51933873704675 0 0 0
77 1 5.694540248644803 17.126506313607685 96.72516495775793 0 0 -1
30 1 10.063209412626941 14.785817310459763 98.71115431730576 0 0 -1
53 1 7.825604782017422 16.94433800772824 98.49739648044914 0 0 -1
49 1 9.908653396304128 16.647271644357104 96.62538502232317 0 0 -1
33 1 11.804144408958896 14.689454983763861 96.44233627480082 0 0 -1
57 1 11.970267293665696 16.753954074983355 98.51431711320359 0 0 -1
3346 1 13.827006761393422 17.282066003181754 96.41824276316962 0 0 0
34 1 14.271306818429998 14.92892700166095 98.23574890149283 0 0 -1
61 1 16.127804681772204 16.80079557063189 98.69157314922097 0 0 -1
38 1 18.130469046166212 14.752907240316276 98.34570986838114 0 0 -1
3067 1 20.274750282839605 14.868738025141553 96.36881085747083 0 0 0
3203 1 18.00744042688018 16.712834990104717 96.88190647318748 0 0 0
65 1 20.325478530305 17.305939814562564 98.61534943803127 0 0 -1
42 1 22.341820559634698 15.08184120373351 98.5273792158089 0 0 -1
3340 1 22.242631828773604 17.136656266889304 96.56185634491399 -1 0 0
69 1 1.6660163843367544 19.161621421374008 98.62258883662534 1 0 -1
3265 1 24.40278173219228 19.218576563817614 96.70915395751408 -1 0 0
50 1 24.289916789905142 21.174347078461587 98.40329942138877 -1 0 -1
3368 1 5.384180555609502 19.278257139709922 98.6294999917254 0 0 0
3247 1 5.7077234315150855 21.165927924245523 96.6112986897723 0 0 0
3364 1 7.723692900471323 18.92326851760224 96.86593075217618 0 0 0
54 1 9.86912846185915 18.76025200984195 98.97842228585051 0 0 -1
3367 1 12.325902510184727 21.16338732009565 98.90066360845009 0 0 0
58 1 13.687155144132067 18.994692623341805 98.49359883738236 0 0 -1
3391 1 13.766388420212214 20.910912286973982 96.65643432283201 0 0 0
3227 1 16.110895093364142 18.99464675192538 96.65006235303073 0 0 0
85 1 16.011135964320637 21.110355897206084 98.68688996785087 0 0 -1
62 1 18.183645654529684 18.82876591913626 98.42868642547373 0 0 -1
3354 1 22.492067931889224 19.131397388087038 98.67145659021111 0 0 0
94 1 1.7455575998204171 23.268524357387918 98.36169283554185 1 0 -1
3309 1 1.8223200512553697 21.344064137092957 96.63722097204749 1 0 0
3415 1 3.833002915688459 23.255691069041113 96.35940970355182 0 0 0
78 1 5.939644222794634 23.186780798963603 98.81376806464269 0 0 -1
73 1 3.619542623705634 21.25520864242874 98.66447239127606 0 0 -1
3248 1 7.744310826955593 20.7780975816086 98.50653908973854 0 0 0
81 1 9.83755441354291 22.76975215236837 98.56562427912823 0 0 -1
82 1 10.351848007167275 20.823208889428493 96.89976389293687 0 0 -1
3251 1 12.152911784135153 23.09427680473351 96.78924958528776 0 0 0
3421 1 14.1807312432531 23.195536960646024 98.4140255722061 0 0 0
3395 1 19.974907121414212 21.012732789685202 98.46396666937198 0 0 0
109 1 18.070478933419082 23.33239492736071 98.39179782500145 0 0 -1
2670 1 8.294732498144658 19.865058998143716 74.63726880653195 0 0 0
2708 1 5.693955317958445 2.221161800999154 74.94695158921522 1 1 0
2260 1 7.685899431316086 23.246137210493536 74.95482181306187 0 0 0
2635 1 22.13323736258147 0.18912277582500264 75.01497898656251 0 1 0
2686 1 23.9929212324799 22.741743378574462 74.87449880554405 0 0 0
2697 1 14.631809688201557 20.72636455248233 74.78526543742097 0 0 0
2746 1 21.577914135937817 21.897832103362575 74.61542954402026 0 0 0
3002 1 7.55493645201338 10.710848730258942 74.5012654412993 0 1 0
111 1 18.584821792212068 0.6797740138072904 100.1195807489718 0 1 -1
2620 1 4.251342547391708 4.675393321238931 74.62029524806891 0 1 0
2638 1 1.8138841142541997 21.623200233934988 74.46146116744652 1 0 0
2579 1 12.919657951851994 7.831257845912412 74.50640113929305 0 1 0

Velocities

262 -6.234713575454331 -2.4465757564561565 0.8059972482872081
76 -1.012777528319954 4.077646262812483 0.1205780621736451
261 -4.1036807303326075 -7.246350948541207 3.615419608523059
100 -0.5326427120435283 -11.003222911006008 -2.696957899576669
242 -3.3368583551862265 -1.022736713150508 4.198497461879546
99 5.775092331221847 -0.21345229434560808 4.4149168058420125
241 -3.1098920566636834 6.234071082057912 -4.024026172873216
246 -4.583611566196488 -0.5800455925206476 -1.6003002148226075
245 0.007152399668558349 -1.6187057999990266 -2.267927572992625
80 -4.318936509037068 2.3482326564660045 1.3502463427165283
108 -3.0843214666383902 7.986436347551425 -5.5042406164375794
249 -0.8163948942531652 9.754100204080801 -1.632722181377465
107 -0.055411046691679684 -0.7594004396574543 -4.558782122155643
250 -4.9156165851535985 -4.286051566524711 -4.679406766914112
112 -0.4819130907972158 -0.6727617557494786 3.9751164311709233
253 6.367730789718519 3.768630716986497 -6.82949401911924
254 -3.129392254847699 -1.5088350660526468 4.485603007332025
116 -5.528833278202081 1.4339321300560064 1.3278212672533667
257 0.11788837095347514 5.533607968541241 7.4844193685585525
67 -1.1652311624960918 -2.7733986573749427 1.5796492007272889
258 -4.949862694960778 -2.7682701604301636 -3.3899140096786353
96 0.7828566381703933 3.252379723977887 7.442980802986358
143 1.5906015457436458 -4.047911188468465 4.004920517289235
286 10.636117356532774 8.217603210978119 8.188943413795304
285 2.334294804540067 -5.885324528460712 5.661998586435837
265 -1.2539996718773188 9.233664471456946 -4.686394227419275
123 -0.7109697574015744 5.197673190475699 -6.321487500702075
124 -7.2130339015194895 7.34689601812316 -6.435184692611043
266 6.952899135991659 -2.80257260042427 -0.7829413669272984
269 -9.911034145545337 4.295556132872948 7.473432843008921
127 5.184672844341133 -4.472454692147144 -0.5962122157613686
128 -10.51031536646972 -1.563525990838995 -1.9345464177909484
270 5.996631607273032 -3.3733405182319505 -5.328465340288446
273 0.8487451926421014 -5.500394624213263 3.6436760581462075
132 -2.6746490482744503 6.555152642095205 -0.4563975954376722
274 2.6657599308765003 9.848192376150724 1.3365495098240525
131 1.0089463741868285 1.3670434266127076 7.8978973169396
277 -2.091457239692354 5.43222791457081 3.654919014629585
136 14.840363891551716 -3.8929226344955734 5.217691306406632
954 0.49020398339803944 4.415212170315475 6.342733448954
281 -0.42112676712712316 -7.094067442828858 12.443681417588822
278 -1.840542260719915 -3.038426492259044 0.7284761116571494
140 0.9865113293940927 -5.526016135585286 -1.5695531973749164
144 -4.154508297147829 -4.53953328476571 0.8002522229886889
282 5.511440677498028 5.2868536763971665 5.164770016116036
120 5.199562219938696 5.874181861992311 3.1793496084735215
23 0.029799874627416685 6.378523637651833 0.8747027601672765
165 3.189439876278195 -3.3889589169967893 2.1192165108287617
145 -3.3837307701519563 -1.9604339943719333 -0.3739226039990527
3 7.54477398262318 -4.546382108436389 -5.3869558183166015
146 -5.980082226493247 -10.267067238714835 0.7301723544743276
149 -5.244102750784083 -4.1654969521285725 -0.3913561963998634
7 3.4186925589111596 -0.4827956440745934 -11.42231286537278
153 -0.7225903949666982 -2.044804566914153 -1.9322656508680565
150 2.7058128577371923 -8.986616400116795 -7.245828633014303
11 -0.6419218218001572 1.6288823572501587 1.9371974093282087
157 -3.438836293516075 0.5605727489968727 5.28843135346417
15 4.732784486328471 -11.585018959225032 0.6040103461838152
161 -5.280311818983074 3.9881617532988236 -0.18327218113891705
19 4.575474002307078 12.034301486321988 5.656853524471186
24 3.8146048872304705 -4.0191532465107365 3.354938963343918
166 -3.06730142783225 9.278198507870348 -5.831754348342935
47 1.280668992357091 -7.799323224790819 7.869139043446645
189 -1.614749504883301 1.3654849390388974 -0.8346204922809503
4 10.249684439202893 6.433629139569265 0.838705193870811
169 10.566433573057289 -4.453022699536315 12.777732763219113
27 7.891329682415227 0.13453214319874282 -3.762975229592676
8 6.1752931254088415 7.5255397859757664 1.2545252506861744
31 -0.5782130418934802 5.935016636742011 -0.33488812958225816
173 2.845186571053791 3.706572528268225 -1.9779746391254993
12 -1.1608529396876566 -2.9192405015762493 2.064957440718897
177 -2.1619418783686086 -3.5560246623191043 2.1873268287417074
154 -0.8710043237781324 -2.819744547823773 -1.3977325202943645
16 0.8332529163164919 2.8380408152083736 -2.342878574458583
181 -7.8660138644574475 4.958130994658435 -9.6530632646725
35 -1.3669502452108346 -4.76897148554797 3.2748860794549035
158 -3.319091620189855 9.088620047937827 1.9894016289296272
20 -2.640431981377198 1.9506291375903655 -0.7927241228124206
39 6.298760150258256 8.128083000809413 2.087377659053171
185 -1.5646128841611975 -0.8390515116754661 0.6900722445819926
162 -3.796230079881107 -3.556731152664613 0.09239557680191365
43 -3.824541433468228 -1.9529934322224938 -0.20572989319478766
190 -0.5029149121244593 0.6058478926031765 1.8103751294038817
71 0.0876361161611373 -5.029577993246572 -1.65915493508333
170 -4.163233095044801 4.254647820533456 3.9413272232259775
28 -2.2695092718174683 3.104644220496456 4.550133212151715
193 3.1834380359450245 3.7141791390365015 1.6134719230781183
51 -0.14641064097127504 3.2577773058548707 0.585668599987583
32 -0.6361280642608981 0.3557049139822818 -7.124465792413303
174 -2.7391133806441927 -9.96113969783806 0.5796171807774063
197 -2.459378788284601 -9.074057446693407 -0.9509503904681093
55 -6.881968014778395 -2.435605711519664 0.06323670597787782
36 -4.466418651530945 -6.039998648835548 -4.8866096698783466
201 3.641588119721403 5.98342975407277 -8.956047381413683
178 -4.040138959524349 9.353083744450116 -4.585935406296574
59 -3.332050508490556 3.2772616469793885 1.1207800716169476
40 2.7312936716715965 3.0041141441894217 0.8165219152242656
205 -9.163691664491296 -0.5509965235435748 0.8130414479572567
182 -0.11026578878849708 -7.765616466186246 -1.0143779694421642
44 5.0503706638544585 -0.5930371095653089 -1.870151842055186
63 -0.4423890703831085 -0.3360227889972578 3.498613033368446
209 -1.928956875680232 -0.41486236066288373 7.429713474101903
213 -2.0559629874080416 -0.14071162907518253 1.293064298617091
48 -8.045299448427958 3.5092948075325605 4.280719474603754
186 -0.8437901787072435 8.325944686867258 3.990529213031715
135 0.9734445180184209 3.610762523734864 -0.29354675620833454
214 -2.55664089096294 5.9946633124710305 -5.934085504775989
95 3.9277182239067603 -3.9343675445255815 6.138960677218974
237 -3.3422206148204694 -15.908585318720075 -3.9345899555851416
52 5.9325430141841835 4.843081083780555 -7.249508052618955
194 -0.09581019942060821 -3.428001529528357 -3.670947348045458
75 -1.53093590101471 10.560267206587737 0.0419755718498705
217 5.6900342467364045 10.791091577414374 3.4037429119517673
56 -9.26663194460615 -0.8580762231291543 6.7765192516253405
198 1.554654918858946 -3.900196756240908 -1.7292169281679508
79 -9.502639774853415 -5.688087780364175 0.2128905243849088
60 6.921088668216903 -6.852301965813158 -5.064813048820043
202 -9.401503555438968 5.156565362936486 -7.259225467223886
64 0.47736103292882803 -8.624386021547956 2.7631152186195593
229 -12.158722004439117 -2.668995705159454 -0.6217130851021758
83 -7.583808508737318 2.7744637979579934 -0.13285938100805822
68 8.074265321873577 1.7786241746218787 7.683867770917596
206 -5.877545642534741 12.21215316233776 -0.7574511507777429
233 1.670476026993367 4.655383170922271 -7.146378470341194
72 2.389634085595878 -12.198159808222414 1.9845629472572728
210 7.721173544704107 -6.542614237822693 0.04816018930351894
238 3.036404916292594 0.3775252635516271 -5.288474905786544
93 -2.5106344160081386 4.2307506035574125 2.524169908022004
218 8.086918593484771 -1.578862696715383 -5.162348562797062
221 -5.2929606380039464 6.819749868748982 -7.352338601953594
74 -5.431174570426037 11.828932947235549 9.140474205145106
222 -3.9385089878916206 -1.4796904852941275 5.688049853579471
225 -6.38927361730014 -5.373343249321397 5.828858305787993
84 5.71481332791317 -8.751353086823825 4.457986345955245
226 2.8996428465569184 -2.9808330965945475 -4.194053575611207
88 -9.319419731191337 1.6386846121698397 2.9475629572353275
87 -0.7410815571150196 -3.297060270067902 5.997497385815173
230 -8.648361086552846 5.709604791062134 0.7662653255548943
92 1.5604010801768604 -0.3223217361607777 1.6274469679185564
91 -4.693355807942592 -0.17715100059687705 -3.026807540629
234 3.7012952422623724 -3.9834665298310874 -2.057580793031876
406 10.196318990095266 6.659371581100344 2.7022734867849416
263 -0.2625549085104748 0.6925500976861206 -3.5636710718352123
264 -4.88652440936506 -2.608089984810457 3.0836351495835226
405 4.1918306196369235 -6.445372351382865 3.794021194036367
244 1.3479546469459154 -2.1924658946174573 2.4749620919765265
386 -4.29568821748544 -3.1221451115671197 0.1715181244227387
385 1.3907624941680563 0.30084885899145447 -8.13053922773376
243 -5.4631804846408984 -0.5304711452255952 -0.42351220769011766
248 8.229344441740965 3.641295992508437 3.4729332435145697
390 0.012984120059622564 9.009225201359952 -13.985639935361744
247 -6.280032949673787 -2.3538609162950395 -4.265758531660668
389 -2.314766641018713 2.040235968391977 -6.59748906863628
252 0.6943999367341744 4.00684904627298 3.029670575492979
393 2.1639754202923798 2.988418957411436 0.5960266088064248
251 8.996714507639338 8.446097177385225 5.341724188020437
394 -9.794040554994291 -6.484646627525422 -1.8050787180185337
256 6.499409666693646 -2.1765830909678026 -0.4325202837291159
397 -2.600153896775567 4.543116379836502 2.179901867135096
398 2.0638160327681754 7.236045184583286 2.1142566240149554
260 -0.13804345254277794 -4.004894754927169 -7.722201343094448
255 7.713470951251509 -0.28187953336579225 -3.344000657424475
401 2.668242023466593 1.508913711299715 0.4175229688497887
402 11.251162153694086 8.921337609886494 2.8990126608709894
259 1.0337966639933764 1.0859289460225792 -5.930089167875295
287 -2.335838820582401 1.3243402623217948 4.576263173212446
430 -2.7255025344094332 2.1294186354673754 -4.419596865630714
288 -5.043087468170289 3.539525954827006 4.165265341125606
429 -2.8233014646673515 -4.6485106320566825 1.170980032148055
409 12.142556254709937 0.29409126717607836 4.313414695680892
267 7.8679611114101355 -1.3931807704777603 -4.927405808721695
268 5.80658361724329 -8.857836882389313 2.666390983686885
410 -6.303260159119534 -7.248291719831549 -5.90063309837322
271 -1.9412616202093342 -3.450599693688844 -9.451006934590994
413 -9.566555053608882 -7.382400101728564 -7.788411042076108
272 5.460773591216379 -3.4118213762933776 1.5835710903348803
414 -1.0753588087957606 3.1083443710433576 -3.461733503523205
417 -1.2563136113046103 1.4402202595860631 0.031311344702168335
276 1.1285635045328841 0.4781414800102541 -3.7525834233175313
275 0.5338463618141911 -2.3814071504331475 -0.21785479846859845
418 4.7938145194673 -4.813792398591984 7.654260933607325
421 -5.993149419068842 1.8737604677782849 1.913750628404756
280 -1.5584139884724837 2.587933435818644 -6.30345942517259
425 2.444772535640931 4.798197048459532 -0.011829160517120983
279 4.679776581244419 -1.5551997643538422 -10.913680872042155
284 -2.335247789439369 -0.05666299897941254 5.167430318246724
422 0.8701422006539729 4.993857544899839 13.316803350872926
283 7.704534851370929 -2.69157992903854 6.476684111783764
426 2.985450234933862 6.052242072390358 8.137571705579255
167 1.7063421368665828 1.2952470201012387 -11.978486622027281
309 -8.60182533022496 3.527129163848842 0.4822671785229069
310 -5.96036035319738 4.444767494138372 -1.921068632282199
289 -3.8923663880192705 0.9144229731516819 6.034664546181573
147 7.950436495159394 -8.333612038032085 -1.364968058015039
290 14.17330018910093 -8.462510319301407 7.40556115193816
293 -0.5373588748291823 -2.898353393460963 -10.782930622348989
151 2.465854820763459 2.2493853439980933 6.802803457224884
152 1.7115150798000263 -1.067642920188381 5.204195692779164
297 10.044850843479981 9.149063941638337 3.5716171459909147
155 2.558896565870465 -8.236990477986973 -7.54786296481542
301 9.011517735724013 -5.015459810287575 -3.2681805009284313
159 0.48778229533854084 -0.8861940873057851 0.7860478573147073
305 0.12498357126290748 1.1943759402372205 3.7034840916795857
163 -4.654047375236347 -1.8478342607312188 1.2525384760984728
168 -0.21658339657389117 7.854896738112887 0.21928909495379473
191 1.0115047916416253 -5.100397126632624 -1.6937972875216583
333 -5.406554698711946 7.3526305606228 2.512214014927005
148 -1.3167820018606564 -6.139285253036435 -1.0969681498306891
313 -1.6540450209316253 3.4507434920651217 -5.914153812272085
171 -2.1612958394468986 -4.91977332703689 -2.256869696013652
294 7.618720600047975 6.214158311118437 12.145481719529489
317 -3.456589033593555 4.760946676683503 -9.500047471290824
175 1.0788940711025639 1.5493015061483981 -5.394337666352927
156 6.958897704102808 -5.039968384320508 2.292059138794762
321 -2.2144690192589955 8.628968512774996 -4.614830297425973
298 -0.3125312640065908 -6.420186795358421 -2.0307411332633554
160 -0.5047063451533014 4.901408268639554 0.9649715893229551
179 -0.4292612609204316 1.0634949933415547 -4.410735491568316
325 -4.177597672077902 6.9658578376313915 9.929759502922838
302 -3.1017084617271586 1.0100210585362919 4.243888933409938
164 2.718697408095415 5.381092300147368 -2.108972538748857
183 -9.516214447268212 2.4391098911571905 -6.34062935080089
329 -6.650935373707343 -7.290110891994672 -1.8146709211817056
306 2.577956179631778 -4.537667573639395 -4.172255342947315
187 3.448607890102618 -1.3271964645071197 -3.4724044852155598
334 3.5770580292296175 -3.1312403300351765 -6.812874008873461
215 4.996610893635267 3.5115514365705023 -10.554858820725485
192 -2.6522279326252765 5.247299553867296 9.88091748240105
357 -0.6957195703028249 -0.8371289834973914 2.4971434657128158
314 -12.030258528433183 -9.495282010973977 -4.831430707757293
172 -1.7374484195982383 4.015154446075132 3.713052405713968
337 7.991542002576008 3.4477448673965303 -5.10360061166988
195 -2.881852462744837 7.657105919485777 -7.419706659195304
176 -5.604458845553049 1.3686826885063192 -1.266226133306883
318 0.04184313016752039 3.1167809207540698 7.81001963879458
199 1.2071614558043056 -2.0150219706922785 4.970043430577213
341 2.9215754167804295 -2.8176663761288845 2.3372395840066784
180 -7.8733806906446215 -2.6505296072147457 2.8017552997749475
345 6.881863376715667 -5.346603511339348 3.3626290354338884
322 -1.5083798764220353 -1.4503485268163872 4.194544599905468
203 3.4076835484611925 -10.598342791041297 -3.1954532826430824
184 -0.8753815543863128 2.1691139028979083 -10.434496183862889
349 8.82349536722296 7.273386025634761 2.0561313588597145
188 -0.7966105376241363 6.102291588784569 3.3514455470412554
326 7.610444166175685 5.550344993492626 2.5985171129773157
207 -5.757343923745057 -0.5464179946519092 8.88283711702273
353 7.3412120854593095 3.8304438688013382 -2.0322035334850015
330 0.826990321890121 -1.6797936039437042 -5.278034988249125
211 5.512187773374647 -2.316104448302647 9.786601870798872
239 6.188913105278534 0.6002693275067268 1.7301150716461928
358 -2.3889463437184886 8.115039999202159 1.7115635256650987
196 -4.685491599080279 1.3515464388279397 8.677291683766512
338 -1.845101722611531 -4.917278737057943 3.5689509400588855
361 -5.784101670540448 7.108293239227241 5.301612520405136
200 0.3142019857885546 0.9630633293817893 -0.2963725759324306
342 -4.820613502375506 0.5395610971948591 1.9142024122975032
223 -6.93411705567784 -13.59601842416465 3.8790259485524405
365 -5.644071081883608 3.535879151472831 5.576092580615677
204 -16.20634491442459 6.9297232980892876 -1.0423027296832192
369 -2.3268097269218115 2.3088796940462673 12.858132304687185
346 2.58174119641951 8.240031708514302 -1.9689841385091185
227 3.682382699881862 8.855307727132793 6.480480568187287
208 3.178187471316445 -2.5912512931370277 -1.8976085909416867
373 -3.5101814210475557 4.695516787072366 3.2209597806767944
212 -5.719403912971684 5.943066712281795 4.31125076652789
350 -1.2466763349640837 -12.291694097489405 0.8336112634507536
377 2.917506823191375 -4.220659130619229 -2.351875477747671
216 -4.036357141546455 1.0237712466144258 2.8667209649814143
354 0.004303188701522781 -6.593257899338341 1.6325790458938547
381 1.8036356814145984 -1.8170802839664915 -7.589073065362289
235 0.523987577018021 -6.337543337772507 -3.4905631385119795
382 -0.2779926155845586 3.747101633875483 -5.277090029921611
240 -1.7927506210339723 0.17124720006373667 5.676159716951753
219 6.917939259806429 1.3525806201255937 5.8583545692258605
220 0.3992712931203169 7.772157957763043 -9.17086568694149
362 6.578532559240782 -2.8272372201375893 3.181749361862389
224 -2.110401513073677 4.612108396332923 2.0408983228360076
366 -0.2173588918685988 -0.7679517276352154 -0.18718890928489487
228 -2.9118851105801347 -6.0163177218901716 -8.476665203868004
370 0.5585979329218159 -7.158363095343022 -6.500023238844352
232 -3.7994138701773346 -3.4401813398222787 -4.298838260445381
231 0.8279257869822703 8.853061050302856 4.4751077614836055
374 -2.1578175708461607 -7.9501995881813725 2.148661586120599
236 -1.5180933988741117 -9.826107925164392 -5.139264248394716
378 1.3853620781735176 -0.09960056167577801 -0.12254477827312878
407 8.22315068503188 2.7724529879404702 -6.202288468771331
408 6.642751761427114 1.0114863669415244 -3.7795549294893047
549 -1.4164241528142163 5.436518881546756 3.356416796927442
388 8.718047618376685 -1.8441607482566613 -6.666011531400046
387 0.16220883178078696 -10.60576783084862 -4.449190651767073
529 -2.0345255297436746 -1.6576128782824484 2.9488452612545126
392 2.962296211721691 -1.6646622560445026 1.168778204254613
391 5.087912042327236 0.7630744885975196 6.012136242510839
533 -0.8601234172116157 2.3972640919969788 -1.2644806647474593
396 0.28928625223156773 12.011120752997055 -0.05978022696224321
537 -1.9184222893295315 8.475340702378118 -0.37069925094118195
395 5.875064074285907 2.9905999468455584 -6.480644720150841
400 -13.064634043827498 0.6377524636277038 2.0606133985562685
538 2.927851243327363 -0.6834341769906068 -2.0128367487051753
541 15.83935830427278 -2.322140756718498 -2.0195309635175347
404 2.3482169959866437 1.3159736439873275 0.1456647115247748
399 -2.688684204625062 2.314416948959392 3.3408449354652605
542 7.028304566695012 -2.977840034818561 -1.3651487818996002
545 -4.9561702760823785 -9.060624916558933 -0.5454114797476909
403 -2.8342035783751616 -5.1693100517010295 5.758145541900983
546 1.6956980996968969 0.46409117647517933 -0.7272607159377621
431 -7.194855075867468 2.8595989290816215 3.738169050911314
432 -9.57604740764875 -1.2521876318257852 -0.1889084505811231
412 1.3730140737419234 -3.6614914136786907 -0.33885516853106395
411 3.360516698366853 -4.230713170814111 -6.580325263673253
553 -4.107261175858785 7.505303741775698 4.297014994088558
415 14.282207766712776 4.452248643516695 0.32912173440649334
416 -3.617471523187419 0.7818917678881185 -0.8762818872146941
557 11.451727854409032 -4.559850287982927 1.198025699103417
420 5.180919751381353 0.5464447841206436 -5.505334771593846
561 6.1727229414064615 -10.056456251931438 2.63801634610397
419 -2.9901156195470566 -2.429556726539279 0.4727971584427352
562 -8.477004996756488 -1.4541183084666613 -6.01665094135027
565 -0.003375265102250484 -8.04114394203468 -2.8319428908007973
423 1.3292108358608608 -5.499598912071981 -0.49830157393437036
428 -4.495867244012369 0.48675843768743504 -0.8935108749175253
566 -0.4446712483563036 2.2426655722905124 -2.3234720117248795
569 0.9009298021185272 6.145364752272933 -3.6645848603033238
427 3.2125811317750532 1.3787749663962938 -3.6687403426107372
573 -5.291982803424221 -5.1296746982765775 -8.621695383505989
311 -4.996241868874093 -0.6263236051092407 5.186257095965098
291 1.8253734473683036 9.748480278173957 -4.938512340618259
295 4.42695611278369 -5.385615741478211 4.570877694600135
441 -1.5702661285176238 11.35733064338778 -4.184244654021891
424 3.648326447741189 6.264851205918015 -3.070903652046415
299 9.909924665946116 -1.910322553412805 0.4750686454478261
445 -6.71738078028131 -4.868350748294022 -6.376029603822226
303 4.7969468225918686 2.2886732870867528 0.8157322192233493
449 -2.1118516445994886 4.565482214477726 -0.19456729902070605
307 4.180479322923206 -0.6514395792676274 -0.1641272393993633
312 4.754086330047207 0.49306979731983513 -4.923983008745053
335 9.918409040655709 -0.28403040740202873 1.777007023506505
477 2.862559408560106 -0.3613612249355092 -4.157960843214158
454 -1.7408085014633694 1.8683866212990203 4.656934814138531
292 3.860356137447921 10.808937796455442 -4.453074659954433
315 4.775707367727798 0.5322529110075249 -4.620305307433112
296 -0.4455098989091749 0.4703952338670357 -6.347306156754235
438 -13.179001926893882 -1.46144865488224 -1.4713246077028077
319 1.8163071519489107 -1.4807521534842554 -5.289347274821032
461 -4.422631428058102 2.860824652748667 10.720070958272919
300 -13.066721371060499 1.807533092857599 7.919877929559484
304 -0.6733566544471551 3.6584246140778767 -2.916614221651671
323 -12.716900493694121 9.323401180624424 2.394003038640425
442 -3.885395228228909 0.020529500569029732 -2.682887856027469
446 4.324315171630384 -5.473220726495924 1.9138411261377284
327 2.4878668094191108 2.4887466540225947 2.3879809621320423
473 -0.17861880465095956 -0.31041663259171803 6.9345742190261905
308 4.508351621706858 -8.140497174613133 3.4963692361049965
331 -3.184986432056777 2.032521095972559 -0.3825470904713066
359 4.080723786163461 -2.6105135955204974 -8.828272600401638
478 -3.8920347081697817 1.165994167309881 -11.981270300917588
501 -1.9845579900954395 -1.4535786905782047 1.1287449490862511
316 -4.031840654382915 2.8285164563362035 -10.919990698133745
339 2.0450540575940326 3.6890068764902137 -5.0579432252852135
458 -0.9145899243787788 0.47248906597613743 0.7513620362332004
320 -2.4129941795779546 -11.66257113681611 -0.939914828239892
343 -1.5522719735805681 3.754476004788318 9.366314247452697
324 -8.752471409366139 1.0160674872741686 -4.50199429311163
489 1.1708297685527422 7.9425568970119125 12.515040252903153
328 3.485521528266449 -1.3159732598845146 0.20826027905474281
347 -0.22786010985088584 8.877186627047285 0.3148356133972076
493 -3.53810622299785 9.056700342165106 4.721646049282786
466 -4.424273952640841 1.4892880524469672 2.5441032479402086
332 8.09679825331613 -3.3981652274123344 -6.083230109538655
351 -4.6398759548585495 -3.0204687229636247 2.9182752811843904
497 -1.0230705530679256 10.384903829324495 2.761995027332582
470 -5.685509597238485 -7.346590075787883 1.6246706792268215
336 -4.049433058313238 -9.795142076359648 1.8947124169335294
355 -1.5482583303608943 -0.16802427215653382 0.8556773013115393
383 0.3705781957351442 5.311636873054069 -1.9142918922668344
360 4.118479216679729 10.303867153130085 4.678392653414135
502 6.344190524093866 -3.7146822680403915 1.9591462021844321
340 1.8388141699226723 -6.235472678153566 2.4510821596816763
482 0.30494495893915213 -3.3820542424691586 0.9798412635698539
344 1.8799037387402326 3.4614674826870604 -7.983543757689014
486 2.126017314869423 -7.307891169896942 -9.536799499772858
367 7.106820766316696 -5.142081464447396 -4.405046560240667
509 -1.472228777095693 11.705680979418755 14.094398638319632
348 6.37518561563197 -6.073570319493763 -7.581323742014972
513 -2.838547961042709 -4.684540952479749 -3.1434061009220247
352 -5.415617579677567 1.1112139367653495 5.047771495680174
490 10.765022884476384 -3.856702612477328 -8.674459307358646
356 -6.183061467552307 -2.480288867190878 -8.18675967284666
494 2.00085830375859 -7.654578576688611 -7.771403173286273
521 -2.655038616620446 2.685468491044564 3.2268875414015197
379 3.134366734813759 -2.4080734955539316 -6.78208416651105
498 -4.727042273852026 4.371378691571301 0.8719666130033418
384 1.9953195734429472 -3.9694383047692967 1.6690179339295683
526 -1.2407151360196595 -5.2400876862549275 10.165886286283751
363 -3.7360059729950947 0.3765646536119788 -6.636653476738368
364 -0.045419244202435545 2.422182954057796 -1.9038524500557157
505 7.197427038150001 -13.098767020439338 1.9161954175984017
368 -1.4720054560842333 4.514427230598431 8.728707343740954
510 -1.6101346172471165 -2.4505568128674735 6.010545291653599
372 7.4474275269559325 7.211401112170821 8.63219638646311
371 -4.5001405409163695 0.6733125861614409 1.9519185534524124
376 10.305572538937083 -1.1927287032707827 9.681040572001367
375 0.7588121701240279 4.850620522781699 1.536741951495344
380 -2.0927440756063147 -8.041933297151118 -3.7236719494472568
518 -4.977403925006571 -1.4193748900883336 -8.988787195835487
522 -1.9710120234027997 -5.787179580685408 -1.0431800160540265
550 0.974591567408847 -0.19569914941660396 2.0429444978145876
551 -1.4919071739823515 -1.2796063783933236 -2.563557487610655
530 11.078734265260842 5.4044536921554736 -4.497429633292465
532 8.755410043103085 -8.268973624591961 1.0755001323062297
531 -11.536236608972246 -5.15020765294448 0.1033433052011513
534 -0.448126662966497 -0.7646440909073873 -1.274091501647215
536 -3.9607843734428774 2.0176170656168693 1.511087658389841
535 -7.581899634291535 -2.233395822691554 1.0652341391585922
540 -1.5135779995653849 -2.3501755892509206 -4.58783073876223
544 -1.3868506985928784 3.6678374711487276 0.0683673053438823
539 -0.20758288238806347 2.8859564627856993 4.597883562872998
548 -8.16154795440715 -7.973367320595233 8.877937101157789
543 7.426055837151 2.953775998178436 1.292247837396839
552 -1.3996692790805352 2.022397542575126 -9.937515004173266
547 -1.3490614154286673 8.822970304156753 4.272755876617016
574 1.7101280887163461 -0.48505928071341703 -4.894116416132968
575 -1.728873572390884 1.7682544447097364 1.7386422758505347
554 -8.044294164737996 -3.3035144914433014 -1.6974788788470105
555 -0.48993287952224135 -0.36342159374514243 -1.3731089896566895
556 4.537152802105907 -1.8415669848638172 -8.041998631566583
558 4.238657497332751 -2.035152260476919 -0.12179849879301893
559 6.74519823751476 13.4440352220114 3.6147847177635835
560 9.65513927951546 4.873947730005252 4.435634507458174
564 -0.6545546673390389 -6.452629414441079 2.1191535907735886
563 -7.914853368100338 -5.397823182393425 4.248003976539244
568 -1.2268155912702148 -12.327707509574557 2.9376315410358216
567 -1.218963381929301 4.76517106201096 -5.8420367615443585
572 1.8221584203726149 -9.87830784272251 7.08050513744729
570 4.86813946231451 9.132217500841408 -1.836146361041211
576 1.839677302222837 8.34616878756402 2.9662959358844283
571 4.670283341388468 7.283660452832744 0.035249420731156646
453 -8.133508691998163 4.276742743198295 2.2050728575545557
455 -6.482008547658906 2.1301231206177436 4.248071068619581
433 6.424458748250543 -3.8132153471188137 2.367382186133573
434 -5.830470072318646 15.267831404807803 -0.46876145002684394
435 -1.0319024920883568 -1.967363985143541 0.6712125032837258
437 -5.917827824756561 -1.8312555165067423 -3.0009680271589434
439 2.510431515452778 -0.2800581397825876 1.3938304525434275
443 -5.268687184109378 5.172705815406446 -7.026355221090961
447 -0.23592156365967415 -1.855484794465972 -12.891140219594071
450 4.924827610239347 0.5248281751909966 -0.008748682773698729
451 -5.819046360459587 -7.296055622436768 8.683931002506107
456 0.1648368312747505 3.049243574162426 -5.784933927034609
479 -1.6546344429881084 -2.462258693852924 -2.150590425727684
457 5.712347721824737 4.1219952315118755 -1.0852577665564442
436 5.432470078496694 -1.1462895196123744 5.503072632753282
459 3.1672947950841106 -6.154813848243528 1.6727920380955454
440 -8.956309232791995 -7.968491818717371 -9.61287103090829
465 -6.3620846550881 1.0747086266539185 4.028239383405675
463 -2.216415472584235 -3.219406467905433 2.4609327631964946
444 -3.9642431201089545 -4.42467463613508 1.1046669320948712
448 0.656969545167339 1.5674269191865593 0.12827703813051813
469 0.7193244048663934 -2.9003776071135916 0.25813006440869063
467 5.311260779397524 -2.1313312019349615 -6.692855160382303
452 2.483505882921817 -1.437812958937792 1.4260024740816222
471 3.5573334595978574 -5.629951501910053 1.8210132044797926
475 4.414806575588984 0.6666693499903467 -3.061988211939503
503 -8.182408259589863 -7.7962202445639575 -6.461749695786747
480 -1.413067089206059 12.017275078199349 0.8608887711921309
481 -2.4110259047561824 -5.594435738224404 3.343511474830803
460 -1.0634037670533194 -2.2064529423629624 -4.700074582510167
483 -1.5368183319612596 -0.8662521616494643 -2.473057605133653
462 1.6563387323986971 -2.5446563172243466 6.944146075500219
485 -0.726176943372634 -4.267885671378451 6.970463466906312
464 -10.49868331878854 -4.830254398660522 1.534002596356392
487 1.9855502466701656 -5.967257687612924 2.317346183246567
468 2.458178340182762 -4.423699628613445 -0.11328053854103229
491 -2.1610427029330888 3.083934033288877 -4.081351452965332
472 -0.2988156338722839 1.1442371756499916 -3.0819218715141075
637 6.871598578660192 -11.730979597880943 1.2795813632374466
476 9.401345818974091 -1.052317891769461 -6.179209411829493
495 -1.6067994631045617 -0.22172431769390305 -5.949859542100641
474 -6.5542645792946415 -5.388662174556553 -3.800193325667684
499 1.6627278021604672 0.2044742080892781 -2.4648234311542656
618 -6.915926991512654 2.0277135232853367 -2.3760841389171
504 1.6581417147787039 4.949541703354448 6.350436192645135
525 4.777622803186491 2.1917774007100235 -0.4202805475417913
484 0.3985550338288343 0.5397811258834357 5.545626211681907
507 5.469655927710287 -0.0900278250388603 1.526848194078046
649 -2.8387764025292754 -13.833562276453712 -2.6288279801180727
488 1.4082159765783138 -7.04043935399631 -3.0387125566892053
511 7.371586123025686 1.0169030342917902 -1.7903499082747842
492 6.955923893155026 -1.2967429848652892 9.776270493263373
496 -15.303500024271322 8.958770510376361 4.57605043000215
500 -3.6073540100412163 10.652975851323662 2.317276090072333
523 3.2882172980211926 4.996931197218229 -6.548878161357651
527 8.614948716364985 7.717121583119374 -5.853369863953637
528 4.948109459422681 9.033807101721873 6.215408338094364
508 4.197005766333048 3.464081747906915 5.608247919189049
506 -2.372755837610707 3.779091245198358 0.2748118507904076
512 0.5341465011106219 4.029618726131057 -7.136513056206251
516 -2.3019909515405823 2.981462382683264 2.947147812459738
515 -11.35898885698854 4.289521002130723 -4.070186176636381
517 -8.397720454712722 1.7012925311626248 -5.34603570438962
514 3.0585156654301295 3.18545963785273 1.8940492349372624
520 14.278764575598613 -0.5985882257046004 1.798080549372686
519 -0.39833342200411886 5.138529658967326 -6.84481371644767
524 4.3249955769458355 -3.968592115418089 -1.1208165727001207
694 5.20605661136502 -1.1818089762913595 0.20233525921472256
695 -8.657654987760647 -1.2457803078569523 -1.8631368629986154
696 -1.6578097039829176 4.301292340650345 -3.2461113745478234
676 -1.1287979039448397 -8.886865000021103 -3.3187320641465363
674 1.765099847369634 -5.2306748632012825 -0.46095564398427197
673 2.536661930726437 5.423093505458314 -7.947478393082097
675 -4.2279244683917865 -3.19267833401956 4.454256688198546
680 3.746344795288876 2.144196049569305 -5.254814369131049
678 1.4449602729378552 -1.1511355715287799 -9.760337284238108
677 5.2355771203794506 -12.325755526464617 0.7285363334367851
679 -0.1361077022007701 -5.107423577730096 8.904902038500751
684 2.5922257519093415 -5.368043860688125 -5.423694322667832
681 0.3651281408735328 -6.8490246925470375 -6.302606151026507
682 0.06419512994962871 4.391126462193073 13.230762104003267
688 4.089424920172767 -4.9245865179560875 -4.147155248298398
685 -8.425603949191592 -3.6748251498676363 6.043452928539948
683 5.277205918480338 0.6192294335377782 7.290467019684376
686 -5.719314739119388 -0.48334504708708664 -5.842777512810074
692 -0.4494232147151465 -1.3782726636733773 0.6960361067075563
689 -2.8425897345684725 -1.4114876296674612 0.4415540614032286
687 -8.111503951504258 -0.7527044025282144 0.8483341891912345
690 3.0232464039010525 6.27235010506108 -4.236749859027082
691 3.9784738575172156 1.1933355650932667 -2.0753676877962466
693 5.729909351690953 8.254711604067147 3.5009836210073457
719 1.9909365263700476 -13.527566341513374 2.4456120665397796
718 2.16059783606829 4.2658999038110315 3.3342317737788183
720 -2.719865957906508 7.89068592499104 -0.927066336017887
717 -9.252510090819705 4.387432998950923 -7.4674945747254196
697 6.376915459016487 3.5119150610180885 -0.7638135899333912
700 -4.628600519023638 -1.8001359074120722 5.012634210101778
699 14.27649490016913 -1.2371719109562502 -3.1883798919667896
698 6.72276042251089 1.305516316373951 2.503820551583244
701 3.928497766873409 -5.614768284366246 -5.069348124015933
703 4.486800345803547 4.0977805633589 0.8116950659755557
704 4.120001734828099 -4.434749651467109 4.231757393721813
702 -0.8354137185245798 3.5135163110396723 2.5735958692233543
705 0.03358563986036227 7.661765500932852 -0.20533186283502125
708 -0.7726508285514342 -0.8792778671325119 -4.479862432223272
707 0.414646747594539 -4.082049117500294 6.898983697493229
706 -4.577062938257886 3.2726534509758083 6.824229545034516
709 -8.533428512638864 10.053150784491436 -0.5966651730500098
712 8.931762019046841 -5.700230781431146 -0.8237251661924404
713 3.197254267698591 4.6353486586645944 -1.4495801966664066
711 5.202657860825078 3.5420509632225077 2.668319908185581
710 -0.3448479411541124 -1.4865067500497267 4.988759487215003
716 -0.003701892192367068 -5.0879535526871065 -0.4428729889529602
715 -9.542509933240183 -1.2017299380479372 -1.7802284095819214
714 -2.1690302609252745 -4.980943130678514 2.7574662027374703
599 -3.8626222533315953 -0.6321996189974759 5.659078779766329
597 -0.7297224630811522 3.8405940044949634 -0.8653876770965482
577 12.880518286247371 7.162654082095832 1.266348754374492
579 -4.085407548968355 0.7811187990240784 -1.975169109838018
583 -0.854346607905729 2.1568984365400112 4.09346885968144
581 -0.3841666298181865 -5.554295702319292 4.818162048185692
585 1.6794534916168855 3.836030145505159 6.694744103982917
587 -5.882164497267739 -3.923748782167421 -7.466050924997254
589 4.886700551830057 -0.34152360513876806 1.8268798932906007
591 2.4914996075022335 0.4260091436417854 -3.122653857077757
593 -6.354497431289847 -2.911530826666492 5.8710308434401925
595 -7.473492105065698 1.5396431552790375 2.440822040912716
598 7.897458280722851 -1.795371765847342 -12.135569807283325
623 3.8134449596357998 0.5677851366819618 -2.116417921540556
600 -2.549153565516534 2.5544336841958173 -1.3064521121069235
580 2.4857674615482495 -0.8763152034224386 4.264569727319965
578 -11.305194966973303 2.553161010566029 -5.231240852768924
601 -5.4306649158973315 -2.3619168510682362 4.4235499937539045
603 -4.168901116940537 7.572186765969705 -5.720941068515875
584 8.69031561315563 -2.3394013369999733 -3.525892493699748
582 4.621973827026022 8.465659743935365 -1.6541612962925032
605 -1.2115532253012458 3.229516484876157 3.073941430012214
607 -4.081129905319123 1.7371620306620825 -6.739628863860642
588 4.221940531825017 1.6703211608143227 2.5758363525191084
609 4.472146659304441 -2.885302194892966 10.491232407110127
586 1.7251622142899625 -0.30347837391322324 9.003319270168436
592 3.6355019814098513 2.8815923154687564 9.069594992902566
611 -1.1193290583053632 -11.659749006291342 1.5300274721091236
613 0.9035099673720194 0.5105044652089379 -6.963065531720504
590 0.42361375654154376 11.15191296599993 7.384494587433482
596 6.1522882470608184 -5.289346910798712 -6.5815370441707035
615 2.936900334685488 2.3767354716243827 2.628323403021383
617 3.1193747115627475 -1.6604753601225704 4.641673995428511
621 5.333180081822485 -3.4054487171014394 -6.584794421476753
594 0.3577852102279985 -2.446008787457946 14.09869586889217
619 -9.058706637819077 8.602536693645972 2.8275242496288726
622 2.0905209597957755 2.6357524427887027 -7.100127173331851
647 0.9037717876183073 -0.3646450212493197 -9.578729860023195
624 0.28011399456898184 -14.544445357174279 -2.123292472789251
604 -2.5639094419098667 5.452278283320218 -3.101673511282828
602 -5.154515085641266 3.8122021395519465 -10.371710056164298
625 -9.871783085776311 -6.1489815798601155 -5.688216010425987
627 -2.5139358258561155 -8.343291072553521 6.745863325194383
608 0.32872328006397034 -2.8867442710818274 4.706491873473522
629 -2.1719405225152486 -0.8123048903872326 -4.1777539388556315
631 -5.825110373918478 4.316116769670146 6.679148133899146
606 -3.3733334718892105 -0.26702194513472466 4.3898297617814235
612 6.2678872500189255 2.6356055178418414 -1.0426110638804875
633 4.7267799129007955 -8.78871686291415 -9.73285689732619
635 9.266353687313591 2.475528433287014 13.019593505306243
616 -3.9354588810036946 2.195355351253335 4.876667275874576
610 -6.313702083777352 -11.985646253623685 -3.478599960971357
620 -4.552994602570639 1.8856387763710292 -6.623348812887029
614 2.3967974346491308 5.902351708185708 2.4303197695137313
639 0.6074149702142445 -7.053118502726429 7.007472357717179
641 8.302084190357624 -10.370877472528145 -6.0241930383846425
645 -6.364044440374539 -6.501271212781521 -7.765744741753323
643 -2.953248542507948 3.1486450938003765 -5.923374301892098
646 0.6235399570081949 -5.857515248642013 0.6398050038218943
669 -5.384283371118153 2.1469286245382335 -7.133865796137625
628 -4.330994205478425 3.4826127245581615 3.548301586117271
626 -5.257789011980664 3.1124574792353226 2.4170948171009385
632 2.7829714929685454 -5.444271089827545 1.1716363732671071
630 -4.16212407505852 -9.414478127828918 0.595034231665856
653 5.317614275966632 -4.348791601342243 8.112287941077025
655 -2.360234448520023 -1.90159352610169 1.8814680500711625
636 -2.8423235608479063 -1.8497311189053443 -4.140595633949139
634 3.394991799479233 8.861865252403623 9.99494283595109
659 2.731422415091154 -11.753104325129208 2.8037821560555893
640 -2.4383376809488495 -4.951005196885169 -3.664565954309354
661 2.232328859049576 -0.10234493405451671 -4.724822002450266
638 -10.207689361716733 1.8922826612853456 -6.950284555254098
644 -1.8479474538555116 -1.8950013866874285 6.6855196264936385
665 4.809247736743397 1.500099164056969 -0.2655524086800624
648 2.2211372008347707 4.604925678991346 -1.998989263325006
642 2.397625709675736 2.7222245287254347 2.0592929199587275
671 -1.6881597732161744 3.608109663873605 3.0321465556108733
670 -3.5293882975488535 5.676043712291583 -7.9456614610476795
672 -8.957326820251689 -3.2198064519361616 -6.314835818164136
651 -3.853831804975705 -2.289267215918055 -8.186281110955157
652 -1.8377753843853484 1.343445070883778 -2.832974205924693
650 1.0968232413986525 -0.34904739423589226 -1.681931892660256
656 -6.695975588196671 -9.332138784508931 -4.1500682812715715
654 4.320859892983479 -7.1735090444064085 -1.2679121746491182
657 5.402238388451337 2.480317579126546 6.886665583739821
660 3.3450875314591193 0.9235128057187986 6.267137684608733
658 -3.4174417111288276 1.1705220106212795 -0.25140701100587975
664 -2.690435403045172 -1.1127679689487942 8.750977171397917
663 -0.10969235587735594 -2.6119472514618596 -4.061697554353827
668 0.6569547378934391 8.395133105843204 -0.5868513286906503
662 3.0534026724484056 1.1417917259307815 -5.040414095160309
667 -5.695878267143937 7.1263953718068755 0.22376135447715126
666 3.392608263320465 1.5638851871264843 2.365381411615879
838 -3.903722762382968 0.7427797705378532 9.257916233179907
839 -11.467374634940272 -11.417069497755092 -8.576906841990748
840 4.207224721327863 4.540944744377027 -0.8615085955512316
837 5.09747337650061 5.952161634705949 0.4742706901269939
820 -11.028825791781765 -0.13193235653207466 10.68654691748459
818 -5.999096797388008 4.086667963556253 -1.9598965718552823
817 2.2754384493109723 -1.8197847426766807 -0.5827499488312762
819 6.1212628557732724 -3.1908154802198245 1.4431609376617385
822 -4.2575533780951105 4.747943129228197 1.335897421180554
824 7.911253781718866 -1.6293694057878843 -2.6209701014005478
823 4.298926182463427 0.8157594198374258 -12.060112845502136
821 1.6696787871575425 2.156580632376201 -3.3712857089628163
828 -3.673447719017067 5.395106265520867 6.2695756525094
825 9.992232454215642 1.8894793543589437 8.399273837733213
826 -2.655092973895305 -5.213845359529513 5.084889419508125
832 5.799827845951231 1.5206928541400506 -3.0206087451888766
829 -3.2305179216589406 6.972732786835608 -4.390993788081633
827 -1.6727810105363037 -3.268109005547745 -5.407949830668852
830 2.161969932677221 -5.461610176542647 -0.7767962915909744
836 -5.091517724008939 -0.24669003763305095 9.699649167264363
831 1.4520618786384751 -0.007914931661628726 -4.092769666379252
833 -3.214747053558483 -1.0148308772290338 -7.2034773182326
834 1.6465373565294454 -7.094072320791712 2.2446238292180087
835 6.241827587703681 -0.8685276766239636 -7.437857043972253
863 5.975225077949845 2.813856734108566 -2.207407888320943
862 -9.31213358047762 1.952179967074575 -7.63162507392985
861 -7.313565097995157 9.325692724877403 -1.2375571767941693
864 5.402203067127313 2.1984925404680746 -6.09902825017112
843 -2.793574539314998 -0.7918837608423523 10.233438498054246
841 -9.332486361106204 -10.227767330340045 -2.85907043568349
842 -4.373516714780779 3.483450269829506 -5.2720002766964384
844 -7.559355057386444 -12.19755026041245 5.335080388270257
847 -5.7093153530848335 -5.705313802166719 -1.2460987141409425
845 6.163321924423461 13.85963352650221 -8.86025896381461
848 2.88597068023354 4.595610285278981 0.2371599977356997
846 -4.112572297757182 6.092206988535528 -12.368441368612373
849 1.7202520754082335 14.463720297138813 9.396425453967256
850 -4.499226677135472 4.21860945166043 -3.4155631708220504
851 -1.4419609289621131 0.019670156005530775 2.8349592804060975
853 -5.359708803383224 -6.231828023135677 -2.2661506108353953
856 -1.685989158434279 -8.367154624845188 5.152273511992977
857 -1.8605360466166074 6.254818747318845 3.298745143055417
855 1.5426715164052152 3.24915277829122 4.979671345921089
854 -4.311060591347797 -8.410411317319426 -13.66569970566634
860 -5.5365792607974305 -4.451365614733182 -6.386119335147963
859 8.036600404566737 0.737692415976726 -4.584524806342362
858 -10.835197678607564 6.3609109423749794 4.383661958530984
743 -6.3685766017787415 4.789816415876356 8.705984670910217
721 -0.9871592861791639 -1.3294330878008866 -6.96873785218281
723 -2.8157601914670924 2.4114205723046624 7.200282827129219
727 -10.316565790557586 1.1942703904145513 -0.26110705837253784
725 2.5838775501192863 -7.819587840397723 -5.883987727614598
726 -0.7720433700023163 6.77591216834257 -1.1968878633320543
852 -9.041723455473937 8.601658774176368 -5.8648149392663855
729 -7.74671868780009 -9.606628286461824 -6.8207859641709865
732 3.208981073744537 0.8727532431594709 2.7187550785496035
731 10.780232022952992 -7.818202142440987 -9.295829360004046
733 4.025333715923256 3.7715449216781014 3.6973424088777818
737 -1.4462109109556371 4.044091027062089 -6.179936505667355
735 7.599937365662136 -5.0742307005299 0.7718818615952994
741 -1.7870111896513936 -3.6140493798935354 -2.809966080595083
739 7.827780185075222 4.931532265849159 4.769903366940709
742 6.470778134126801 -0.9255185750204746 -4.234634251469394
767 -8.62279868949074 1.3001577399140425 0.7742523651863258
744 3.252824794329395 9.180725307572713 1.4539874423462589
765 4.687422651546566 2.0489062133901115 1.8280537129486356
724 0.21061402347774041 6.528464895819666 -5.161395166660749
722 -1.091411298735618 1.4736118513883378 -1.351927074504841
745 2.8605065445981124 -6.93667185557429 6.004893734158966
747 1.8946693158324173 10.35288127730085 0.7210663676570728
728 -1.4227671016374082 -7.433587387834999 -4.329091525444203
749 -0.7656586605336296 0.4605065080231177 6.465702012674322
751 0.9145410691612395 9.195816171993277 0.8231341601273707
753 5.969949971724019 0.19168915754947 -0.5674162026630014
730 4.622578570389193 -4.21571109890173 3.0906092691746165
736 -0.46031614882815747 -5.080506418877023 -0.4418364569335936
755 1.02590521715692 3.0607137736710643 0.8993461567932689
757 6.814207937599399 -3.4701890665233157 -1.6249842869921378
740 -1.2673117282155215 -0.7337778947730278 -0.14752541555605164
734 9.95423220343026 -5.8050577636123055 2.5943066530018446
759 8.787730911089954 2.281577238917571 -7.164532810662488
761 9.307641130343093 8.872551142899544 -2.1007720487646537
738 -0.711096155052789 -4.153367453527639 1.7609156423780599
763 3.06958815440909 -3.9892778196256464 5.748195999132557
766 -4.262486365575857 2.1699566600477653 5.739650288593613
791 1.2245705713039785 -3.6192496356803003 0.8915196899492677
768 -6.101950736378146 5.714013152686732 3.746234337174199
789 -0.8713627948560055 -2.4436572481716903 -5.200249995743286
746 -1.1146802334495987 -0.6396297407556044 5.856531794527008
748 13.281430676400094 2.245882113034323 0.8684732814337428
769 -3.084562805573826 3.563113258310019 5.59341344979751
771 -2.68492930069703 1.2244008328119032 4.741945351967042
752 3.9823138582331454 1.43131794328866 5.817267739481524
750 1.0388528669548949 -1.246401878742375 5.196018333214841
773 0.9668209652577375 0.9534908982465591 1.132790054799463
775 8.163498125380215 -3.7589531769025157 -6.94203031245404
756 -5.86059265657526 -0.8743894709658467 -6.018212051444632
777 8.790427354922285 4.743449544264737 5.974650911979509
760 -2.9313462602528397 4.38861743218513 1.307862732819036
779 2.017170682670476 4.659420367573771 1.4037313320902485
754 1.6933327897550083 7.411488493889557 2.7883181996667936
781 7.321121242569506 -1.2625920535169108 9.702118068487502
758 -0.7849472682627963 -1.6253683703144188 11.247092519157958
764 2.47046121377909 -0.9716193244967909 5.847368851199379
783 -2.121655250848944 -8.396393972449223 -8.605566786897365
785 -4.495191185390682 -1.1465764468186894 -1.0665941465261461
762 -7.728757168587891 7.825537747530481 -5.943893220450369
787 -10.248776520447429 7.168419026362964 -1.6881403852497154
790 -5.579866037149807 -2.9457228416755106 2.827884502246927
815 2.0809931080812274 4.3860909147366085 -5.116989524146103
813 -0.66353836794051 -2.116762068451629 2.659830364311053
772 3.1891884349737682 7.679324505416726 2.1189401441870825
770 1.9763261926272213 -3.2795665035799852 -7.56306457525465
795 -8.37109492748192 -7.224335718475652 0.7441720221606842
776 -1.5786087638040007 -2.9993788927015603 -9.006458029596075
774 1.129967361819831 7.05608772392546 4.833706672840252
797 6.394826422080933 -14.348318217532478 -2.405919570481752
799 -2.110656244658403 -8.667884776411677 -0.7823334771876561
780 4.32409925903465 -0.5393001235413071 -0.41111575508407194
801 0.40494001848352307 11.716856919281566 2.571894281681765
778 2.3801374680609815 2.433621977965663 -5.341714794467599
784 -0.3657283362082715 5.373803974285015 8.702808093950566
805 2.242351914237285 -0.15380736890736613 1.1390458486226724
803 0.07326732851292006 6.645786848323276 2.6988320254438585
782 -1.6701213469046308 -2.410773611794887 6.22906596487796
788 -0.25942934979881943 -3.078817414734792 1.8013135975807972
809 3.352313904942347 3.7946238178241094 -0.8177420755868008
786 2.359366774840825 1.322306214004604 5.143789487281113
792 -0.2083151382751687 9.189367320008547 -2.964647722063749
811 -4.1157573900773885 -1.3632919091070945 0.3867272258429222
814 -7.517148590581288 2.781341511512688 -10.57911393295153
816 5.793889014221391 3.114815688638591 2.0483435399161443
793 0.6574643312856642 -0.3419856672012887 7.621261958658396
796 4.940054848655006 6.077471960772894 -3.6143629271727264
794 1.5038102579752015 -2.4355528385682037 -1.5225572210848564
800 1.1979289319415114 5.176202309932762 -8.851030657251314
798 -1.8671170925742728 -0.9175632546115383 6.792440644834711
804 1.825828865472923 8.161904307886026 -0.3439082703127028
802 -2.420889420131651 -7.148926742757702 -0.8863059605613824
808 1.8265713577298737 6.739994805197449 -3.458633951392859
807 -4.856519463259722 7.538016173339198 -7.096770621629232
806 -7.672990313695268 -2.78702477884958 -8.45886916441911
812 -0.9360231403175616 -4.41189472685638 -4.406136002661521
810 -6.1706420536222835 -6.1167688353175516 1.8994727604831974
982 -4.336400335604599 0.684868927783947 3.6621661879436287
984 -0.5363647122356181 2.2994589088646684 -7.596371810597862
981 -8.403225378404636 4.990936558366955 6.6531633020752485
983 -6.466704136519392 3.920964060125393 0.01293031479419907
962 -1.2121962224295468 7.089625543557341 3.615706925854841
961 5.568570212830441 7.697286856858123 -0.7812958835385909
964 0.716062379035669 4.944214094283304 1.683061014754309
966 8.600877386536833 2.482684382063709 5.711222817530811
965 -0.3443563814617264 2.7349888867056924 -5.191782866125798
968 -10.247257440567678 0.29313819900378446 -2.5264438334161765
967 -1.7332962505185745 -7.061491266222031 -6.581752406421407
969 -9.578187503856375 3.524085400054832 2.7893484558826547
972 -8.50959597030908 -4.339391214265073 2.443696639749889
970 10.591086483376877 -11.132103851399721 -5.560403854118445
973 6.991632612626013 -0.28950601984541835 3.652054208901145
976 4.074244029785522 5.736654922663285 -0.31398056350515136
971 -1.6192828188722 1.4111740285028387 1.6962677147468959
980 1.152761722745921 8.697383215187452 0.5812167174181941
974 -2.7098352300220685 3.265134906850671 3.5278718299893663
975 5.38199602028831 6.9395549544890685 4.458842294875874
977 -2.3356087167525845 -1.1843404822492851 0.20278699126756733
978 0.5400945811399913 7.461876086082977 -1.813213395754562
979 9.527023038694885 3.366375678386804 -6.767282475026014
1006 -4.722109082038531 -3.379870091025265 5.891446198596742
1007 6.354795941299055 -6.735817710280667 -0.16865165210976893
1008 -7.032271668387031 1.771960144926096 0.3399637242324955
1005 1.8651424288927592 -4.4762927554104985 -2.641569672254553
988 2.729966499586706 0.5976103161030096 6.721533445019876
985 1.1896597030069698 7.255167191436947 2.7174945862023883
986 5.460341115036856 0.8460226718049628 3.0279213053873586
987 -0.8222885793470084 2.3994658380238136 -1.7930993356808342
989 -2.6565748870614994 1.0601017349485893 9.008574613228294
990 4.610613779599706 -5.082146336329957 1.0004429799109928
992 7.194399149852839 -0.9460716077073587 1.1904280350306253
991 -8.838586157297419 1.0944302426295314 -3.594712530570273
993 -5.5303368186701585 0.5135267642572974 6.665486237018303
996 0.8482241498564539 -0.5093981396583371 3.93070664723063
994 1.3652132582259686 1.8736338800959413 0.7438497882774743
997 -0.11546027953950243 9.457069032452182 7.192773080413884
1000 5.16336221924099 5.311048100100607 2.4195778323385917
995 6.632123968197257 -4.859039750322086 -2.510420755765948
1004 5.761925578898657 0.46782595894007395 7.633923102603861
1001 -6.303067640268618 3.6916810888103004 4.2187491897672915
998 6.502255720675867 -1.9976914275577973 -14.716245510977165
999 1.8920119684357586 0.8387504023957497 -9.107758393647867
1003 -4.356455322070801 -1.0147285119880323 -6.766643573259882
1002 1.0176082982433652 -7.33200925063217 5.026591777666407
887 -2.926992662751279 -2.0184429663389043 5.0507639198250915
885 -1.8382225619773702 5.389200435402438 5.937706447623644
865 2.2088453231141956 -8.773056853766377 0.06476477297715307
867 1.0372322940127159 6.972881656824241 -0.03616778422055423
869 4.565540422095039 6.978148820680532 6.405919220725863
871 3.8541250428881333 -1.7417997487207535 -0.585602503887888
873 -10.061895717818517 -2.0020866790027902 5.699764440380773
875 11.216866315085374 10.51761824938839 -6.078050963413745
877 0.1954761109179347 1.4473104107331882 -7.55888715476619
879 0.3875578202386477 -4.008974944781078 -1.1479787903012308
881 -3.411155512014909 -1.2214352687032004 -1.5774819939384113
883 -1.3258080984794491 2.814790956045183 1.9554799981149635
911 1.0263821751204116 -3.699417572339172 -5.495833344948015
888 -9.066814898892165 -9.246423635120772 1.765533944718353
886 6.612585536826595 9.003211571728272 -2.761719996567016
891 -1.3020990246622206 -5.498879364978258 3.625388144139935
866 -2.968403852239322 -4.6298184956449 4.408311594873405
868 6.6311779006041 7.961036575628618 -12.565687926341992
889 3.459532708618997 1.4737687801664165 1.4285828848092343
872 -7.391151932220725 4.434016611200888 -8.642738668414973
895 0.057015417190128356 -8.586516758405349 -0.09121078997677341
870 5.355012743089969 -10.387654997444315 6.089329638149404
893 -0.7825201600835219 8.376340956157042 1.0450227167633928
876 3.9821360309160054 3.5708350561655324 -2.010446488048118
897 7.044388934260924 0.17791814663556813 1.1311110801811204
880 3.266392679235676 -1.344766021930915 2.827276553203845
874 -4.151662289442203 -2.093338886044411 6.379803667822724
901 -5.416025067553491 6.892332004284844 3.6597116000832153
899 7.86266735922049 -3.0056275087587876 3.127703288413471
878 3.6487049327109524 -5.413605444897148 -11.787183989043797
884 1.252532539503547 -6.437624303774242 16.48193249530477
903 -0.4726507545300245 6.424099530375104 -1.393847934632698
905 -7.122653850002987 -5.712986011732109 5.200017704833732
909 -1.198664049525013 -3.6427823284710663 -1.1808990684271863
907 8.970640879521557 -0.36321647342950986 0.5364604324308515
882 -0.3017811342772556 2.4865453962411173 7.499131803016605
910 -2.5752058654037353 -2.6179129031215194 1.7584739659368522
935 -5.594161027989779 -2.787577947996509 -5.808181811322593
892 3.443903964214638 -0.734385152932794 -2.1481255412444287
890 5.277102460148789 -4.374455433329482 0.2984532435061467
913 7.424703004952436 0.8694568020768998 -5.600155103727402
915 -9.019990645774152 -5.897308568510358 1.856448365786885
896 -10.002049488549389 -6.0824333246726825 -9.762884605890727
894 3.819342072267973 12.17453854168049 -6.9266204280097385
917 -2.07831793040853 -3.5375813974445025 -0.29690207485067727
919 -2.1142162319161466 0.29759349891820824 7.374874414993459
921 3.137245652576145 -4.882259464136313 -2.950690029746857
900 -8.095447316758479 -8.088519760058926 0.5660384135677342
898 13.214215420622777 -2.6134036269481347 -1.2034504999725475
925 -0.29734581803747834 -5.2295065025157985 0.24286143177057942
923 2.116027562805588 -1.490791627863379 -4.931120739621132
904 3.3607288320026862 -2.774199911026616 3.98518821064986
927 0.8103547903071313 -1.8773026253976632 5.441729932682989
902 4.6367484847731255 4.433255814286458 6.460574902903619
929 -4.338498399725264 2.7101946297799624 -0.8141783806324929
908 9.084329268774678 -2.648983016510384 8.560408984592563
933 -3.4852819037071545 -5.430787146977294 7.169305523635927
906 -0.4960652999676859 4.261707742018312 0.8905438037446889
931 0.04793577101126603 2.134092831801085 -7.6919556531659605
959 -8.477622450242231 5.869154738616781 -8.50539315311459
934 4.3074214569519755 -3.212022418126395 3.320899423065661
957 -0.19741563107904783 -5.341666678925349 -0.0023030214732507655
916 -2.2287897143207536 -0.5954641404120142 -2.7922051595788133
914 5.910255946259521 -0.09448623401435817 2.914567180010288
937 -0.4564334966299014 7.101035213810441 5.599936120635988
918 -1.1749594784353303 3.9459110616047894 6.13723541452561
941 1.4298883008160146 3.787158616061887 -5.892544693927742
920 -3.546769163797463 2.1166148793768857 2.117664699830726
943 -6.952179672942976 7.086008203187547 -0.466450174189376
945 -7.834825719087644 8.35365609450788 -2.9736316672149528
924 1.6536747113172754 0.6055868306763064 -2.6930519766231593
928 4.1839875419806285 -5.275126066629178 -5.16508690564546
922 -2.230867568511911 -6.420389779598893 -6.240348702573661
932 -2.1009206671102807 -2.4542400547603136 -8.253179695556433
951 -8.951714993916015 -10.828734230336975 -4.211105165899375
926 4.169104779902147 -0.7568165598632102 1.1643013526704795
953 0.7481336803426515 7.434232376082276 -5.073309487991083
936 -4.901394743122777 -0.222288164886765 -3.202773537780373
955 -2.3408431749568943 -6.372635980183614 6.458478554495527
930 -1.4267290361653695 9.684656292870391 -14.00194044980511
960 1.3888162744756092 0.25273287428179425 1.4531765090171387
958 2.2725308194051372 -3.102284532747579 2.2543918068347417
963 0.7325356046842806 6.998248180994423 4.073959128507478
939 5.29530117800212 5.300557870266052 -3.7832703791949966
938 2.9261397546591486 -9.82646078863792 -4.962651865022982
940 -2.3687389304055677 1.0464952471913833 9.031930775735947
942 4.503577517129361 -3.973010794285982 1.938703351796837
944 1.345332252365739 -2.106156828576178 -6.668953695467083
948 6.8521424136437865 -0.9772033616115766 -9.740878012552868
947 0.3182581523715641 1.3477582581916783 -0.0038561846454149324
949 3.077826526250676 -1.5708897015515775 9.932582832820527
946 1.9517701616820315 -1.0372932479208918 1.531604319282239
952 0.6274951048073734 7.65990718063909 -4.282501085850848
956 -0.15355040423437497 0.5042311496208542 8.342247744984459
950 2.089283652062296 -4.46518877394835 1.1483396590079809
912 -0.43629692345590215 -2.1266821209979283 -7.982975088275108
1126 10.18274980994427 -1.489258446113344 -1.409521340817067
1125 -0.08421324876978845 5.432701107990517 2.750120325206163
1128 -3.3570432959776526 0.34490720279632964 3.223992381966081
1106 0.0548246671958503 -6.184699901020511 0.32775502328808653
1105 -0.19273579193689003 -4.706485358466268 4.106589034295456
1108 -3.28740220362138 11.443360964343556 -7.029097684859611
1110 -3.3182317014854736 1.8977484235940443 -3.9188420061599905
1109 0.06560620218653615 -3.7205366562168947 2.068327432338678
1112 -1.8978282083728424 -0.15718986072181157 -10.582850814872351
1113 1.1985553651792784 -0.12456839986821777 10.312152048304633
1114 -4.012626615164061 6.449045714381377 -8.905950615776728
1117 -0.7236559296725067 -3.8711914624209878 5.164257474917155
1120 -11.209396988610886 0.21830056720180716 5.4555472942613985
1115 -9.270616062041181 4.265725566163259 2.9848469456569857
1118 6.551076485011851 -9.612017184815825 1.649897862541382
1121 8.879904252663879 12.468194584774949 1.1048193384369458
1124 -4.248993865425583 -2.149319459579557 -5.7497884641840304
1122 1.6684552436258666 -0.09298585584610261 0.4954074009731143
1123 -4.447755199606845 0.5351988715003868 -1.3099475915033543
1150 -8.35900344989441 4.831664976507088 1.0395288897462656
1149 2.564487735537547 -0.77740679881353 -2.401710105667987
1151 -0.980046096460823 0.7065337345628303 -1.1447413477846415
1129 -0.4963585966484765 -1.410934751993811 1.2241596108279564
1130 -0.9953597722712614 6.646678947197524 -0.07721763736153991
1131 -10.340532360074803 4.097915128481752 -1.1684668299997023
1132 2.979926218163593 -0.8074016491193773 8.795561135983485
1133 6.544552276842641 -4.75196437752814 1.559076265914645
1134 -3.5985563544431356 5.333440143586304 2.271294539529135
1136 -1.0294981676008832 10.542654649599232 4.48527012194683
1137 2.3303240641074217 8.489703979392536 -2.7564238167258304
1138 -3.223635317319995 -4.343540020550159 -7.902985155031247
1141 6.4143819398533 2.421664020939237 3.6270345710244474
1139 -4.548044989345174 -2.027300044673241 8.190768557390689
1144 3.704750549388799 -0.4188054925136413 3.3846870311594013
1145 4.241832594343903 3.718823482065634 2.6808488310847545
1142 2.0934581561708465 1.3899133864531614 0.5792908934512772
1143 -3.8489347911275207 -0.5484345256457287 -0.47218647071402997
1148 2.5771082054151697 2.417249846250777 8.683162830858283
1146 -3.3963631108775094 9.798643609093386 -7.4224495874612995
1152 -3.978982023113837 2.764665960839477 -3.8673183631430237
1147 4.620750646156657 5.400516584302133 7.75814184234868
1030 -5.103881598685871 -4.208613744317103 4.775021397229343
1009 -2.6435194317531803 0.03104252014445533 2.3358175160561383
1011 6.195924135843962 0.8678461853807665 7.257892322469534
1013 1.2915450392996093 1.5787710125783738 1.015763855715582
1015 -2.6975614082890584 1.1813625333927387 0.48535414117011927
1017 3.7424903916109646 -3.4989232551982132 1.305443868252721
1021 5.820421272985234 5.964227928805111 0.8210398275722489
1018 -3.2441287884292573 -3.376839429652275 6.97950155749816
1019 -2.467395801431592 -0.09346665212591324 -7.836670705930967
1025 -1.0873753014557361 -8.415841963926646 2.385229357441642
1029 2.67269187811935 0.6933621958464748 -6.2262678954257344
1026 -4.81455394653994 -1.828735786845254 -6.405598805611305
1027 -3.0770917605640715 -4.054768175749027 -7.175556191113221
1032 0.37743309339491016 -7.272916837174615 -1.776782371048125
1053 -11.84324924877248 0.6620590614390645 9.190978857583646
1010 2.291033988880021 0.4728865396922965 -3.8234126940706674
1033 -8.980852831433747 1.6912117284236032 0.7110277150357505
1012 -6.6655304102107475 2.2827788885403755 7.312504295318683
1035 0.6404954643235694 1.5734565221582582 -1.5457894656579863
1014 -0.36046226010123555 -1.4356549014342301 -4.1058061006695565
1037 3.883378427940154 4.603667868644163 3.635276331048332
1039 0.23910356681211453 -2.5357847598687013 -8.188752682838897
1041 -1.471275713139637 -1.5549767708417679 -3.7806900887167623
1045 -3.982471618678003 6.117412234625379 -2.742216202379017
1022 -8.407902726090805 -1.281296088364383 1.2893682208473105
1028 -2.254145255535213 1.2856241894866778 1.2488342748849386
1049 0.7238886791380782 2.9852539928808866 -3.2104181690037783
1054 1.3605530992450154 -0.04938070707978568 5.96673637641759
1815 -1.8470011923300254 -8.837557289345076 -0.2197568277247227
1034 -8.344442677074781 -2.7694181314200494 3.6044894511862062
1057 -5.9050670561065965 12.53287902178022 9.897616199021531
1059 6.462081065359335 5.865821837389372 -3.918850200373771
1038 -2.8974982574085235 -0.5200855946128661 -3.226399084181585
1061 -1.700144609253529 0.5804511368770062 3.8595816020952673
1040 -0.8146341268965349 -2.2020358406504843 -10.195191191843126
1065 -0.7079784398384651 3.1047706767378562 -1.2126972477054625
1044 2.1403465072053156 6.307839508501503 -4.5585628214381835
1067 4.153743053581849 3.389225362699595 -0.9175706399212097
1042 6.756875065025579 -3.4939979925147355 3.984735566126275
1069 4.316255191793798 5.643706187713923 -4.6154900010167665
1046 -3.574906821596014 0.6439817312173963 -4.425912853845372
1073 -1.6005022458599572 1.9270736982942385 2.7050563346256316
1050 4.893168466444987 3.2245892376997816 -4.5278139848109
1077 -12.693904266598183 -8.70198371353721 -0.7170643152081737
1056 -0.490019273091783 6.250958563046588 -2.8331567029515847
1078 0.1486642682309122 -5.239024358652766 2.9265681847683678
1103 -3.807542379655596 -4.406392843828684 -4.380893569347097
1101 -3.1194809939419637 -4.850744871612975 -1.630900759974011
1081 -0.4621072936416017 -1.3734313928309525 2.7174432491461955
1058 -3.096366272744909 -7.527435885131149 1.6819349327930886
1060 -2.510638501375161 0.4381282342313061 -2.0977125712821008
1062 -2.1293687230512335 1.4627667368562545 4.879127765038194
1085 -8.046322657426488 0.8939143162101723 1.8699132505830267
1087 -2.2878303069203967 -1.9697206073859241 6.227650032396819
1064 -0.5236655150426612 -2.8651980815061013 -9.756599070368607
1068 3.856175104793828 1.4193284637421328 4.092427873729891
1066 -1.2338878043034238 4.269397085846502 -1.5299032242124555
1093 7.765190640533337 0.47032851831975925 -2.244963657589555
1070 2.1334756132107486 -2.896613681557483 5.078434867872646
1097 -1.0206030965312851 -12.985201923780402 1.0856837777580655
1074 -6.1639801823892135 4.887120426886537 -7.104518589365818
1102 5.663123566275767 -1.4307837401824868 9.989822231372962
1082 1.2796965882091247 1.7502284595404167 -1.385834945720657
1083 8.986151914227166 -0.23011602110222693 -1.3827492636155034
1084 -11.52432704035249 -1.8497735054982904 -4.494193277320031
1086 3.487784079618129 -0.6655051229959299 -1.5819009390509342
1089 -4.907137451470561 7.642868530214457 -8.027276086468731
1091 -2.8344344281922975 0.6575613558950759 -8.414090263080816
1090 -2.2983548421860944 -4.890297320184868 3.8300196032313827
1096 -4.880168813173518 -5.913249874566146 0.19731630448998896
1094 -0.9359752108988204 9.464800872400838 -0.3261647959381057
1098 -5.610384436510317 -0.848526170494987 7.26308698585332
1127 -0.7471473135610583 1.7155460234908289 -4.474060687783331
1270 4.920836343406768 2.760681935625466 1.3620294487651816
1269 -0.8276345394924215 -7.33994540822207 -0.2326643111921638
1107 3.782210309035283 -12.17688615516294 5.807519872612799
1250 0.4852552401142101 4.078431346508351 -3.3188323287944566
1249 -0.18688984714185808 -1.1455172927867399 -0.4725615765051756
1253 9.848406375495037 9.565040158329133 1.7105128927707718
1254 -0.9198793412300871 7.543746789497465 4.057698216363634
1111 -0.6133755546708503 0.340005178185436 -3.2839200465002745
1116 3.348434893046265 6.127598435858552 0.5253506920028439
1257 -1.0017519918228135 6.027568815533482 -3.8193747553867987
1258 5.40251323495816 -0.7497366234852392 -4.505546799798049
1261 0.4908008801424596 -0.8472825480422065 -0.9643858055119197
1262 5.58742620047851 5.480643695743574 -9.698827946946812
1265 -1.9028891476347878 6.110519634679482 -2.8116152483176533
1266 -2.5819457948307676 2.974825091947134 7.880579048843273
1294 1.855069251165602 -6.313411556168304 1.028740123988614
1293 -2.623097257110268 -0.9972703073910909 -0.43825626013252234
1273 -4.538748621252126 -9.211386789826035 2.0393256158139015
1274 8.129590372330677 -1.4659677528830601 1.5699456424662277
1277 -5.09932291408103 1.5806021638506709 1.7533510867511737
1278 -4.462430065073394 -3.8401913188008363 -9.949742607709968
1135 -2.7584265060551045 -6.417177069243645 -0.7716950902685129
1140 4.979074687535551 -3.308862071553082 6.896737139900229
1281 4.363391710696513 3.2116910452547587 -0.44170768171852776
1285 -2.8338241950286647 -4.731563829323251 12.86868008215403
1282 -0.5353949358504457 0.0002299108789909509 1.659600843292246
1289 -1.9497697460205565 3.4745250506324177 -4.511219800070349
1286 3.9099827187065324 2.4873938990551063 -3.705675534706762
1290 4.006135178864079 7.31343532465175 -1.6562182385972748
1031 2.7212862749321065 -0.26500056390911564 3.0046699906852488
1153 4.130530103409681 0.15754743445324662 -0.5548358855090938
1157 9.883342986507074 2.382531914216189 5.815762680449706
1161 0.6454697133483686 8.145068396317019 5.070937718583663
1165 -6.521865089973095 7.627897127656008 -10.581916463564585
1024 8.947308423042264 -5.113362037648792 0.45412021815036707
1023 3.1472687759675204 0.5517633014600007 3.7312312561371663
1169 -5.59735746007124 -4.194897576550001 1.6537690672824448
1173 -2.2872835342441684 -7.082992411285888 -0.3815698264593113
1174 -14.71973266639091 5.022226795364044 2.309430098628607
1055 6.220934526742881 2.130429510075191 6.234233198209598
1154 1.671200102207491 -0.38876597382428135 0.22282304769450345
1177 6.192998441337569 8.82340729028998 -5.719021184436455
1016 9.02042058056455 -0.3343181210422321 2.199013347469099
1158 -5.542687642668144 0.7385466078211915 -2.8581431033909963
1181 -5.543333055444062 -1.8989895235519079 2.2405314399236596
1020 -4.536824578609605 -1.545105200876142 -1.9021394998961227
1185 8.652393987885114 -8.121261192656336 6.708537233573102
1162 0.5631933439180491 -2.2190441003368657 4.099753997087977
1043 2.2613886978205326 4.293567132041028 0.3909846819019174
1189 5.678186995219995 -4.581422388486696 -0.07776005936337797
1166 -3.1932480643227312 0.002158139857771087 -8.863962363001317
1047 10.857350523314903 12.756173944753417 6.832451804915938
1193 -9.24128913084795 -1.3996481801778278 -6.2206502331579285
1170 0.6567553220122918 5.0923708967554395 1.655726827631747
1197 10.914177374477369 4.616631560922329 -4.189156366118861
1051 10.975147738139242 -1.3407865566279857 -6.788658401588095
1079 -1.1047467350232643 -9.458826060403961 -3.801186335476016
1198 -2.44985383622262 -2.2309925421777694 -1.4732895346149075
1221 5.0684741902172545 -0.8601679730386229 -3.413640411905693
1036 -1.648366512359352 -5.89802125638417 -0.421334109244284
1178 0.11052911499094709 1.4822405423260265 -3.110981858116371
1201 0.48830845889775926 -1.4222185167830215 11.295926047901753
1182 -3.5987933548477073 -6.313935831311598 5.313741601053784
1205 -14.085941981111898 -2.0058391783227836 -0.1936896142036721
1063 -4.820378140691519 -1.2595278747372474 2.9265931592473757
1209 11.391683678220778 0.6870535226989265 0.19370914676404488
1186 -3.6033102667918455 -0.806670530096053 3.760834171457262
1048 -0.5067117084967586 7.659273638039787 1.0628827018834626
1213 -2.0153081600961085 -3.822070931051001 6.8320877764068255
1071 -3.997145957203856 6.501530337495145 2.6157247393417005
1052 0.5860466921471809 3.4268812816195124 -2.904280588674949
1190 -0.28040850125799416 6.164880687811605 -6.705387254417792
1217 1.3950630234936774 -0.009994813266216351 -0.8477218520401383
1075 11.604204507122722 7.432418048087243 7.468087962660856
1194 -8.53093737628617 -7.369526305110489 -0.05178664534793205
1080 5.117110575901773 4.4982545500022475 6.172051718579697
1222 -2.857301780664073 10.450194638694006 3.613706531348086
1245 2.8064880091373263 -5.171641893901666 1.84921804468915
1202 -3.3110700222322516 8.879907020268886 -8.928818818557183
1225 4.76596796584742 -0.7464434207889346 7.6313506862315865
1229 -0.15052991938923665 -0.6434364773850404 2.7675571159791943
1206 -2.369334872810848 3.1145841541744574 2.379903712242862
1233 0.2619221930192802 3.233754999741264 1.8450172567986003
1210 3.5067109255706135 -5.827142939905425 -7.881495026619708
1072 -5.476225706347893 7.687812373397433 -1.4394925890039936
1237 -9.602375551670459 -5.8868169803227595 1.7301411264375146
1076 4.48379526518221 -1.5763918976703317 -3.697074886900335
1095 6.048822375782955 0.8692594243706161 4.3793816552837255
1214 0.41536639353573124 -3.742093108960705 6.540263949814608
1241 -0.6442684835321298 1.5179832153387989 1.686253030221835
1218 2.125208537840915 -10.525633447330211 -7.708451017207177
1104 -0.7291256880820852 5.4220014057760295 -1.0637850413730099
1246 -5.988468460733797 -2.1478222039343344 3.7310815657296015
1226 2.6494444882233625 -1.8504080183868172 4.443314701629004
1088 -4.0759537161518535 1.0088417026431828 -3.8260756578935466
1230 11.329888036692326 2.3611869936562693 -1.6485264632128966
1092 3.726407206128931 3.6692969048823736 -0.6757492614133466
1234 5.137361251442104 6.093961029139994 2.792274256046893
1119 0.32545972507222726 9.297945190547244 -5.342334612256968
1238 -3.9009227161355366 1.6033436556176273 -0.7479071602014317
1100 -1.3445550713937273 -0.7307129460913804 -3.9396999681420164
1099 -12.262819345477215 4.391541879913596 1.4101315773211645
1242 -10.661393866196452 -2.496438806916149 10.351418897141698
1414 3.897164585543913 7.9709578524301925 -4.733447589054666
1271 -2.213888375449014 -0.39330611075530364 3.8433196262668226
1272 -1.1332218226056778 -1.8848546304569376 13.480335136232332
1413 -0.015718187194306378 3.182705874948447 6.464213311008672
1252 -4.5051033641272875 -4.188051397905657 5.2927028879431415
1394 2.3517344297617346 -1.777826857681176 5.580641169560051
1251 -1.3289186043306094 -3.869491773910658 6.166752842187078
1393 -10.23009650057264 -4.694271557340883 -5.181555374012879
1256 0.8692083322840602 -1.147991997672012 7.1818907253545845
1398 -2.348202481365843 3.2849984940078976 1.7421731502381013
1397 -3.858703538348112 -0.6423615540770612 3.26509610958236
1255 4.607298761150771 5.279666920284922 -8.49754260714755
1260 -4.870582868321721 7.35578355084258 -0.8119663094977106
1401 8.474334606550848 0.40630445139205557 9.467450222356224
1402 3.705093035888255 4.43847585739218 2.479817498215291
1264 1.091180561835741 -7.439566004958128 14.721762290025417
1259 -1.305020436884954 4.430018003183454 1.6112137457229867
1405 -1.3176267827438108 7.0915780959984085 -4.890367837556758
1406 9.252954643050128 2.602273480666981 -2.176475442528103
1268 -7.596692844164158 3.085252259143134 6.858499504141313
1263 -10.936837832567567 -3.721677681675506 0.7105543755922816
1409 -5.0215213009062385 5.5010779224261865 -2.8939145444409538
1410 0.547546063081762 -2.9177329699519126 -2.327545551031574
1267 -10.108260689561387 2.405452044914793 -11.454825117010058
1295 4.017624598140694 -4.281666169287351 0.38362278466006017
1438 -3.3013779588895815 -1.0032564142598737 0.971367769031233
1437 -3.981091036663123 -5.366835890661558 1.7944223796735228
1417 -5.000988253819446 -9.99716397629318 -4.638979301161711
1275 -0.9760103599295824 -0.5081896287667428 -8.389128389227972
1276 0.862933781807491 1.0525093635410352 9.91321489005356
1418 3.06611381497209 -9.443334759135173 1.7604068920421574
1421 2.890517209321353 7.915366881644918 -2.0700961833909344
1280 1.2587212071710088 -5.2194837888292325 -4.126529436009454
1422 -3.1325318565180478 -3.3678368018827514 1.0511772943381739
1279 0.3242346681879404 3.819257490861453 1.3761260997639562
1425 1.0116262515936814 -1.0106363446803615 -7.70762202436821
1284 -3.9560548806468048 -4.635575115908238 -0.8859822527351041
1426 -11.017241133610575 -5.218131837391173 -1.8020691435330032
1283 0.9695495902252497 3.8774592014004403 -2.0253327119825117
1429 -9.224515594363272 -0.21460845801419567 5.447011930606037
1288 3.28348869548858 -8.948830451761394 -3.066659507523356
1433 6.315207307053523 1.4777465085670112 -7.753552379770755
1287 -10.195835063385314 2.266138226514029 0.16286261561842028
1430 1.0674407362550415 2.5882572215178246 4.77369034814156
1292 -7.27911898480297 3.3266814896573957 5.93846254588345
1291 -2.6153484536008187 8.218157285444093 7.968684317047392
1296 1.6127497826938897 5.137354445876427 4.971103311333162
1434 7.306815786124386 -1.09457199986944 -5.174104513455523
1175 5.021474155243895 3.8821776356448168 -10.057568002186114
1155 2.343037501967993 0.6720556475955745 3.8084965105609614
1297 3.8536837885373587 -6.4347720672402104 3.0972459257028255
1298 13.230734444519769 -7.113213175639758 -1.1140064022495746
1301 5.013056637147835 3.866388842431765 1.4716026450824191
1159 -4.68138832945742 5.457914343193035 -3.9149644485657795
1305 11.249481426338297 -8.17659773704773 0.19449295187771418
1163 1.1054329694438714 1.590973350223793 5.0863324516935124
1309 9.815264264391523 1.8829186970212572 0.4852186760101331
1167 -2.0404114315992183 -8.889148629570737 -6.48066788138516
1313 -4.038384162309888 -6.317316508852478 -10.727572044080802
1310 5.524051242506788 -1.4539086936074974 0.24485415832357385
1317 7.313157713188883 -6.765368985033283 -0.5942225383301352
1171 10.47607203104154 -0.9093771730255956 5.312636687240072
1314 -6.699849658594583 -5.442560949885869 3.6242278598254414
1318 -3.035114298261467 3.0589064666474055 14.455057532783748
1199 6.921950438734725 6.103770937473553 5.512432830629313
1341 -5.390243451382913 7.253431551720569 0.9735190358838557
1156 -5.38662745327922 -8.232635534681485 5.669169424947256
1321 -3.066471167744538 -0.034541632839464535 4.692898496726049
1179 -5.24044206182071 -5.189566299761344 -6.367757427999775
1302 14.306377487692865 4.217245878348588 0.14774529472491807
1160 4.849490718179146 2.3545614397051233 3.330866290845751
1325 -3.7614256404160833 -7.672189103386664 -0.6568140891819564
1183 -6.712912733521763 1.6550192455288222 -2.879825284864755
1164 4.664223798956035 3.5461338689827664 2.5763265905055936
1329 -8.925999694984942 -4.61764889963298 -1.9748451665851532
1306 3.9634257194609916 8.590278479235844 4.918761399767124
1168 -2.6143732351008007 0.7161810308087204 -2.436131803824199
1187 -0.07302212922871594 -4.442491388067078 -1.4680799775961868
1333 5.680821624196978 -6.0649424352895815 4.9301546062977
1172 11.583412668253985 8.413054080996202 7.994484937489307
1191 5.057896888415094 -2.0632065392591343 -2.6700179733976563
1337 0.5175050498140175 -1.4185561172820451 4.631890896610433
1176 -5.1146121482243965 -9.532516256538715 -2.5522722111390435
1195 7.977913837609861 -4.91975839062072 4.755034940947334
1342 -5.668484026895503 8.475418793826398 0.9261763747175508
1223 -0.6850632338915464 3.34158884721272 6.499163701410156
1200 -3.1570676898130743 5.045660086363049 -7.575897317066465
1365 -5.559042012132202 4.258176848610643 0.018374877947886215
1345 -0.200091687090207 -0.7162640780388906 -5.356393342996741
1180 7.93331228627726 6.750823376101701 -1.1180236936121426
1322 -3.5236669149063604 -7.251896490637654 2.508526820675478
1203 2.7607931870726397 -6.008426881736785 4.82850103307159
1326 -9.214895778129167 0.5734341130270946 -2.2152238203771684
1184 -3.498550731110149 2.519711598003564 -1.3849171141212586
1349 -4.0721554120820445 2.549874820987657 -2.685058567432743
1207 -15.386906795186077 -4.1311424387601665 -7.849054513828115
1188 -3.030489430436523 4.336061389747345 -7.281638869834939
1353 -9.573270057260217 -1.8018446487423423 1.3111436721689715
1192 -0.3848138697397148 -2.3489915680490894 -7.320186517059832
1330 -7.44478594076338 2.4226791132890986 2.628846797575696
1211 -4.578366835020348 2.4289814794052065 -2.0328891978372323
1357 8.006115183183416 2.2043480074877895 2.8042991295905946
1196 7.373106776752595 2.9707385342961463 -18.16409985638853
1334 -2.9768292527059947 -5.915153551343913 -1.1456792482069615
1215 15.562826566704985 -5.807978253401306 -5.237909200992
1361 0.4131804153191429 7.746507120603644 -7.421360497125993
1338 2.4128068859001903 -4.373734979887081 0.9872211818807336
1219 6.119258424695939 -1.719402245577705 -2.430104695912584
1366 0.6423480421822911 0.5456970560756087 -3.543210773802443
1247 -8.379082482174853 3.9413529018483415 5.395354580620721
1224 2.1888586739996905 0.4802533182399436 -6.011783397648164
1389 -17.81014293560706 4.127087681203273 -4.506415100927217
1204 -1.6847526573038145 -4.5827849810033054 -7.9394525760576755
1346 0.5766635622938792 1.519437994581534 5.596650647362921
1227 -0.6882932982743225 2.6528668583202384 0.06653076226391191
1350 5.647632467729297 2.882034426934972 -0.5378919191441995
1208 7.585079488461146 5.201809873926986 6.230023267535294
1373 0.25369212543697883 1.5094647785200228 -5.819364617469132
1231 -2.163211205636305 0.22203672832301322 12.371234443360493
1212 1.6613081553235072 3.4010210141998956 1.612724700432111
1377 -5.6382556234607275 4.551377582889113 0.19304941511554585
1235 -3.6327068226576293 4.8756605829083535 1.600348985304614
1354 5.3242985424327385 -2.843379809300042 1.7494518374204866
1216 -5.07876377016195 -6.030161034170274 4.675761413794071
1381 -1.0320554970599258 -0.30361532677961556 -4.125351415727239
1220 0.34511920347243585 -0.3653900194938636 -0.7685765657133279
1358 -6.241156541498568 1.3344824839652527 -1.9933329116821066
1385 3.95575932131704 4.568095420948049 -0.4408196482321226
1239 -1.6135226388770292 1.9819593298061746 -1.3178260896548302
1362 5.619972817202215 2.9564047871365684 -1.3012683873038506
1243 -0.20581103037470774 -2.9702174553482044 -4.128999805072675
1390 8.226069069974377 2.3214703532812906 -1.9568019141316488
1248 0.27895876816580933 5.1457662998380735 7.805725449812213
1369 3.8225699875764585 1.8091431826052664 -3.669623974221922
1228 1.525614999493463 9.594271552801828 11.983694753585523
1370 3.0570220531362313 -1.018017983196168 3.0372221847010703
1232 9.827726586300122 6.491497477702434 4.397821118284747
1374 2.2018438066993524 -7.5493535811380506 4.685731649286102
1236 -1.960959482360286 -3.9919591379813633 7.928203539576825
1378 -0.8994608315494903 4.02673444471016 -0.47109563709604585
1240 -4.120440114480184 1.461919846867842 -3.426456109262158
1244 -1.7880772057757652 0.956543445029052 -7.146098047798228
1382 -1.6330376701437168 -2.462824114070924 0.7419730618124789
1386 -0.680113137469785 -2.4321127551028394 7.560402214822939
1558 0.4262312926652887 4.629516812243025 -7.205464047857917
1415 -1.2621964684110505 -3.2349884748021 6.7147068334002755
1416 9.446468234709927 13.594626598949406 -5.683379601698721
1396 -3.6078483977872664 6.344249119317472 -6.227143612337377
1538 -3.6797211201286517 -1.7635837333812754 5.357151204427869
1395 5.427695685932816 -5.314338438478262 -3.221950304913407
1537 -2.972901848638142 -3.3899999586823575 -0.7602211403101224
1400 12.227179818761462 7.396311242484593 1.900978238535211
1542 0.49492977119971615 2.36103886351408 -0.48603597169142154
1541 8.386718918850503 -5.056788944924224 -3.0151575215994537
1399 0.7957207047724564 -4.295616800056604 0.8822981079563471
1404 5.483282424212726 -1.1285413732888039 2.1098947875820695
1545 1.8975489266088195 -7.95604691285908 3.904717169374201
1546 10.068235504443624 -7.858986714477635 2.39932156103637
1408 -2.8632418971193956 -0.7863308004783017 0.8115561421092609
1549 -2.412111230000178 -0.24383595822393395 -8.737247461817716
1403 -3.8224609700574317 -8.022250663908688 1.7634308188672452
1550 2.2195162051807213 3.618506065862037 5.765604416248564
1412 -7.14781607712205 2.625270436314979 -5.886500600730379
1407 0.3849522480875454 -8.657674893238063 -4.573719676206631
1553 4.058915700744309 1.5500450390349518 -7.789623092745046
1557 6.441758509982778 3.6126227007842546 10.226877805491014
1554 -3.443914459598661 3.1059049157037704 -4.286099181207757
1411 5.290578546248399 5.620369362253571 7.151423618956351
1439 -5.336400797986916 2.5736065251845677 -4.2700199668890315
1582 7.885355474721299 -7.85549248390805 -10.889386874593708
1581 -5.3863999206964825 -5.138076038429062 0.459932444411239
1440 -7.928697976354511 -1.8378262767199518 0.2390960644065917
1561 -2.387678098951973 1.995116052035502 0.5135340065477811
1419 1.4554126465755788 10.578319665240802 -5.063139494994272
1420 -0.3777672872394663 6.784808900921244 2.6033122736263525
1562 0.14830903908698156 -6.417419862448102 -8.191118926261257
1565 1.0961977491259505 -0.6707729738400642 3.793416434734075
1424 -2.499722505344793 0.12952098875185813 -1.0548721975289577
1423 -6.87108607853202 1.7441451470311935 4.10279395571187
1566 2.989674253113566 -2.982076672364852 -3.9024140764421698
1569 4.5330433170300815 0.3804226482965015 -6.19145874634778
1428 6.222063858535032 3.247498058982215 -7.030047482272391
1427 4.052566767643144 -2.8113967931958683 0.49631007801066357
1570 -0.9395753040334921 5.10047237714854 7.797340947722123
1573 7.884349128255703 2.6876543688464154 2.2472442667549544
1432 4.523672337081365 6.777722271244543 2.1191878605396663
1431 -5.996482994090498 5.128193480272201 3.6180527761487773
1577 -8.955550374905354 2.343452088929653 -0.04507808767587212
1574 -0.7770032569050324 -1.550069745008177 -3.70227560097604
1436 -11.661750935439585 -4.033446633012033 1.09566697529641
1435 -2.678979731932819 3.9054858294241477 -3.1758911813436406
1578 -1.133616990349724 2.9456072589406475 -0.6204882022106575
1319 2.3392579301462284 -3.757283323355604 -0.9736371626989739
1320 -0.671456709255202 -8.292006932696273 -2.698331651625783
1461 -3.3369880522611814 0.7899543300428729 7.560103544451608
1299 -3.0696509453897973 -3.0164222335377024 4.473864170103772
1441 2.4885544923729435 -0.40024629640848464 -2.292652528643208
1442 -1.1100029049516995 -4.810147861691028 3.752898613654733
1303 4.902888939469263 1.9080968010432142 -0.8962540397653797
1445 7.956956119397147 -0.9471674514488019 -1.8385523795368253
1304 1.3747419453678447 -7.160285660020195 6.1101308558164344
1449 8.45860313343613 -2.4950059535669413 -9.57631331847568
1308 2.8536296772583483 -3.1686904114685164 -3.4948804790598835
1307 -1.1312368147300391 4.355130789516532 0.7315368148294429
1453 10.482305392932862 3.9521496905559816 6.042696710177402
1450 -5.562224600925827 1.0459440940839748 -17.619904627810122
1311 -0.2069558927080324 -6.3023532390561545 -1.7128346255679963
1457 5.777661334197565 0.8213597643678262 -5.4642772863217655
1454 1.5174397309486678 2.275169015700512 6.64141536855268
1315 -2.078686433074603 -4.849177818003052 0.7579234533209163
1458 -6.5841971485791175 -2.8970009073642324 4.083616561818859
1462 -7.7709533339241466 -6.53500443013744 3.9595234559105417
1343 1.320482556881551 6.5273191139426245 -4.032985514808222
1485 2.307473160695255 -2.2680152527296924 -0.19711178393500292
1300 -10.326054886504496 5.129409690853756 2.3197745342982596
1465 1.7096056892949816 0.4600301201036428 6.529163062398552
1323 0.9076837924315762 -3.1518015815546994 1.3048734941603783
1446 6.733142027700739 7.517432126107836 -1.2735605363849416
1327 0.8551678906535787 -0.810219551897024 -1.6602403782173365
1469 -1.4306433048182003 -9.55987375900394 0.07998309367890694
1473 -2.1351491871673103 -3.7675042262379366 -2.2956782727618847
1331 -4.375353548985583 -9.490862238815511 -5.854518080218716
1312 3.0785246531282797 4.946563263830461 -14.116828866089339
1477 8.442381748838521 11.096515676077454 -3.7976237780545503
1316 -1.1327205318695546 10.363715848988067 2.6591234667630563
1335 5.283720173951385 -7.551314963056585 3.2524763409817763
1481 -5.568013602966525 0.5249603140720479 -9.30232348687573
1339 4.376351136782679 -5.332820887279945 -4.050442954199323
1486 5.77313417864988 1.4046851364544455 4.982900537842941
1367 -1.307862311085771 -4.319391204603451 -4.150827075892295
1466 -11.040378890461003 4.1224392001788965 -5.8492058242148035
1324 6.338626821261617 1.6281548649262334 4.021475773170233
1489 17.55492021695085 -4.3275858865576895 0.35987825157497677
1347 2.351473770275546 -10.379980876763977 -8.517827317277597
1328 -3.5456451844501387 -3.289039964946316 4.474400342299997
1351 0.5870875245385659 0.4965299260533295 7.952716909191716
1493 1.963299574464712 -3.6631471645793336 2.2024727940952524
1470 -10.101870205087549 -2.4920850804872203 -6.158063029647481
1332 -4.724406088667615 -1.1900228052795558 1.0761359248322213
1497 6.9314024468527675 -0.6524448209183914 0.14530200970730048
1474 1.6232505387872533 -4.327124704802641 3.130836217082966
1336 4.492860775652647 5.31158211539795 -6.157664170947448
1355 5.284217604592215 -1.118281062817569 2.508162773838855
1501 0.21666449448838013 -2.440297667551378 2.351998509710106
1340 1.4664866925548647 -3.3718171035490982 8.746002841502113
1478 -1.579153034014372 -3.65518323913224 2.3154419311921774
1359 0.395003450875214 -0.7265103819813848 1.6982246538711272
1505 3.972505088707778 1.6514943135331688 1.7634613170264226
1344 8.132439849597793 -6.24076470070962 -8.347723150169692
1482 -4.656437464680027 5.304891825723893 -9.05761669135058
1509 1.725540134418929 3.5198923713224057 3.1670887238755285
1363 9.557480457580986 10.728753984862065 -3.021211698030593
1510 -3.049472797709515 -3.1997133485323244 -0.7784589641458816
1368 -4.220054727577504 -9.502962415942292 -2.576345121365519
1348 -4.498795909249641 10.186578868553989 2.4071754763584337
1490 2.4880663021801737 0.3362933789169813 5.779934870602866
1513 -4.922761165362097 -8.621960571317018 1.4664684318646228
1371 5.053313293778316 -1.3358856454456887 -1.4427968594558178
1494 2.302377036764926 -0.3531008566668677 3.6826766503746624
1352 -1.5838629770561352 1.1809875671804668 5.968884749462128
1517 4.4968595290660405 -8.266438045188456 0.4219808477941484
1375 -2.5995956209339206 -9.005270289447894 2.298113852189493
1356 -3.0827898064933734 -2.89383628795881 -2.837919456694802
1521 -6.258662073528683 -3.0164014120537916 -6.0526086523017835
1498 13.218956850328656 3.0480115441356364 4.4771379035999095
1379 -8.650038142839845 1.8332786290760887 -2.00225259431094
1360 2.3423980078095816 8.84427067418106 6.783875441770082
1525 3.8857281002175483 -8.022767396309122 5.786043869970541
1502 -3.4777985391322237 3.0255623129832356 1.106877138858902
1364 -1.9749251152134795 -1.8815711955237928 -7.009850179939392
1383 0.7206624932176944 -4.377316521827429 -3.880883722237468
1529 -1.5002974475731101 -8.188641761897122 5.731454870949789
1506 -9.442180785241591 -4.090208283593445 -2.2510441585819194
1387 10.393854591347525 -5.294223310945334 2.4469916608202498
1391 -6.880386503604791 -1.368011390667554 5.143273492712717
1533 6.243422241521351 -5.5666059243876544 -2.8885150878460335
1534 -2.0378077823035072 -3.8445212171365646 -5.544237934353157
1392 7.693563326496008 5.723480623499004 -5.351826672286941
1372 1.5412487190127353 2.791561534216324 7.87773421027986
1514 0.5367251454319018 7.8799561963068525 2.313472768934418
1376 11.858912637153205 -0.8853209489999017 -10.99361262417316
1518 -6.489494895229074 9.907943220279119 -0.13480318341489642
1380 -6.436290530296999 -0.8864086377695402 -4.3177315846650135
1522 1.8237398054952438 -3.1089456111362526 -5.0718185706788725
1384 -4.241549504560762 -0.8092509200726741 -2.764062788372489
1388 -11.070035172087566 -2.9195719542246765 3.410798181405423
1526 -2.21460687909726 -0.7648995379436622 -4.65091476406059
1530 2.8137219745208375 -2.503271261076965 -0.9800655462450024
1559 -0.9747044137127204 3.6818484684241635 2.7310477118774137
1560 -2.0222614722807886 -5.266717611265824 2.271084578518295
1701 -10.385544898936967 -0.4299343785442813 -8.744562366072039
1702 -6.873001549035948 1.826468084665912 -8.116057622751923
1540 9.741124674107562 1.489182906895383 4.039300043953551
1682 -5.7460658515258345 -3.07618570825404 12.365176038967103
1539 7.850666751591648 4.121977902981128 8.241096831776355
1681 1.0643959688281877 5.390582823692153 -2.7318615078547657
1544 -1.0839006242500788 1.3823452618312235 6.396204199340699
1686 -0.5180377532398485 2.384859311171996 2.493269018307562
1685 -2.1550719060467287 -0.12721033872713072 -4.037800677529656
1543 -7.516218772767677 -5.6996547350082345 1.5800013297464515
1548 6.854751124641552 -2.6185726383131445 0.06290360940621928
1689 1.1490030666246096 4.154092454047847 2.7571408046076957
1690 -4.76202966335138 2.3829247514095973 -3.4897513944086724
1552 -9.207448299567984 0.2054113889026418 6.576017920851889
1556 1.772053723895081 -8.584133055836944 -9.49179952974188
1694 5.229105381202571 4.650463547706105 9.722883857671402
1697 5.284031630396596 -3.7054944787471387 -7.931595664066061
1551 -7.942499108390499 2.609774050165002 -0.3912823184547763
1698 -5.400121715727535 -9.628487991676836 2.25186845162286
1555 0.33896720727388896 -1.7799800753310944 -1.587077038174804
1583 2.1423630649141714 3.6190094169173075 -8.90762476937556
1726 9.448097852050136 -3.661064457130517 8.581934498386012
1705 11.157283192656564 -3.9896439971497633 0.46214375063167157
1564 -9.095973373869253 2.213157755683647 5.415946801168905
1563 -10.595598845399856 1.3323304168926988 5.890147757465402
1706 -3.159908174189467 2.415432125017329 7.136264290522907
1567 3.5558425226592925 0.7482343504729868 1.803764494078646
1568 -4.721407111151565 2.714962712431248 -3.3497993462483153
1710 3.870525865800917 -6.696829512258217 0.8144666589907367
1709 -4.047444109762415 -5.748353439238972 -2.2951825509385997
1713 7.775957634762127 2.5007545013362322 -1.6370381796277724
1572 3.343616023834164 -0.9683746764347753 1.886642201934039
1714 -1.691315386293491 4.598828770696661 -9.347880144703288
1571 4.091399837546454 -4.057172434337181 -12.268055272620952
1717 -8.995487575459238 4.48279815330088 1.4951560911210997
1576 -4.5153186955896665 -4.314661222032992 3.997874177905494
1575 2.95042976988051 -5.292681651483095 -11.7690121927886
1721 -3.8080161607047915 -6.161577411253192 4.461237298131559
1580 -0.9643219761859102 5.072975510772034 -3.475047924998251
1718 -8.305194230577042 5.608137193701965 8.855769783373542
1584 3.143213726724216 -2.46711383787867 -3.126371639207368
1725 0.5227797648670516 -7.542763785641376 7.054918207246585
1579 4.790850706240848 3.9687624744629715 0.6802470115396163
1722 3.5885913274755143 2.2257879152156215 -3.229060807392801
1463 6.2667682444149415 -1.9187254805410003 2.104619737260715
1606 -5.645256726953241 -3.210879465661666 7.5747008049032845
1464 0.08404123395100278 6.976470996364924 8.670918257963544
1443 -3.4593118685433093 0.5865471298798042 11.683637837543815
1585 3.424027148662139 1.8787865210808439 1.8620508635849058
1444 1.2549361964499173 0.5777881765249531 -4.152216297464315
1448 -0.48576207762083035 1.6937496174110465 -5.331401854139931
1589 4.220110925288879 0.6737017115728675 11.21368947782096
1447 0.035643534579256994 2.2408111302371987 5.346072361086133
1593 4.058465371987023 -3.297858283468231 0.344859098392734
1451 0.6379250489145964 4.818211548140855 4.237692461909502
1597 15.50924256304378 -3.9052702068749134 4.293148575187201
1455 -2.289789110284145 1.3475257756183554 8.276718722200917
1601 -4.051289725812465 8.529509044096782 2.387711233476914
1459 -0.46044006051449954 -7.652843913776019 -4.126265940509399
1605 -6.986227276748375 0.4293884224818869 3.172127386855638
1487 -3.435465487719663 1.6113370554986541 3.542625869121989
1629 -0.4171788684503993 3.2167911681607677 9.405515506394226
1586 0.4809746525701609 -6.541691793342241 4.558095363246373
1467 -4.834496723741031 -6.886629665982625 -3.7939960031870132
1609 2.6007923696229 -6.006993713685675 -6.504462081477617
1471 -4.938368250678641 7.208036937823723 3.960596280226803
1613 -2.8821413651309142 3.587114942768486 2.0308708656982186
1590 1.2963795849008586 3.7388014158008565 -4.934893709373953
1452 -5.640386174341777 5.566841968436035 -12.959069216822055
1617 -4.1539721562360485 -2.770728568412375 -0.4050896350177243
1456 6.014566869441283 -1.2579043675313544 9.128037572009859
1594 0.48756301090598936 -4.208862960058778 7.345380751394106
1475 0.605268993852927 -8.063789675254542 4.603522360496557
1621 -7.906578940734556 10.398529658493153 0.6075431612184374
1598 -8.427451800694158 1.570270690311453 1.2826765190642502
1460 -2.9687829777040426 -2.0099189588584845 5.411685407964745
1479 -4.322701409629915 -1.9054231011754046 -6.715160128360136
1625 1.7867029014636833 0.9903997226946584 8.962305901342976
1602 2.3670113106855366 3.651434051564725 7.753200889602718
1483 -2.987827371666714 8.881857340237499 -8.287338414219764
1511 -3.1388801572393166 4.734764643694625 -5.570612340465637
1653 1.2583382881726823 1.6551588164599313 -15.193508272903422
1488 0.43418186058831776 -8.232594926939024 -2.984505159141024
1630 3.2657902243924406 6.504689195748801 6.462474076345211
1468 -0.7080368715781667 -0.46940481976482 2.285836909476276
1610 -1.0960377616779342 -8.834463809047953 2.2686952749400553
1491 -0.5612111686610277 8.16819576300549 6.72134500078639
1633 -4.0340807113785075 1.13736995529436 4.631662771809985
1472 -5.39939515518749 1.6509021730731872 6.5743769843951
1637 2.8838889063708497 -8.252724204715255 4.95394540384907
1614 6.207914668074729 6.177705519028441 -6.494265011440093
1495 1.1944668881435927 2.450580896859858 -4.272852761148645
1476 7.001893694621475 -6.216857341025499 -0.8431999607974238
1641 5.391126947546821 0.560678301595572 1.6989571789268654
1499 -5.784130049112247 -5.946704829297813 0.8360979748417258
1618 1.0402703858584001 -3.6556989441670313 8.706388498600493
1480 -5.556688569378196 6.963585204113502 -2.488253097003766
1645 -4.689600400631512 1.1844324985620722 -0.503136803371264
1622 -3.1556091468740686 -1.736570530918083 -2.5505883727199956
1484 6.055921700828815 4.209734236068322 1.2708033768964964
1503 3.0527039546806956 -2.2044054342348107 -2.435370467406993
1649 4.30731441462694 1.9987678191441363 4.255319374525005
1507 3.4389443383142617 -5.954556977679154 0.2602003947167447
1626 5.2755356884004225 2.01664145817129 1.8688546491254638
1535 -4.207276090611028 -8.976680592748805 8.471787609174898
1654 13.281324344181154 -6.100049091919817 -2.6139755489438508
1677 -1.936639913715574 8.386313051716158 -1.7444213807688664
1512 -1.5633534281991726 2.8225682913648993 -0.23108859701371381
1492 -0.685238342357435 -9.803977006419172 -0.16613650747329706
1515 0.6080372730670474 9.795061511968905 -8.722050540381971
1634 1.4059049893847866 -2.4897305003308423 0.5466497447105638
1496 -2.627202208587564 -4.743478906397934 1.0173871924150237
1519 7.87209327046768 0.9489717612751406 -2.6385930763272802
1661 2.8401552896893247 2.896726211360513 -5.5639971379512065
1638 -0.3232045516424936 -1.9885661174810552 6.368344997176163
1500 -1.4509003504397857 4.47482230068029 3.045765525004527
1665 -3.787938876703184 -0.8087831337376272 -1.9224798743130544
1642 5.1679918382858 1.6162018999686896 -12.241500709338855
1523 3.0462214775507857 5.395293232613608 -7.430856305671509
1504 -2.294491045679748 -9.61405054364973 1.7227587422185873
1669 -3.830752764006745 7.111528016378684 4.959097862865008
1508 -6.780629701393724 -2.1318642876736567 -2.9497097043397296
1527 -6.281905433922996 -3.1906934803910105 -4.67350623242167
1646 -8.547380061754502 -2.1172966850846935 5.554662590375637
1673 -7.770421250013386 -7.0102849728597105 -5.603600803478923
1531 -1.3373213194985318 1.8710013158655068 -0.2939441610639487
1650 8.456673227689304 0.09175793054703209 2.3315881652495576
1678 -4.073451887496394 -0.8796667425280887 5.0630497939503565
1536 11.308584206678058 -0.17414253157378393 -0.5887939058473316
1657 -0.5661046115676325 -1.9523948506991777 -6.3859331336205685
1516 -3.202754158558809 4.183120063337611 3.782835407993047
1658 -3.4064061347282744 -2.2398034183887443 4.4716078972084246
1520 2.261701982232934 0.912179713587984 -5.002038852673466
1662 -6.3713521092898375 16.869983237716557 -3.1285685488020847
1524 2.4832339539166353 6.013443236986672 8.267512864315824
1547 -2.67167609629977 -3.6653735239571015 5.776568923253557
1693 -8.91280336041685 -5.9044980661065365 -0.39577547893469955
1666 3.44210053917082 -5.1491765171684944 -1.688653775594536
1528 -3.08348276633655 -0.5450455110777712 2.774039414888422
1532 9.761429985921623 -4.188434825538274 6.918759207016102
1670 -5.163985849475675 9.106594213809554 -4.152992145416865
1674 1.9215262399861326 -10.089778832334266 -2.4582362118594814
1704 5.941669539177191 -5.50618666534959 6.411303443939309
1703 2.95419677667015 -2.1879469380002776 -6.441960916618955
1846 -2.0728460754013853 -2.608823768987334 3.9498332894760195
1845 10.430073974896754 6.827160480464568 -2.309930498298571
1684 0.07271790537067477 -0.3867277989041147 -2.272230545683682
1683 8.191971739874512 2.828631466247835 -0.040372849919176994
1972 0.6808726887765042 -4.821256875974164 -3.8025993807161798
1688 5.403348495743017 1.0649494706469549 -0.5598711723949574
1830 2.786015764549052 8.998304747797382 1.2827803422771855
1827 5.616493499875318 5.096711655024772 3.7689770458634384
1687 3.0204441034645457 0.5364329280356447 -3.061957514342796
1692 -0.0023317028971976328 -0.6884090431929591 6.10792909523563
1833 3.1277037062046404 0.6139849953931763 8.485777942977085
1696 4.08535566415971 3.103799351094602 -4.00853511721487
1691 0.7273363556725679 -12.959760116428592 3.1730195223285977
1834 9.490543082105606 1.8957820278229658 -9.098507521844665
1837 -1.8924319873948814 -6.051593019624316 -6.267783298083329
1700 -1.757943891934309 1.5807113191016027 -0.12444654354217742
1695 5.912700221979741 4.132121030251581 3.5000337841732234
1838 10.26847938570119 -1.100722897465214 2.730589008833442
1699 9.624710840910687 2.972203467473209 5.008027255163891
1987 3.6326169405910207 -8.218877204228175 -0.6181253622527407
1727 -1.0057638497582253 6.068153402895853 0.8171777996433928
1707 1.8455155360596218 5.543650395245689 10.077190670191424
1708 4.704454463399466 5.7892314937128235 -7.95454449287871
1712 1.5342242322811783 -1.8307692429766167 -6.551597277548225
1853 9.112415812778707 -2.332841707580135 -5.660285701803557
1711 -9.227238028192767 -0.32985848226029785 -8.54337565225401
1716 15.459153733674883 0.13846160900158963 0.5963493672100717
1715 -4.322128975357063 -2.374835332741746 -0.5132810485499029
1720 2.7055644154310987 0.7177304331499035 -4.0833131317355615
1741 1.228365821077811 3.525317568015546 2.742825737620046
1861 -1.5966436588365176 -1.7469680237508634 6.892694599348345
1719 2.898836752606667 -2.3511807995720755 8.525614592274747
1724 -5.565175258878368 -9.627297672643715 1.9295048849553773
1862 -4.065102554204536 2.8639044015389876 7.911488906402275
1728 -4.9956325365534395 1.9682998404228498 -5.905959059059246
1723 0.38742082478154133 -1.0298145447805156 0.0019874591905670977
1866 -2.0138521561999534 -1.6369119543413473 9.157051366052
1607 -1.3105264995541395 -5.92345425061381 4.516748006399146
1749 0.7178079359933064 -1.2461267463332308 -6.863214962396779
1587 -10.978478756798985 -8.173258964095568 0.75595704905626
1852 -2.638283847083676 2.8069924739282173 -9.827698695848227
1588 -4.3587079600865435 -5.906167379772633 0.536468893933953
1591 -2.5882792407534874 0.5157248387192154 1.154249363865986
1734 -2.631800792312691 -0.03317018949118617 -6.9226125594058985
1739 -4.906911379812222 8.930920848320243 2.3504711250405785
1737 8.2145236300858 -8.569662672949807 -4.071888723625403
1595 1.7628467431872017 -2.465850839200867 3.9278499590659024
1599 -5.560485904033398 2.3182280126566988 5.307565784218927
1604 -0.024782709258049825 -0.3303801254904531 3.9521958803596364
1745 -4.570905884412724 11.550782138892348 12.963041728235117
1603 -1.948453847441442 -7.587763096480402 4.775412042089261
1608 0.8735392702133268 -0.09643016988325724 -3.673931184063957
1631 -7.105225690907475 14.964445885688798 -1.0575835577530819
1773 -5.524728463742248 -12.109274472883909 6.462985381342864
1611 -5.606233374469431 0.815289514313992 3.7845479105923663
1731 1.5464677745118691 5.13029379995229 -8.255014137205926
1592 -3.991772148136198 -7.050144535066136 -8.090629017400904
1615 -0.10599623319793856 -1.0029663950824494 -6.421754216332782
1757 -4.654127967654511 13.13296348085308 5.576668277374898
1596 0.4410687626508908 3.875063127355624 2.2755460355392163
1761 -1.6309630387439613 4.911076069368562 5.107758758964661
1600 1.143089037184998 4.518220261588259 -4.888065033638335
1619 -6.191592617231301 -11.240440590803964 1.0763488209461338
1766 1.8874899393638056 -3.8507139639526065 -2.804841764568348
1623 6.77272917395016 7.539154544039564 9.506044057192486
1627 9.241334268833008 -5.863902854918883 -5.389352131081453
1655 6.939047915202536 -0.9119459673782618 -4.47283818227871
1774 0.14564903280915117 2.920576695021273 -0.15189973621800099
1797 -6.070862557554365 -4.028661063864203 -8.59260596234842
1612 -1.8198189273340095 5.960408220047012 3.7474397029506075
1635 7.745916269620951 2.4472226262572288 -0.4799986662522268
1754 -9.076370719057033 0.21725122666470523 -10.28428585504642
1616 3.581013750708706 8.367727771774655 2.8074872120667886
1781 0.7888258029384864 5.650525600668146 2.038505589377843
1639 -10.637820698518084 -0.6318504255706676 1.6210977918960459
1758 -3.6602834614972055 -2.1498732557454816 1.7942379720834847
1620 9.551638377290281 1.4231150080015966 8.429062554832967
1787 3.662789416883553 -0.8291153859631893 9.119801610968542
1624 -0.7350108494917551 0.45363534990572874 -0.08450185496040763
1643 -1.635338281169705 1.5223645396880823 -0.2340989856032458
1628 1.4303962537556083 1.3283175879508962 8.463306870012826
1647 -2.0082331590103295 -3.795280981548927 -8.000394842497002
1772 3.7039059166088943 8.099346306756406 2.6750193189964455
1632 1.4539134656869808 -4.270137138144953 -5.276471179269291
1651 -4.794140641542671 -5.948135590454513 -8.223133837723758
1770 -10.708514562319861 7.99372862821852 4.693449595017706
1679 7.568993233783932 1.0680934047612969 -0.2730687541374175
1656 11.384567943953584 -8.157948603768991 -0.9867645171918383
1798 8.88152659959868 -2.4650329402732627 0.5320302682910192
1636 -2.0739780798686223 2.5170282182890418 7.940689141721172
1782 9.55045761785739 2.048075235419539 -1.856879058582412
1659 -0.004498435088078682 -0.2320632719240598 0.8636898047936703
1640 -6.076921882167515 -2.566780407312072 0.8868105241917217
1663 -8.896429855517827 3.136197289550663 4.580025273287104
1644 2.3456372617473376 10.609235757253595 5.055577923486758
1667 -3.0389363433628724 -4.260359217777936 3.276427166594751
1648 -7.096298700296484 -5.264061204482368 5.34764911424042
1813 -4.520884182524784 0.31863901432679803 2.6986460829540575
1786 -0.6615806582079728 7.139807616455 -2.530814543475586
1652 -7.084827710437941 -2.1066216244139127 9.608055662776083
1671 3.4656445593558387 5.179748806117348 -0.7657555271533857
1959 4.680579118911034 -8.997829984990265 -5.666940749274158
1675 2.9249635103882086 3.410945063348112 4.497810582870514
1794 7.663485096051264 2.7148055144018874 5.156502230272232
1680 -0.766783994680748 8.254154074352218 7.101520842960462
1660 4.015527184670362 2.2456754800396768 3.0215093643586166
1801 6.29476678191484 -4.189533518966718 -6.374948206745553
1664 1.6757528809799183 -1.1474909655305217 -1.9153215957392953
1806 -4.348666450848117 9.014895954192534 0.4345262894885152
1668 7.971464113765321 6.15643514214092 -9.693757999437892
1672 1.927432614678758 -4.0067617596949 -1.708819763152214
1810 -2.6380541218161633 1.8631246543288331 -9.510531049163419
1676 -0.3119339258507134 10.39423964163989 -1.0023620769780037
1814 -5.679359172927092 -1.4989632024105477 -3.5182728956391705
1818 -4.121008609183177 -2.858233776423261 0.8071416657367322
1961 -5.259394206841044 -5.749035896248244 -1.8818274246823141
1825 -1.7043774256376336 -3.656393199786365 5.606282846682343
2000 -7.2956144229692805 7.236100947653183 1.3513309070960418
1779 -0.4449575626177969 1.7553220277975745 2.198465454502878
1826 -2.772298701842668 -1.6653573837101605 3.966955175663826
1981 7.15738841327544 9.268264947946657 1.535112227963486
1859 9.266509424909659 -0.2878568806400516 -9.074747476281111
2003 0.7212138463421925 -11.525217971136392 6.115933205430912
1976 1.0976104641857716 6.3002150776495025 7.359248752703363
1842 2.1462116637225055 4.662380452877192 -4.463328315188915
1988 0.8706215223424945 -0.47722776353651664 -4.755946518985288
1844 -3.5384477067538294 -7.246832540590405 4.098743983651446
1986 -2.618905933862767 2.6761706790847053 -5.68708050184931
2016 3.572087881274166 0.6931126969322163 -6.538239163709765
1849 -1.6272997275927483 -2.6198135374735956 -2.372584537490981
1752 3.3467891628524447 -6.472300629494375 -1.693745422279172
1850 0.8087915647532694 6.242774485133114 2.3247263000584284
1828 5.355417318570082 -5.5413356718225595 -3.839588601160664
1802 -5.613119548528626 1.7981310225616467 -5.13833423251632
1848 0.28841604681905025 -3.383173026582296 -5.956399238460186
1854 2.439735534915855 -5.950197027495429 -2.0773365646468793
1860 2.001477073406698 1.0845531537428028 0.2419938998337215
1856 -11.219760922617992 6.57219976112651 -3.0473441324980364
1857 3.6358861325762657 -3.1170683020216288 -4.171633680669829
1858 4.550133503455639 -5.895139623849227 -4.235916947830485
1816 -0.8354719395118354 -0.2987938142498561 2.360132059022585
2126 4.35665148745963 2.1925965522759077 -3.5304824044932097
1865 -1.460905356560019 2.5568223207194714 -1.2102682222196828
1863 5.843761195760714 0.26156032046770755 9.263663560826972
1872 -0.5595847120117484 -12.558262625977697 3.4168241976671956
1869 3.8004484875627633 -1.6065126360178357 -8.567802657420977
2271 -13.156829068035288 4.690261389896783 -8.619886186967664
2137 2.359751541363727 -10.596698129296819 5.290529181564088
1870 -2.8662930880121724 -4.381757264214216 3.548162329350683
1994 -3.3088309950145134 3.166047541321375 4.321414608169222
1730 -1.6480739945299925 1.4015621410095365 3.178425154797971
1905 -1.0055959901952995 5.135130339363169 -0.25153885396801107
1738 -4.589777619604944 3.6940574440057707 -3.891456808672564
1762 -4.099592767133987 4.816938306266493 4.368957713954532
1742 4.766597677367846 -2.22342445977381 0.4427036482493895
1892 16.334470369381567 10.038643336696495 3.6460778003783547
1729 2.4909623273709003 0.676855924685077 -0.28304176454009516
1820 1.203586672180001 -2.549287779936812 -6.187176832969739
1871 7.264721174539254 -2.3689653771319303 -3.025346570378105
2065 -0.009368636768256184 -4.299750620616808 -1.628893757652871
1751 -4.878025147491177 1.6131831598261812 5.434459996760299
1756 2.5941366724190473 7.34321579594674 -1.5486867844287149
1882 4.297272034765152 -0.4534496861900082 4.978478716307448
1765 -4.632277762497229 -2.6606679986261828 1.2251234493144665
1886 3.492794754855769 0.006038140715011401 -2.9518906990489095
1823 -8.565795810654683 1.8624086643889846 -1.4000451031408292
1927 6.8508267554381295 8.910139095401068 -2.593978544784317
2063 -3.1131138800733082 -5.658786980512738 3.0493999318138347
1769 -3.115054343109528 -2.180582649412429 -11.506227517219605
2054 -1.6518249558348357 0.5163939246877866 -0.31774826156696295
1746 9.912860085501565 -0.7848526934871243 -6.370003224512927
1920 -3.635814366922776 12.219956594613997 3.3266484615627636
1791 0.42448184378737475 -8.270362243616388 0.5033962667268334
2094 -8.218671198845106 -2.9560395173824983 -2.3692245662910363
1799 2.948480835964701 1.2320542110577664 0.5727248977936975
1777 4.900210896151417 2.868058176276585 -4.830364325679786
2230 2.0438727736650155 3.265207275086137 -3.3114731419970034
1949 -6.725145129620214 6.65571259844954 -0.9535785281887557
1811 -10.221104938705677 -5.579086887027 -1.7896189380068095
1945 -4.430622099793626 11.031434729562186 3.4991778333676593
1755 -6.30599203901465 -2.6145173271393354 9.341302888925442
1763 12.841705782550042 -1.0620390208263337 8.736579222748842
1783 0.13178867351817913 1.241276053019526 -0.26570035559960925
1913 2.2957851820486095 4.10585432306948 0.798527829417093
2078 3.81167929836708 2.024842013181066 10.109885484871675
1796 9.107844179844273 -0.31517842501577503 5.616082953747874
1789 -1.387160197391195 -8.519197212158659 -3.025199306715422
1793 -6.895480099877433 6.572728745451896 -4.434433395287316
1841 2.328242265245419 -0.9681251861166831 4.464792130699555
1939 -11.063372363973814 6.510411278544917 -0.12483138297408715
1821 -1.9294167823036932 -1.5960188859722995 1.4033677617510323
1829 -4.06199976987392 -2.0235499388285665 -4.968347893407126
1943 -7.401609584598289 -1.3841905070476075 -3.0445416905120637
1904 -2.985813842308263 7.128414285752452 -2.8397262051087053
1808 2.311121647039903 3.3240502208965474 3.8650149736314954
1807 -8.517264935601705 5.168106228382899 0.8097798215516173
1803 2.024514657211283 -5.784815682561989 -1.0996095373216141
1809 -0.563416102542839 2.2888293972075724 -0.18129857218295087
1835 3.593683795531126 -2.8735891669469478 8.636287893027315
1785 3.5214921353648916 15.384188660535573 3.0119991949689258
2099 10.084352063913071 -2.527350150704434 -9.780089123791145
1817 4.907713531950584 1.9965841962040929 0.7592785560682247
1795 -0.5113266680377913 9.266159541919626 -0.7068306395822814
1792 1.8085561978917664 -1.8921739147094196 -2.270591961132719
1819 7.209457248315426 -5.358849379257792 -2.666706567964684
1822 -6.631951152059772 -4.435617242061232 8.088776806498794
1992 2.9747109670620833 -0.3589006906941362 4.838563869661082
1970 -8.446549221702352 -0.7687933294722451 9.906094981896787
1989 -1.604204937167933 0.09645377530079297 -7.09103009143567
1778 2.7306610880650606 6.872013466234264 -1.0846240054294822
1969 0.09127433996104926 1.7280955963885756 1.6451395493000118
2101 2.117687093043539 -6.689282495814319 6.558002528194583
1957 3.765141644600744 5.749977334897886 -6.862693598153655
1910 11.519801435155268 1.6146961468415075 -1.2007642203777718
1995 3.6193498218007853 -9.715184192439656 2.4349672911719837
2345 3.335789545066071 -4.488942636999979 3.4205018797953355
1931 1.077171014417504 1.5701383172897099 5.005016036828734
1935 6.015558793634182 5.253994283090289 5.01279141338619
2013 7.633734935852334 0.5855441391472033 -11.627748366613345
1867 6.477901635724181 2.671271338306211 -5.310293436284565
1873 -2.145102614824588 4.5030816462035865 4.285435464135868
1735 8.00852607262181 -11.134857937214532 -4.0870662169737555
1832 7.7577170165365805 -0.4538943532220477 6.393771750235776
1980 -9.681652752210576 -4.363209840483763 9.001805666531773
1881 -6.14259443656718 3.458697180678113 6.574588367263773
1977 2.7033050091177033 7.708617338220012 -1.9295046342947173
1955 -0.7795986530958007 -6.364624076150829 7.6880859485901665
2071 0.4993862369517525 -0.3497755823270648 4.961221821832665
1991 -3.999689026404181 -8.010252615623788 7.37273427707641
2110 -5.071500030751274 6.2542071641351376 -1.7167533566844262
2289 11.144175262613087 -1.788104440897066 10.240427043774796
1839 6.003705134447611 1.0453485432531717 -4.362447663695683
1958 -7.126250935154888 4.271153644582983 1.7587952271798837
2053 7.127199726008887 -2.779116627280577 -6.445761186583636
2114 1.97123197353086 -0.9280234845846581 0.9271859606350209
1960 5.326175283581785 -10.000986985845003 4.2201993270770455
1879 -1.967990238632096 -5.803366588944446 5.7961899568506094
1896 -1.363601610061556 3.1990457619775654 9.827254293132862
2100 2.28042751594402 1.5730181583065967 5.538602441732082
2164 8.191548879766037 -0.01816539572514203 -2.5641490566338723
2001 5.297448150552372 7.225707231263186 7.343788936040804
2150 -5.883381085159034 0.0549300638039197 -3.2188222431554623
1900 3.2286677739311394 -0.13867422855873612 6.347795008164978
1790 12.499931883851508 -7.1819659661038955 9.522276817987684
2109 -13.662568107798643 0.12561198894801384 2.0175996701233765
2021 0.015030584645629797 5.263397105347711 -4.593579140209959
2120 -4.233151839006193 -0.16540110757353638 -2.190921645246133
2005 0.5218852740086999 -4.4679130236941464 1.349065814749134
1851 -0.949410888202872 4.220713746917322 -5.059325976575292
1923 3.3586158470247134 -2.1105568160770027 4.882321550924431
1975 -2.9167363887806816 1.1276246419988607 5.245405782450423
2143 -2.686195194596664 -2.665536658476278 -1.8551191994400686
1740 8.331661841175178 0.15045055729539297 -7.4978783926909625
2348 -0.5484737245876286 0.530732512621802 6.047946653641964
2006 -2.522088611175556 -1.0861863463154464 -7.668531380212097
1887 4.029998123179152 2.8779711063415085 3.2347840358104456
2151 2.5137065279119954 9.284528181173453 -0.4053262116803898
1978 -5.140841878898955 5.697933382263266 3.8308605979025807
1748 0.18973059782256813 -1.876471169903857 1.6422781035533622
1990 1.0100078349593489 0.22334463101911178 -1.1604316527564085
1890 1.6142073910192343 0.21553214181174557 -1.4156000545614793
1847 4.031644523514438 1.408792345046725 -13.14761854621693
1903 -7.4540029935859655 1.5521304117242902 6.908075051810981
1993 3.810048046258891 10.602948458830506 9.801969191937376
1733 5.086497191503612 -3.9890293868137183 10.43495345470557
1836 -1.758239624964409 9.92366646881345 -10.047412855798543
2073 3.058588360552109 -2.350512296510554 1.1616857472123294
1864 -0.14596867314560485 -0.6178069620240016 -2.4841820814348488
2047 6.833952279763808 3.025246602231583 -5.078025965844605
1747 1.1053499296950264 -1.6336226940885448 1.8317818513234345
1771 -7.070630679204581 -9.58894626059742 5.462913225153312
1767 0.37370610980809055 8.168462817531307 2.145127411010495
1937 1.4515138919233042 -3.462556977208608 11.823798051940216
1891 -5.971222764416494 -1.4336611568774653 -10.476410633997771
1944 -1.6490183239991338 -5.5053575878751175 3.7741881327895963
1973 9.429096873141942 -4.836931370987 -1.7799783813761383
1893 -2.6994452323186056 -3.941010332390012 11.717058354078258
1901 -3.508847773665646 8.165790226092952 0.8277907232422788
1921 3.7721607881250994 -4.7199629572891215 0.45279731095138165
1788 -0.2251150450298885 2.5818334624366663 -7.165112963546761
1877 2.465386585033835 0.9194687197279849 3.080651281739828
1899 4.687124845912807 -1.3741887872365826 -5.182896585665177
2495 -7.504340734979191 -9.891456887365766 -3.7025111314413395
2061 -2.36965587209921 3.281618477481875 7.472282821110203
1926 3.451140621968298 -4.694630033750109 -4.538962148274033
1883 1.8374619929076548 1.4631377385852873 2.4089310955354604
1912 -6.4301551429486645 -6.755585430127033 -0.13800725943643272
1743 7.26855691171967 -1.773898496120008 3.3928508818297014
2930 -4.769692370562518 10.147224636369506 -2.861231836808153
2085 1.7186685944623414 -8.253323213499886 -8.828413798598545
1917 1.519894384902664 2.238649298873354 3.2707272450156326
2086 5.118569055939035 13.12798094583068 4.167955886000843
2011 2.9846933294887177 -4.493068482425126 -8.351457739698077
2030 -1.037811197571338 8.134879075350995 -2.0558236054255468
1942 -2.73552796478873 3.5206497135539587 -7.171220493118291
1968 -0.17509105043685602 1.906045388686598 -4.295740243006305
1914 11.967829038771413 -0.5218809501068427 -4.514697291494422
2018 -0.7328287994867844 8.978189128565637 -10.581944536990298
2107 0.7789454626342818 2.168564711195652 3.227338004889606
1805 -2.9804910210270834 -3.4903995060022406 5.888854606436903
1878 5.032701202911246 6.605197283810516 3.585795578090611
2044 -2.526265060372304 6.796357440551339 2.516262638338531
1951 4.825500992723004 6.487123377050749 -2.0575383607904816
1938 6.335987970687095 -10.038672570540646 -1.057089638470937
1971 3.9754835546947063 -0.9556976024985435 4.066556060867418
1736 -1.3718402227730981 -5.414877017090618 3.7518089863465
1930 -1.4114258462166172 7.059130970590529 -1.425661631557193
1982 -0.9499325402327622 -9.800239157583315 -1.4498230106080536
2237 -2.8416620584816554 -0.11984960907952591 1.123997217916766
1950 2.8517046265523223 -0.11187673636295209 2.1009850962882948
2077 10.217856272399596 12.810686249777033 4.774091346778207
1940 3.4949660415225803 0.14839616650719598 4.868591541162039
2008 1.2767718860822652 1.9208063976793632 7.196538547327437
2057 7.227576341555599 8.187081135195795 -8.46035342438213
2279 7.445589086642971 2.515058320533434 13.055572298488478
1776 0.826434204858533 4.147974249608369 -3.7769091474506675
1967 3.2693948341097174 4.7014969434933205 0.6131943593752289
1800 -11.172833588122671 10.423975016944931 0.9693215533363264
2713 -0.46179506695569233 -1.455367674882429 -0.465867118468617
1919 9.363905610813122 3.660608444772232 8.450503856618814
1897 2.668730263550374 3.584353059761867 -5.45765244515777
1966 -3.7138827004725625 3.1508242186930087 -5.795065736752394
1760 -0.7354392335528636 9.725872207878728 2.3421577980607435
2252 1.67721038667224 7.945221386230922 -2.596969426098081
1936 0.3142001840698106 -4.628457245275458 -10.506681938588295
1906 6.203623405035254 3.4027568471544822 -0.23268498426318182
1768 -6.47862614786679 -13.580946357984137 -11.661516265764282
1918 3.349358404105642 4.100479091808048 0.8868865226333643
1983 -3.5788972140151585 -1.4901013770810967 -2.9004714101396067
1962 -1.7893377868335607 -1.521911909962469 3.347732699648173
2111 5.825750385123217 4.12239517059679 -1.138186066459541
1780 1.4823658660477836 -4.0981812786323895 -5.101738356332379
2245 4.791737778262777 0.7970890189866187 -0.6910281909871204
1965 0.09052867003098143 -5.542080874705529 1.8424876714668816
1964 -4.210978213511027 -3.0551268317389297 -1.227200527932713
2125 -1.2350023799367922 -0.5128080501638371 5.532626238804162
1831 -2.005801787771679 7.053650794897957 -4.4184355551465675
2091 0.568940076492741 2.3618618168758974 -14.593903908501378
1952 -5.262177824622774 -8.147844525987388 -11.626462898416603
2121 0.753588678102637 3.6914560830266043 -1.934203187876985
1925 -0.5229928172723393 -2.5016803979351048 -3.1775232282492
2298 -0.8587277063238368 -0.5281023404554356 -0.24847793323515777
1979 2.481709140393324 5.511155453001988 -3.7373410323993492
2806 -6.884441310026807 -4.278241812367859 11.015992997587063
2889 4.049273995772259 7.6742552796707555 0.7690265904112874
2343 1.3162344196121891 2.0646704705683843 1.7274781279305402
2156 -5.0932744023905405 -0.8278188510201451 2.601746626799515
2024 10.614790708217706 0.4138815041333652 2.454514995490616
2297 -4.064642510423109 -1.7825587336530555 -2.1153862081050514
1775 -4.155154106975603 -3.5276719737345186 -0.5592867855166697
2278 6.735082228292682 0.6145638488928444 11.69182376053229
2083 -4.749844870071854 -7.591579891413076 -2.3203356355340947
2113 -1.5637452111681747 -0.3840990282246634 -0.6404084575227961
2355 5.768216428676547 -1.04615333968847 1.5686299146071006
1924 -0.7753897941842597 1.8618648395652724 -6.166973734020303
2258 9.179083238092796 4.247555260096131 5.560556874210758
2117 -7.226846443866252 1.2752655655635756 -4.326809856046903
2122 -2.794005294172996 3.887319360297389 5.978518072832101
2262 0.01312817415229327 4.3031621900032 6.903304324191458
1812 4.5245573559566505 12.255866731630723 4.863171204995913
2136 -1.933132164653875 -7.288868878626551 -3.8389543502036747
2103 -3.703955512621036 -4.327441126648266 4.630306187901658
2058 -2.423801016815198 5.177597383124986 -0.6285701860710007
2225 1.9313677442546298 6.7161956329578985 -2.720651263909181
2223 -1.086680970094624 3.1589246640104007 4.927138395699471
2275 7.499101838811658 -6.6154305390190995 -6.777538060971102
2222 -0.7006446467836832 -8.955333116337737 -1.6869492254235976
2177 7.820478512591542 -7.024655828253488 3.133926226554926
2160 5.1215627762571865 -1.8434561676891252 5.551519569065128
2102 3.178574085674629 -1.289832480037412 -2.8931391162327764
2189 0.4583680910272664 -2.538992694082509 -0.132305470166109
1915 -4.945194933788531 0.3908084920965481 4.008256222185963
1804 9.534036355410668 -6.492976201580315 0.3167876882755132
1954 2.0497707735244246 3.0790994789510973 2.318066819802412
1998 -4.837528043129797 -2.7910202227263667 -1.3392179760118341
1956 -0.3103339607126012 1.1870789735861793 3.8189905544804703
1884 8.607219960292237 -7.223872743148335 -5.150744962483436
2027 -2.885513681976636 -3.644276275159941 9.67537183085284
2025 3.223962731724435 -5.389520490152449 2.0260119034550996
2242 3.062359503033386 -0.10235953457068801 -3.0245038707667398
2031 2.7009839708611567 -0.9191808199366905 10.063913503432044
2293 -5.304872788949794 2.7116098889825317 -5.8457854207792765
2299 -7.202033049724883 -1.7515459408105984 3.5505240118740473
2049 0.035352418024213544 -4.502727621522005 -1.6181832801447784
2155 -3.254590144101802 3.2985779680374474 -2.1997243927258014
2154 4.706974928401541 -1.6945531882692557 -0.07039384557644561
2173 -4.8366906608556 5.787764414383193 2.3456259583113157
1909 -9.167528422757625 1.3065776807648952 -2.2375703437349657
2133 -4.137449501657528 -1.37738590920118 -13.71609509715819
2205 2.755426994985509 6.453492244764532 2.5369537856583304
2184 4.8558489575844614 5.421915476884128 -7.592573430026222
1974 2.3430937172631205 2.5778343289690846 -4.333121417521325
2014 -2.0105384706897653 -6.699553748600289 -1.2468763560990648
2037 -3.978107529144834 1.0937615451168923 0.6985497141135927
1902 -3.7656485077517616 -2.073595872215777 4.340428214670211
1764 4.785326035185716 -1.213072267615857 1.4842391560181643
1907 1.2599169687226497 1.7815923936325018 4.410257182829641
1840 6.776844791419301 -1.828710960133891 -0.5967056534205344
2040 13.03984196057349 0.6102227255283995 0.45875154956182873
1744 11.502682806598068 -9.646170568367827 7.673751616794345
2082 1.021963820071985 1.1626692906489646 0.1690799132123798
2180 -9.933275157746948 -7.836477077236571 -5.5410203174909105
2153 0.700871102724102 -2.685668295672657 5.5278706973210365
2034 -4.799478225116751 -6.814486965243868 2.667166807479004
2144 -3.1973822950492155 0.7531834067223334 1.0040074377451615
1753 -0.9902720408201813 3.8384606623049935 0.8667724240136364
2066 1.1362427504533954 10.551064422833974 -3.5652008918743094
2350 2.204837460794628 2.1106552101046407 2.3154888839846084
1997 -8.592851504667664 4.426380026989368 -2.633077131550305
2119 -2.8332853003790417 1.1733966813431385 3.9773359000149786
2257 4.898281508420734 -7.327683341403756 -3.9678101093539597
1759 1.804875618667076 3.1269375024084436 -2.3731299087181355
2026 -1.422849171182207 2.1115972020457807 -6.312059509179298
2201 1.4255648495626785 4.673943208475558 1.5290140501371479
2055 -3.214513675270997 -0.9385290036216023 1.7296412196102182
2152 8.971294701105457 4.8465282255720075 -1.1750121672457965
2317 5.472580882090294 4.202443429547681 1.8967268629752936
2304 0.3678476107332675 -4.785029621532422 -0.6809678289421349
2060 -2.6318523871246433 4.660481331612128 -6.422888442181153
1941 -1.8805790751304534 2.574292400029319 -2.1277004704693905
2009 5.076027881988955 -0.7724287283079235 9.408511024478239
2398 0.9753859399626864 2.1549409248187477 7.171573521625137
2438 2.234686173445482 0.022185167159009846 -2.289416587154797
1947 3.792835485671894 2.670649607735531 1.1685180620946234
1946 -0.25986423871643405 -4.066329926082652 -4.298646481315855
2209 12.398569787077975 -3.7329677644824493 -6.210725394755274
2118 7.045611261976073 3.6123691736166856 -0.22141205499167854
2098 6.341804811098336 -1.3884450151717533 -2.177664940165675
2176 4.72634047851694 -2.2444321779627185 -6.568963033343238
2357 -2.3387682848660316 -4.846429429915492 -7.771206828107734
2138 1.2445608279026632 3.4550355457887667 3.521202328266464
1880 7.55877452115451 6.740117715220176 -1.896095318811294
2033 -1.298052350512067 11.279316118204322 0.023612302390261332
2067 -6.491153721767701 1.159073714082807 -1.1415884720681537
2218 -8.862650487879227 -5.056543125744347 -5.915050049323522
1889 0.3617524076743297 0.5207923119220222 1.1896535713444067
2489 0.20697588845933193 -5.127861046349471 2.2821805932941133
1916 6.591788346956193 4.757653387495123 -4.93987087329161
2079 -5.540719577480248 1.0827148537397586 4.809042780864783
1784 5.183496090923082 9.858006662089572 -1.726545136360173
2174 -5.072375801541262 -0.8824089260814179 1.6190112785595923
2270 -6.699870964193353 2.8662977826597027 2.9499823543592645
2210 1.5532439485883156 -5.847001349557835 -1.262981554754519
1985 4.834610078973872 -0.6678218135266764 -3.0861960330314333
2198 -0.5281445066921767 -1.523787167635278 -7.588781216894001
1948 1.8144221487673242 -1.824546038175704 -1.3799231266992777
2380 -2.274457014237121 0.7959988457996895 -5.8096068764778686
1898 -0.5377892823575363 0.06531646219915135 7.8247216243656466
2095 -1.6211294231429814 -0.8553429218517258 -1.9453285121368415
2360 -2.3721201371974683 -1.1014673984836347 2.4543729817869178
2234 6.628178477286507 0.9950098846825108 1.908885923440156
2389 4.930196459085201 1.9956078539685556 -3.013494078999146
2339 6.416418955931493 -1.6048041937741269 -1.6669570897853663
2032 3.906540099907105 -3.216863368738443 9.505653459249004
1934 -0.3359697499315803 2.53853883103721 1.9512420199599574
2341 -0.5533504451240477 -1.4315183017538111 0.6434220716477441
2238 0.09306886115731422 3.266707170770199 -3.0568735224764163
2147 -1.0359364119320928 0.989420266895876 3.430981651019925
1933 -1.9858081328307327 7.418432181315217 -10.640666338595103
1963 0.9417977406533702 6.698840961206737 5.137329914007095
2397 0.2893412152873632 11.694778861267032 -1.9272751008587543
2050 2.7103078605345057 6.410264230556432 -0.6547848407220761
2131 1.6297993715452463 -3.656473700285074 -0.05077639763831835
2158 2.356837077178107 -4.786894160019316 9.010099022489092
2106 1.7267106000382881 2.4077058795895896 4.077728372684733
1953 3.988652630324841 4.093029220520246 -3.216160322115843
2606 -6.139695129514118 -2.5081248867805637 2.8915638691441323
2096 3.7144196305057364 -1.7063841730082154 -3.343006079168037
2243 3.447954012148924 1.726819387760821 3.759105288056608
1843 8.742867597668987 -5.64034939198218 -4.5596719008151565
2232 2.7083025606230993 -2.4347770559274733 8.50565457194873
2084 -6.129920978291075 1.0098729032976128 -3.7300659149387294
2436 6.845814602139888 5.4637156044994235 4.694083444702786
2301 0.5103857716967443 -0.4458198656369153 -2.5233655147110805
2295 0.1784999590227496 -7.6280997558794565 -12.206320559088125
2190 7.456197547497722 -2.439344353908391 -0.643641093321571
2123 0.4405859632168622 7.752335456298294 -5.32796117813123
2169 3.892996854312207 -5.416368283207678 -6.819627840637631
2217 -9.672838498743776 -1.0889626709479725 4.925662208273426
2400 2.85001192429133 0.5380775104111951 -10.838487654015577
2141 -15.346961130451861 6.169673606573173 7.358503347234176
2115 -0.9299892407948533 2.7385003708161695 -4.897831866162099
2220 4.48876392366453 4.797252006877315 3.7408016259799295
2168 -5.709847641542689 -8.389448170847047 12.792041644352407
2092 -1.9721256867454227 2.638032251715868 3.911654851190169
2080 -10.63364687024217 0.5021260279880991 -2.3176129705940345
2283 -6.629967952944361 -7.712902796753193 2.0727038622413794
2421 2.9225810367164278 2.806404921982435 -1.099466991878287
2481 5.943445079200895 4.896263736562905 4.3595159315492475
2235 1.327397164871453 -2.975292806198074 1.8970465411003405
2224 10.197237912955169 4.100446332686939 7.419939734441355
1932 11.460167328606353 7.257637130439565 -4.3195765055654824
1984 2.2093920169283825 -2.236714220883838 -6.503436049909461
2259 2.5364967229895887 -1.9095751060527881 -0.06724387647242723
2020 7.021022359169635 1.689756281694301 -4.985544089894453
2181 4.785652409400132 9.621904549121988 13.440441081796903
2035 -5.448890386680297 3.555189248195263 -3.7781625877647116
2441 4.655855825797217 -1.4340635578385554 10.343817182724285
2015 0.49080920863234595 -6.290659271673262 0.38611120370550245
2566 -3.7941753280383796 -0.957704773420691 -0.8015385594956784
2097 0.5495553414476749 -6.9568491842773375 2.3848005205027656
2185 -1.3647275004587311 7.630063517352602 -2.8900485680505534
2186 -1.3624380783621775 -1.4155611183920824 -10.150977168847001
2569 -1.7202418855333383 2.5434873583345174 -4.727409791642123
2263 7.382789106857996 -9.869683327634927 3.8665589414018897
2148 -4.71101824226042 -3.61617003591475 -1.570856104922269
1868 -4.564641268934932 1.7433188688237575 -1.9018949516344634
2124 -0.8559985228358583 7.337048304170305 -4.088717373986726
2149 -13.565118917643291 2.608573588694987 -2.4486136399329412
2387 8.162434486210078 -1.1003097828135802 -1.251150390617916
2241 6.893993015347223 -4.554722865567679 5.8518345805306
2287 -2.8086653435563953 6.373975520349835 6.651239270051117
2326 -14.644800418430192 2.776776471291074 -4.06075758786098
2290 6.0742285382373 10.767647613149325 0.26173895013974535
1894 -9.233843336736733 -8.150828444032195 -0.372089490586216
2206 7.4459758362481825 0.28914915469663843 1.7138002315219583
2333 4.071905406619423 6.3774290102371785 -7.245299898107986
2002 -6.551038174800552 -1.0978169701991893 -0.18068751391803778
2038 1.796319209751318 -2.642313415806552 -5.874435721217381
2042 -2.2847239239841985 -1.19499536636453 -4.126535015124685
2048 -3.3943017321226847 -0.5468718671184387 -4.888862280727372
2455 6.79682813879079 -1.1094090518407118 5.764048191084921
1911 5.0299804200292275 -3.005573801569305 -9.62976628705843
2182 1.8739194229904441 -3.4307222233111987 -10.243193401739436
2036 3.9893019354255603 -4.788115004879635 0.3366676350500819
2315 3.611123528192306 7.065616197926086 5.279908509615431
2007 -13.240284048875695 -3.484364035131913 2.154793421731051
2088 0.434276233752255 6.549345398421344 -7.064342596954276
2432 -1.5197255568229837 7.190361878132439 -8.4784699454748
1876 1.3044852410740257 0.2764176538344655 -2.164902954108052
2286 -8.350876220575648 4.809466318006717 2.053699442461898
2307 -5.377258099530908 -3.716982102758291 -1.8691173382978852
1874 -2.3849795336269715 4.550689724579606 5.542968452421089
2590 5.534058458640289 3.2598066704610087 12.685804468572796
2253 1.084614192679873 -2.2478790868055016 -5.61049456733314
1888 3.6024430868123067 -6.485541367501544 -3.5785971171550335
2344 9.613376397089482 1.0760406420401043 3.259446726386668
1999 -2.4494903277114792 0.3029736982912485 2.2468961138603882
2221 -2.001035689856429 -5.802179432135754 -8.96798403048833
2311 11.854525843701035 -10.390296885602682 -0.5883920730129601
2170 -8.873613565321548 -4.048154106823008 0.19754822373553965
2029 -5.735347736316457 -4.560092955120741 -7.373129064516371
2442 0.2663791561309407 6.431102573793195 4.044561402121618
2319 1.1480731067521845 -5.691278154222437 -8.880095611433447
2472 4.910721282913733 -7.455336403917044 10.391868149934025
2162 -5.224443025203273 -0.9109877928472858 3.336055847784649
2178 -0.257346807672997 1.4514723179851232 -1.1427139174892142
1895 -0.5280349234733612 13.315913481744882 -3.20968985435328
2127 0.3244123747957071 -0.07979391582702199 4.286982922020197
2251 -3.406628810074408 6.140285655140917 3.0429017358258843
2517 5.342138202444937 1.487781593862483 -0.6159998072865892
2129 -5.27719083270521 -0.1994963856349202 3.997249865242238
2193 2.956189756884753 -3.7633067044787945 -6.320564271986044
2309 7.778614477827397 -6.490067965720178 13.153961111463202
2072 1.2442561275667614 -1.039582003808809 10.434683047935211
2349 -2.011619669778778 4.589481554010989 8.23868402470709
2337 10.896280866580417 5.676276799435281 -3.930620195649835
2329 1.0137561925443475 3.3995388992507682 5.287339921112515
2451 -6.636091486115119 -2.6932849606672176 -2.697709340575604
2454 -7.7616312709549 -5.543844014285391 -7.47173062035764
2087 3.665887371957319 3.572585007425905 7.924729925933042
2310 3.521612480919487 5.9308803182232674 -1.215023279785444
2202 0.057730095634368706 1.0558105632919126 -1.6753494477914501
2076 2.5702109104512445 -0.5048610675214921 2.41365010139782
2196 -4.4668504972302765 4.66447140263845 -2.3653767447365377
2161 7.408462798018929 -1.8923788471550944 -7.910247554164832
2039 1.4019671359381984 -1.8566739548464422 8.235866267009317
2188 5.570715990273421 -1.0337608578251345 2.4702305490486394
2327 -2.7328619292256318 -0.21470205585020105 -1.9803686048746838
2273 2.389164690713346 3.4989102755031967 1.3621044160627103
2074 6.437498235645289 0.679749415552208 -5.370906828582684
2476 2.067984268684397 3.2418709801979757 0.6224623483671657
1929 4.583848887793249 -6.202753525196222 -4.311909099967429
2075 -0.4166281563866647 -2.190791426479043 -1.088984844160437
1922 -3.6662635463802897 8.116327259906553 -0.35820611448819617
2474 -6.052103819996755 -8.095112570913578 3.0987362317868126
2465 -10.672503865971116 4.691601340022355 2.2419460068133215
1908 -4.276067677491923 -1.4882183409329344 -3.6722590795112118
2247 5.847894871117102 -0.5096721764563005 4.417828576004715
2227 4.4036282670147715 0.8065780039594476 2.551428527641606
2332 1.032733298974742 -7.867556486199721 -3.913220332307075
2324 -1.1611522041624718 -4.052681832422032 6.118986123189119
2229 -2.599821923765643 4.0397370849159335 1.958724305864479
2090 0.980475391824653 3.3034327042388307 -1.784249922174563
2261 -1.5937894365371654 4.2458914182638 5.049962269803095
2187 -0.9672186849883473 2.2647200970346892 -7.9570566387716335
2535 -10.811107487210824 -5.453710127084991 -3.3683762988441823
2255 0.9313282035735199 -2.7711896133841805 -0.04664675625761069
2056 8.72471224165347 2.7307117204913687 -2.411718686267869
2497 -4.673421599501048 -3.2736086899994405 4.442796828872563
2331 2.5693067219451353 1.4646100046325041 7.726601797641985
2052 8.021718065654959 1.4162955735017775 -2.4786841718251167
2378 -2.4871475844374404 6.233989659086314 -3.0865469033950963
2403 7.235698899317714 5.701705785470351 7.4647598145674525
2364 -13.721933031210959 -7.410387136140226 -0.970311085308938
2199 -0.1246394161083394 -4.011702452080233 -0.7259662130498998
2366 1.021959714696068 2.3472521476864063 -0.9356468233989694
2112 -11.142193577564665 -1.4828983317687419 -1.4361225380695035
2352 -3.4915528866616317 -6.290443123921014 -5.9865916592578845
2425 -4.034410797559184 5.531630059729136 -1.9009925095037787
2134 2.8644562089747416 -10.062492967568321 5.962739795696225
2165 -0.722692787403643 -4.305902471132283 -2.4655735103768546
2135 3.3813110223174108 9.141686862754412 -4.0290080390817735
2159 -8.585987696220677 0.23382254142709574 -3.3221825394754276
2139 1.5661399937769198 6.310135641606629 -9.62620577606116
2384 -2.707955116900754 2.506483828015424 -8.745615068437921
2353 -1.7554629921303158 -0.6082395438012811 7.92526962856465
1750 3.3052172411775715 2.059049567252641 -9.208755549520147
2340 0.59474802505303 -2.408330343819745 -8.627350262854398
2240 -1.2832319282483047 -3.5929690324352017 -1.5692289860592132
2264 3.911339247957595 2.564317797640304 1.3592650753061668
2254 1.549913490664476 0.8800575176831518 -7.6427708629549365
2132 15.749960886424745 -2.237846944263443 -1.931643179304508
2248 4.732852474707074 0.33500603391786943 -11.255511117920921
2486 -7.967812941698279 5.24688543767377 -0.5448331737934967
2394 -0.24649848375858033 -4.176784343531252 -5.214170617152894
2330 -0.6630214466852946 7.844970541840081 -2.4976307108078957
2267 0.12731128625592414 2.2091330718964364 -0.4248461920176665
2396 3.5399060147858274 -9.946002517400311 8.882421012046752
2404 2.138916455442464 -7.848822250113029 8.447873112972713
2401 -5.820945725475461 -6.550390030111052 0.5910574317942036
2430 -5.039967486345622 -8.512559167318678 -0.4820036150954356
2183 -1.5447420324423091 5.530998937544976 -6.874820385375663
2146 -3.0896199076447908 -0.14654263890923513 -3.1714592497004777
2019 4.246997322480274 -5.10263093342741 3.617401822370164
2004 -5.8762712611511505 -1.5448521716560863 -7.440849580695538
2282 -3.175033018450272 4.117583871818692 1.7634297125435858
2244 4.056104494853098 -5.449001186482588 -3.3567959577832864
2581 1.9247675743191308 1.702468486767678 -2.687342987158205
2433 1.4632574441622 -6.681319603322205 2.1688163794296944
2157 4.483997168080028 -16.029194681002267 -0.5276942617697511
2268 8.210972917413727 5.8963254410603 -2.5725222905960563
2819 3.211795018905935 2.086739659428034 -7.01587947748008
2395 11.00429397818721 5.7833166797059485 2.464258962787414
2445 -0.6867142140430131 1.70510791229025 1.4908652415229697
2422 1.8855037336551932 -1.9828850058182523 -4.814816294721527
2266 0.3213728382741834 3.447643585724185 5.240873454792761
2305 -1.1658714022873382 -4.2269274244699995 -3.361117145543297
2426 0.8684506524499361 3.7597337172051417 1.7518951762746895
2447 0.734092602482655 3.741184671178925 -3.9261156234970116
2375 -3.2448653659948286 -1.7921413142930125 1.5661512039141627
2302 1.7952781723759408 4.320757419946785 5.617175014409927
2215 -10.515228373372867 -7.825106140363342 -2.0207118710524785
2467 -0.9210628847398535 3.129392736974436 3.71478356993587
2284 -2.6761398786110173 3.263444168139579 0.31605545532878876
2475 -8.04422910227132 3.638179316124013 -7.046563976495589
2316 -3.3234764173041476 6.28242711416138 -8.479923479135628
2265 7.910422767356858 -0.34845543714716587 -2.6545978110290434
2171 -10.778349352084097 -3.6437379347044274 1.023157681482491
2418 1.6249911310945686 2.55127352035323 -3.0258655208004135
1855 2.8462620560274026 8.024690775491973 -8.638597280433325
2409 -2.3054517162187733 -3.1751384467966313 -4.4580042784150695
2303 -10.231878147789509 -2.3869648673000334 3.543562064896347
2419 -4.133814148738044 3.935476632982559 -4.50421029493868
2064 6.24441324850831 -1.2530491554424235 -9.36635660446465
2469 10.99254906155467 4.892339393709486 3.1839923863669837
2351 -2.922777191759038 6.843678395583066 5.30222972081514
2163 -4.508956128093033 4.874844743689874 4.672265599738661
2142 -2.248061120230182 10.815004760698773 6.56921930827147
2069 2.659498633934695 -1.8242518682600917 -1.1034676541148596
1928 -2.8386227161667428 2.165344858013871 1.5602036233621779
2314 -5.7563841588539875 -3.3643083148371056 -2.0598247653860353
2046 -7.211262527890485 -4.622683992298975 -4.6120938147390245
2578 0.9833210263995297 6.2390334034270625 3.4136172984695468
2323 -3.1940485906876757 4.686010323017842 7.928712967397445
2558 0.1305330891185697 -7.817379927604938 1.0358144210179812
2434 1.3896661527814507 -5.025363308849351 6.882073517169277
1875 -3.9263593239590504 5.484709108859824 2.7234927515802956
2280 -3.065601888139901 -4.2197029359022045 -9.121117188156537
2613 -8.206350341440256 -14.962535377819115 0.6138513794478686
2276 -1.3328150208522371 5.632966711356673 -0.5894401627188656
2045 5.401897173832596 -8.109786749826203 -1.5587117936315944
2108 0.41293494427082844 10.703580572816234 1.3204987502555872
2626 -0.5203252554260417 -12.590988323109192 -2.516983937629355
2471 4.079996423138876 5.551589009739669 -2.3097644311545955
2197 3.6755014945766162 5.058780117273575 3.5770465618001968
2093 -2.0530150292818687 3.066883668329795 2.975547843320288
2068 -0.42332940124715507 -1.8797526512906253 5.012282177505116
3011 3.266572735283824 -4.53537647239496 -3.192756326982699
2213 -0.6731854474199718 0.2587981418606131 6.186501643693739
2346 -1.263863382255768 -5.637496531174933 -5.455774440674563
2028 1.356866588035333 0.48521968336031235 5.486982894646688
2308 -8.003352151975237 4.770308192361986 -0.09598040685894728
2231 1.3022080746137557 6.678601684815344 -4.281109022417534
2361 -4.350204358573661 2.402671438950222 3.694940288598555
2277 -1.7601745428415811 -2.1120274255619162 0.6980121900093519
2322 -4.826978653500369 0.5633414779657369 -3.518009380997948
2089 -3.848010469863096 -1.1078992470336841 -4.269426800811555
2488 -7.8606007416338874 -3.9256786445574354 -0.08316451582724659
2456 -2.9728753888629558 4.0325574264264095 -3.8241770224695184
2756 3.7295351454782377 -11.724163926575365 1.4698082879697318
2204 -8.050680682923055 0.9696850485224414 1.9559712756595877
2211 -2.1272330942382505 -2.6401100184243234 2.79496070828626
2402 -5.112994367961873 -1.6209863037950318 0.9370120866281028
2192 -4.678282172164563 6.210653023157747 0.2861622155311476
2381 0.28246441595024896 -6.552661115807897 10.00381121648562
2532 -2.306204608664423 -3.9754295033941807 -1.5617964704279856
2464 -1.1919555229247947 0.7597953136957845 -1.2718384773022107
2382 -4.24174420557741 2.029686022557328 2.452929221642847
2208 1.1931580682358045 3.171478917781925 -3.755525699293377
2386 0.8699242728010339 -2.5132910694814647 6.6747494491149855
2062 -14.00426984142097 -2.4678936881430382 -6.104997688725678
2377 1.6774164685716346 -2.812164029691842 -1.8758205343944652
2482 1.2321806503761883 9.497945629351252 5.517092981454217
2490 10.608504062950534 2.965781604329552 -5.826371371526282
2012 0.32380017438877945 -4.048970390794136 3.954023066842507
2041 -2.7623672900193803 3.444605708066511 -4.197106873061654
2493 -3.705253563009555 -10.544723279469592 -1.0392226534369924
2342 -2.825752479357713 6.671328024887627 -5.305093458751675
2542 -2.280276967926668 9.184742950588754 4.81688465438906
2484 -0.8197553540028522 -4.279516714210099 -4.850168117542286
2214 -2.3135962340728033 2.5070727394874837 -7.258132484376638
2354 -1.5743312531496472 6.480505691067404 -0.6491751716569276
2116 7.613291500744742 8.181185493727973 4.650626489283334
2081 4.569524178024242 -2.471254511539553 -5.3878285250461815
2541 -8.26691844230594 -6.24019497159421 -14.432976473524993
2294 1.1529475082391172 3.082473115938814 13.845806269833435
2693 -3.258325922748345 -5.870433180909096 -3.6191598564664282
1996 6.454028251634525 0.08242057499116587 -11.878755157433885
2549 -9.695378452108695 -5.848352688385918 -2.355320208349095
2140 -2.6755993509097387 3.20247467199817 4.063066255825697
2128 3.1113481509014678 -7.411889764549298 1.2608686583087225
2407 -1.2544249486360404 -4.399474935972216 0.14165215644382045
2383 -2.6521924117662197 -1.4350415661208922 7.140056609259566
2070 -6.955805329490661 11.255136827727968 -7.471416933089733
2411 -2.5531966964663257 2.1352353615952495 5.605326628926675
2362 -1.784130003135121 -2.173950595536699 0.6010937698412824
2249 -1.5738314539160094 0.932310273405948 -1.883921283045778
2203 0.39022628421862376 -4.4095392322051925 3.1506918383154963
2274 -2.8448896029101545 -5.6508294261592305 -8.409208935778384
2372 3.257171569978045 -1.302464601110757 3.229347929786107
2194 9.115504842424592 -2.4504269469011892 2.28073731321309
2415 6.1181586811523125 -6.4068954853577536 2.8467547169509198
2515 1.9055329911793588 -8.247239144949713 -2.6414824991919965
2634 -0.3189670539062638 2.5740373687083182 0.9927484216055552
2537 6.732448680319486 -3.308597725792506 -7.972891788056293
2573 1.2611270111219766 7.383586041327745 -0.27662897727488583
2477 -6.929345502810577 -7.253488858413019 2.1358165913454865
2561 -6.618201360318599 9.686541751878211 0.5718752268664155
2567 0.3192882749142411 -1.7619637028390356 -0.49929441071505776
2674 3.8550846332255055 6.802348224856399 6.536976834474816
2017 10.130748978847855 -2.3414316054180744 -2.7189693934566317
2576 4.8749295120841705 -13.369220574139762 -7.481517667011829
2427 2.660828692382039 4.151113836861799 -0.3307599466924077
2388 2.4600192138958388 -4.300755648244965 -7.755937032534278
2553 -7.17046131366254 -2.923503094725502 -1.7567228101566006
2374 5.084010415855931 4.356059157885983 0.026017277037312818
2677 -10.021253847509083 3.7558239240771334 0.8746959968897525
2321 -1.3247883175495434 -2.961612144410243 -0.24801314619441633
2557 -0.34430909919022756 1.192964450826209 -5.195103076160987
2104 -4.553285056091549 -4.864541106471983 5.19932865558994
2296 5.502404979367382 -1.7422544676735185 2.2334746923889517
2877 4.166906703445537 5.847234872503627 0.026153790532944452
2367 -1.7261694688946212 3.6333537996995253 1.9037725130874619
2408 -10.715645574132829 5.948893563124167 -2.5516729087501586
2236 0.3074517590872 4.112096168902445 -4.3741328046933745
2452 -1.1782128541008874 -1.920651524710577 -3.384402616110362
2860 4.850027999940843 6.60508823374354 -6.200281601526069
2516 8.457631334609765 0.47618741969858724 -0.9639070006619174
2043 -5.021889757996741 -4.8206804046836895 -6.821815485580644
2522 -0.30234898960707 0.9528757474574867 0.6165018384413166
2288 0.9275347641091047 5.850325535917923 6.390765411842789
2292 2.2369947079270647 -4.130130474645638 6.245995540969084
2191 -6.874249163960814 -13.830445093562782 -1.3259781400029378
2414 -0.6963270916875692 -5.452146988602887 4.444745383977343
2592 6.355593547187608 -1.9474011604217525 -4.000983707516629
2417 5.921406412439406 6.2739236074798805 -2.6927549617960893
2347 1.5530503467883758 -9.637853966150987 -6.459380368300635
2562 4.165765046909799 -2.046792684613734 -1.6320589487149808
2166 4.435678464070381 1.1711309032354025 -2.958865527165386
2022 -1.2374445332995683 -3.5176178374863847 -1.2301238026623273
2630 9.558778491858153 -2.4961017581137237 -4.281776932633189
2285 6.016725687381722 -3.0178107194674517 6.886715213318856
2748 -4.703236207788647 -3.2869672741459963 -1.2484847315088925
2023 2.8987868383271924 3.3865379207187667 3.6623826016113834
2446 2.447168858051531 -1.1063892182740789 5.411954834766034
2272 -2.5549485847570996 10.468012082521675 9.967718873605664
2439 1.587427377988168 2.842769397671203 -2.2806589233005683
2291 -3.9344394019337043 -8.32189089163518 5.129577410211535
2534 1.644177674601107 -1.0972406471617202 -6.125716462124789
2325 0.36879201751266283 -0.5923026654122295 -0.8147933664829892
2725 3.061585389976259 4.608675478178108 -1.956485970514709
2577 2.0773031515991964 -7.5607165335221564 5.625874119636848
2621 -2.1871128223794285 -0.966762730666938 0.9226862777729906
2172 2.935861986956704 5.453863277371628 -1.8062166366414836
2449 3.7891907345227644 -1.9471707793892463 -7.339109667729206
2552 9.93225490555659 -4.448263968901624 4.021591831324486
2864 2.1170447994507797 -6.713847685032254 3.5720202949027575
2216 0.6138685714492438 -1.0472741698338752 -2.020797599639366
2179 -2.0527880656255943 -5.022531360741736 1.92999529177259
2336 -3.3770900312209595 5.552621955091145 -7.106510274175236
2773 -2.172682126316022 -9.175867816625319 4.341882322830686
2668 4.443254912608234 1.1058952460205969 3.4014617877365008
2602 8.298443346479287 0.5218480144521864 1.7530500146849588
2611 -3.1620781960937734 -0.8312705312938871 -7.612901551900491
2328 4.669665272951689 -5.385567815532901 -3.064337678573715
2509 0.21347602218144626 -7.953671604161122 -1.6577818354615839
2226 -5.053472803052779 -1.4677494887209244 3.409093321962006
2437 1.5066753797097883 -2.6565309320914126 0.5543629280126197
2734 2.0489360750881374 0.916849656897122 2.3034070487414944
2494 8.806207604142045 -4.867294867581941 -5.816198156688577
2233 0.7028539697851004 -7.486420821272647 -1.8012463737641065
2539 3.3362687062125405 7.0130813044994715 1.8346496692612544
2373 -7.946760271288719 -0.11653611747605801 7.899357191932691
2498 8.600050344157236 2.793262246952782 0.8515057601216303
2428 5.922671193561984 -2.5391727928666294 9.264639580751943
2548 5.5234571187790324 -5.637379817265009 -0.734880613379381
2480 -2.3986234273155382 4.915182152136807 -0.16455589928259995
2239 -2.9676221827131597 -7.45300587707286 0.6707416263541545
2633 -5.994393580596988 3.6708410392728505 -1.2197320025814902
2460 -0.3296413900059672 -6.6618270556696 -3.1141707763599746
2502 -3.6859959929498847 9.914432582229638 1.7694712044214544
2485 -1.267813366802937 5.999729350256478 -4.371675180933836
2736 5.327825182687791 5.862417242793874 -2.3829658835364436
2300 -8.975633285226419 9.633464817886777 0.5523122748738134
2610 -6.615282143993506 -5.890118496583883 5.339406809031332
2470 -4.681018973163485 6.873070226574861 13.340165724122242
2533 7.658133824060523 3.38379866772777 -1.6227322821669914
2385 10.218547935546908 -6.457843486434944 0.6566196547123171
2246 -3.4086806905183886 8.438806327681283 -2.310063903268186
2473 -7.008981783965402 9.252544044504688 2.49582181959816
2256 0.8735054022985557 -2.5729507697048066 4.900269279622094
2594 0.29277967251129955 -4.545944897825002 -4.946857200475083
2312 -4.708987349228584 -0.7241365724014832 3.3028192370829617
2391 4.974541586141685 3.2100572424451483 -2.1536416503673497
2207 -5.806310715103738 6.921642572229346 -4.598041298734988
2145 -11.447161214101339 -1.2549721873617747 -6.8263552896500235
2529 -3.4873080466739026 -9.634550355948264 -1.8698771916283419
2399 -1.7671663043468868 -10.39550624922622 3.8324622491808085
2369 0.5479830285439877 -5.149491140107347 4.235172844984419
2492 3.4240721623171053 -1.291667437680868 -1.6378147645422676
2615 0.9367781287485978 -4.36350209856158 -7.192251481683995
2416 8.693259742606855 -1.6432867572877026 -2.3911908913664623
2528 -2.5591965034760285 -4.588242652578727 3.9964855202084624
2689 -16.26255548790828 10.178671059762731 13.683829617219711
2706 1.8397097856558806 4.5652975142222605 7.515084893969585
2531 2.1478963993263216 -6.030305141323559 -10.893001284801068
2815 -0.18201445167108576 -2.789585153435828 -0.5961728237213741
2692 -0.7292937041276235 7.783841271164972 5.868097756526273
2379 1.8082441718652178 3.6082913441213624 1.7786774111798946
2572 -2.161860884762994 -2.048321597817601 -1.6128628750374285
2356 2.973811701824439 -6.040637796600808 -2.195833295020912
2563 5.794576162263551 -1.1360154098112478 2.0432908154927696
2786 -4.5039389231773255 -3.5469060432301163 -8.26588136901641
2854 -7.174465089952947 -2.3650697411744175 -0.3820210838398103
2781 -9.789693064873312 8.661490227552758 -3.125549483731097
2688 -4.355092530400687 11.397473609595616 -3.9320827317337503
2420 6.295471538664148 6.147405050273095 -1.478814133678587
2656 -4.656234673696311 8.29880773953059 2.6857309097873783
2514 -3.1244613802847176 7.803876858377353 -2.8672766743453866
2731 1.9294105695409944 -10.259509205686822 11.50600762283758
2538 -4.275876354427512 1.5046700397673067 7.204310020359079
2443 3.9225334059568735 2.685237245342802 -3.866779947914302
2520 -3.47530783877981 -6.323503430572058 -5.127045535353088
2250 1.6391697060843813 -9.394188961978644 5.564473709151677
2546 3.3357041212897696 6.75689673157315 -2.2778724112553657
2524 3.0981280421632786 -3.1999786790876827 -6.196500582644877
2429 -1.450807122079143 3.391936482808519 4.315604193783554
2540 8.468169981074853 -5.003684620146328 7.790050162584395
2406 4.428057688689462 -2.169716431199694 -8.170559098294591
2457 -3.9651563372862038 1.3312891544180303 -0.044753806106246526
2704 -2.092302976749279 -0.4219522359889969 -2.4289259286537828
2228 -7.92336127581007 -6.351887867556812 10.257345112957408
2808 -5.915082490683475 5.721142460083727 3.240342217241543
2306 2.008398461910844 0.4907667982233912 -3.1189206819412765
2424 -7.696904550475446 -6.42421219313039 -10.054414495140998
2871 -1.374957607304063 1.4114673844854242 6.096482707606188
2518 6.4036307313722896 -2.593457049447248 -3.1788862297285925
2682 1.0672071598470665 -3.9523287514267067 -4.520737096626981
2716 -4.781048729386553 7.755398443728305 -6.3710926647375254
2313 -0.6570610998807884 -2.986939813823231 -5.705181554140232
2281 -10.261737707997804 8.514330454204226 -2.8422992649129815
2591 0.657923902535909 7.580865361094586 0.1957374904676148
2167 -2.710071889182318 4.5356098755897065 -4.745476922204662
2838 9.249776301763047 -1.136274556720502 -3.646786235992603
2574 -3.283805693652808 6.3397715763833595 -4.133147734546055
2545 -0.9664622629735216 1.7759590034843045 -0.4255225334442338
2580 -3.092449758260914 -3.068175406452936 -0.5675450141730468
2318 -5.45756806250738 1.6383698574800334 2.8895538380775987
2874 -4.28794143706049 -5.250687726803479 -2.978299477982048
3012 8.568437737006583 4.78153754968866 3.4051087187526567
2368 -6.212918685608032 -4.654273151749679 1.6854218811766535
2435 0.4280568647019402 1.3728005119904125 -4.244297659728338
2873 -1.5998832864576724 5.110980649979372 3.5546093698440004
2412 3.5851274734850946 -6.1867837670489845 -8.564680455254104
2463 2.7633814540432207 4.989561915981356 -3.4749893732175274
2856 2.1202546705971486 -5.403997899204381 1.507576082610368
2858 3.1123819567008613 -0.9703546346111052 -6.92079912957494
2448 -5.134562308730317 2.0453251698981734 8.669537130539279
2453 -1.414195785294828 -2.567644030664939 0.4342515580631089
2568 -2.046060679380006 1.7747712403950837 -7.667981633794167
2790 -4.27573579292386 9.794814515596595 3.969922583615914
2624 4.093637499069804 3.6187147405364417 6.25177206980257
2728 10.893623786267035 1.4727516838850916 -2.436147102099499
2564 -3.1572751075291454 -1.9874150707691047 3.3034083917466424
2440 -8.826057646876793 1.9446474580505215 -1.789441480121391
2468 -8.778377303225193 -0.8072888532450286 5.550095697761382
2320 -3.234853197586904 0.2632273936183316 -3.0285367491987243
2922 2.359598672921632 0.30931123243417386 1.5473267701032334
2850 -0.18294432115558046 2.0917589989790533 12.120959037197473
2444 -5.5044837237587245 -0.4817616056713613 0.9441242558426609
2589 -4.801981565199744 4.195760960278371 1.033431387868336
2593 2.9614851698082583 -4.494692149512371 0.6666607512785174
2831 3.9150342506875644 -6.954788880938007 -8.695430111542759
2595 -8.267185446808234 0.9803749650672784 -1.6077104240827393
2769 4.098030048713315 -4.5761065826993175 -11.850659643014229
2603 0.3477823642763193 1.394691652901759 6.859014916400789
2852 0.675147190257753 1.9541006931465947 -0.20782622171709497
2504 8.46535616627512 3.508727859319031 3.962616056701664
2718 -7.7348946239353396 -3.20159241913912 -0.1131097504016066
2747 5.491039150894883 10.028508791464523 -3.3915739870733184
2500 -8.750658372074925 7.089067436766888 7.291120931755105
2749 1.3936493417205924 -8.171798842052704 -1.0275258156480525
2335 -6.11864883049915 -9.9022532194749 4.697215395832621
2616 3.763069605290095 -2.6326465837482513 9.482508169914702
2483 1.7861832126565735 -2.4345160147652534 -3.811046359795734
2642 2.269400733666667 -8.014618050971338 -3.5010147649406367
2466 -0.5552161022109681 0.9447141265556157 -12.111710216452703
2195 0.8546065641074636 -7.6276801301705595 9.00146148189633
2588 0.3237286243250762 7.52870615479742 -8.331533482566009
2491 -4.463727857487748 -8.919648572696246 3.547689042540075
2371 -0.8399848320376488 -1.6508363760578102 -0.2184804966003117
2617 -9.570646997773824 2.7319024521170148 0.1585229028330568
2521 2.3898561640587066 -2.626782770960193 -3.439683834216849
2766 2.104389861415731 -2.514523205627357 -2.011122088252621
2450 -0.10117345485082359 -8.051788930419853 -3.0860681860791592
2459 3.6582062703143094 1.339845006361298 6.386661463851831
2059 -4.482188896188761 4.56768754544587 0.4129976934317
2722 -0.3127147454349875 1.1352695727011186 2.487448955898886
2707 -8.142703977532001 -0.7401460730113862 1.6258581445669558
2462 -3.189751620866178 0.2779412327042307 -3.5483892801912353
2582 6.702864520401526 -1.33978923121435 5.570796209970207
2496 -6.885679267638229 -3.132477722275375 -3.3205708672075755
2200 -4.748576884781411 -0.16369757560492643 -4.076627351272889
2685 -5.643572143494926 6.346964410804476 -5.618103338769709
2461 -1.5914711806030297 -1.7564737415778855 5.632687593384524
2370 6.299686527180425 -5.343412931396442 -1.990702870678546
2648 2.9208985297285386 -6.529773045266904 1.7922360994457132
2525 -3.258705278197295 3.9483193433260166 0.8674221795435785
2645 -2.763871781017835 1.8671253968111599 3.0364620873361874
2618 0.546845017733084 -3.1144773432063872 -1.7486412212279356
2650 2.0160603411634495 -10.823453855002487 -1.9911371500921047
2776 0.5178736745675653 1.9882890675148688 -4.746614923379433
2501 -1.8037415176124436 -10.66933909064058 1.5714532728451922
2510 -8.827994381236516 -4.582947520691486 4.178440358723763
2393 -4.5842467318711195 11.799006282715634 2.0868590488860423
2051 9.35023766610383 -0.2721435118156094 -2.7167006686678947
2798 -2.4412378080383625 0.6173807994297834 1.7882957335423098
2175 -4.894381339381116 2.422366657780387 7.504709078994193
2487 -3.0076408014757363 3.306533667642698 0.4448358914018932
2586 -0.8455100560617552 -1.71671687548188 -5.669625290972279
2672 -4.537911736542351 -0.5796845978429149 3.2322204955541882
2717 8.468699449790336 -2.661223090877635 6.124931356715898
2801 -8.002698891710079 -0.37297003804624956 -5.28879880754012
2793 -2.685282874665446 -0.8461313336880102 -1.5464122765696806
2671 -2.892536159407773 1.2446840345339976 -3.308580491114655
2512 -7.691087326728928 -3.9387312024912458 1.9178444380826658
2219 10.962512587341378 1.312444286116728 0.5521587215739188
2679 -5.369244471247143 -0.7856087346957017 4.073965572146136
2334 -1.6287304031377083 -0.3573959081016695 5.657745739571171
2777 4.949498904328346 4.08744726663469 -2.8399897914560146
2598 4.163100412293603 -4.669336983673154 -1.6844322068520414
2625 -0.977084879751543 2.7192951545791644 -8.633580501171112
2822 2.2520186525236023 -1.663020540871907 3.2076368386213896
2661 1.220921483780279 4.791502627962423 4.511154503137709
2980 -1.3716197547181832 4.966012818753748 4.434214976957926
2878 -2.835021654300002 5.569803427372364 1.935975196000205
2269 -2.2570284149570488 -5.050809580566469 -3.9446880365030657
2526 1.7726266757367686 3.216316534463562 5.683013501975495
2523 -2.588102847510691 10.31056062764435 -8.401977396393635
2687 -3.278605356221736 1.3160844422634566 3.277119770173646
2405 -1.6190324436871557 -3.630345392575529 -4.8908960941967
2554 -7.5437557442516 -0.5829319846534967 -4.033051127424486
2536 1.7063326261245189 -1.0440796883833046 0.9286057300258446
1885 1.7188995742199287 9.511442627716754 -7.951422951214241
2844 0.8740354920007354 -10.599342724638305 1.9444201222993074
2010 2.6088282891100745 -1.4879461229672777 -3.3149583416780914
2544 6.356480554709767 -3.5749168664256565 -0.4513848965547844
2709 -1.0131921505427697 2.5754690867225394 3.0962677699922168
2609 -7.379596419356332 9.598704869805603 -1.2367273823603724
2977 8.667505403214635 -7.1047959921249 3.4864026127923733
2543 2.6341262280015423 -0.8490609902587554 -6.382864053469682
2875 -1.9199723346865918 -4.449945851435769 -0.9683348888578154
2458 6.589721818401398 -0.9791957946635154 -6.579090244117669
2547 13.348144287455838 -1.7606401323160568 1.146304671198357
2750 1.2648323329665245 2.0868094982628747 2.1349825113104046
2646 -4.376779559105631 -3.641482235547532 2.6175348514394554
2555 -1.7028593407343595 -1.7161634050036094 8.320000274307422
2565 -6.221163856762161 -13.627263087954923 -2.777326518075643
2823 -0.5171023128979249 -6.1627391072369715 -7.5231098017003895
2839 -6.308891610040419 2.2637041919037055 -9.20616211278312
2701 -10.524854523544818 -0.5278844822899063 4.14258273630564
2392 4.762101517916589 2.8211314321785914 -7.474178995052346
2559 4.111271823769774 -4.151983093360942 0.4801256349030495
2513 4.479637455369561 5.642603746992628 -4.712956118628385
2729 -7.929044413394841 -1.0765877430739281 11.392329963691559
2683 -5.219785968843104 2.8610962160252806 6.164454636789619
2738 -2.967948930349125 -2.88886500869341 -6.404748626020845
2714 7.178742564828549 0.7578984324059036 -3.887871519741199
2508 9.468662646390504 -0.8924175421400572 -0.6679414272901564
2715 -4.362459823758148 1.5791609767095787 -5.821692332238223
2413 0.3652593134888195 -1.0053964061667056 -0.905937655853151
2723 7.0754855474451075 -9.512915256944202 4.284598288735489
2719 -2.615046038026113 3.302535696229841 2.370792956679698
2868 8.494403547454302 -0.12134789782539886 9.037503450303898
2925 9.153381391406112 -0.029395365585409408 0.9229953080756101
2530 3.8940092338452414 -3.050777437360295 6.506842265287143
2698 11.209053465853815 1.7308337513446448 -0.3567634058329096
2775 -1.102826505494425 0.23549161884364886 -4.04842783425826
2410 0.6400071689088391 -3.12335790658219 -1.0892304814134488
2817 -9.805568551558745 8.900069182303849 8.047906150284907
2859 7.490772609399823 8.881974887845397 6.336230027496816
2596 6.204339574287452 -0.3942599087702992 4.356105566573496
2771 -0.8051953449519192 7.007302949635443 -4.094571391232267
1824 0.5703085215289987 -12.41405729232222 -1.9551457711694469
2575 -10.960001598958627 3.5693520124336686 -2.61240509145137
2765 4.7332908157617775 6.017677499967049 -2.2857549950547424
2338 -6.930495759237012 8.81778759409383 1.9597811312599842
2600 9.673184521526705 1.834509956354048 -5.837078888292292
2937 -1.8729472666581528 -0.6580152707917736 -2.1773073657520947
2632 -2.4363146864187337 6.234493700292259 -2.8925426164330705
2583 7.551633464462939 -0.8155315524426459 -3.465650364853504
3150 -0.6311817720482341 -1.2184345823688063 -1.0993091065454266
2636 -0.7869509010359561 2.646022749619857 5.145116193014631
2629 1.0354594578491345 -0.4511661042186 8.32748037821748
3166 -7.518633462581596 4.534954183735239 -1.9541115560360096
2605 4.289953020639851 -1.588292319702186 9.08474185945964
2678 7.428290717397305 -3.1384966014295155 5.999908512578114
2359 5.506551192275394 -3.5088921012049346 12.069117080857382
2519 3.4366907291006044 -5.562283138361265 3.8467598714676376
2740 -11.971432284448088 -11.883273526461448 -3.390360257613397
2949 -4.1905090712977 -3.305444871048755 -8.904133039545833
2812 6.34545548122615 1.3728383490026432 -7.123794661372704
2601 5.886018098958934 -2.3067767597527142 -3.472405824485436
2597 1.2814271152370118 -0.18308397352839037 1.0445186810447546
2622 8.36568060965426 4.755320714714239 -1.667536590319106
2726 -2.7935061310342357 2.9382026490642166 3.166837009881971
2507 1.5403951544918861 -8.423631403626837 -4.559952928888613
2105 -8.237532547019024 -5.935329604297785 2.7545952259082083
2676 -9.944628118189616 -0.5635833581603384 -9.250574567502012
1732 -2.522540608081167 7.885622775889806 5.28271547554935
2824 5.398220436927027 -5.5863592430011675 0.25378047534925313
2130 -11.11262638275881 -2.751633096213032 4.50853610765774
2758 2.242448473273727 6.913767523687635 6.014437693511081
3049 2.4179648834168095 6.7330929092405825 -1.2841293862790046
2848 2.4200102119514613 -0.9491424953728198 -1.1401655333572565
3006 -7.951429950146211 2.553059898487988 2.043055889723672
2842 8.078156085598986 6.586633315795235 -0.9495012038350923
2918 -1.2751202127655978 -4.909625001286596 0.6819485245392621
2527 -3.4811591599701517 1.8432346213348312 -4.503736592257969
2478 3.0170984471531237 2.4475769654065545 -4.557010968808241
2675 -3.3921641529900253 -5.150902732504251 5.378244352138654
2506 2.3116602390481424 -1.5682964722323027 -8.119911043088534
2647 5.267507526516955 -3.6961961130142957 -1.850550940572013
2614 8.462238118169761 -3.3662483065820386 -0.7511160136040885
2927 -8.098090955554092 0.6254688594919063 -0.33026027139497033
2390 1.2253497639104727 -0.621480826477695 -2.6614991330596274
3427 -2.2503198480078312 2.7261492625220076 -1.750814358112211
2695 2.409707778329982 2.6728942469028873 0.5469251553223407
2950 1.2996718275170172 -6.319369140757196 -2.6934884468929154
2791 4.38997737500648 -0.017835656654421665 -3.7221623551969762
2851 -5.539825448953291 -6.44366302006681 -6.928712133771487
2652 -0.8472792266345334 -3.0891354804018505 -5.803041968024116
2835 4.556130306445092 -2.146934847357888 -2.297318148355259
2699 6.828538018299459 4.260942483048185 -3.5037368705021223
2669 10.015194805166777 -3.640015506707891 0.24841469226932492
3110 -3.315923755217299 -16.6950791568005 2.1363238419886397
2511 4.092462499788847 -6.948740720839674 8.816825674086363
2673 -1.584205498779182 1.733381719816764 10.462802695129964
2662 0.9090978460474677 3.616823821344223 1.4848280289665712
2644 -11.23006853095553 1.5544053801089592 4.1286238396585055
2681 -1.432884019668564 -6.000643451875901 -9.210790361942378
2631 -1.122546642268263 3.518732417746316 -2.653917012059755
2639 5.058225060861788 1.165041458730693 -0.5605370567985342
2696 2.2680401509175385 -5.855478838212958 -0.7049657162067013
2882 5.61395839070147 2.233525565249227 -10.643764067305653
2560 4.775517080805212 -3.760546555203571 -0.19048576074429546
2666 1.8752851823433205 -5.903623073214814 5.133884078925332
2556 -3.3718480934504362 -5.50833287656351 -3.935738653840987
2857 -2.2376604320546094 5.287389004842867 -4.081222937065814
2664 2.1822000058862745 -14.400579093684417 -0.3154177205078184
2826 2.1290328597884214 -3.7678698761163774 -6.809999502209094
2779 -12.151418559376914 -3.112763853837573 0.31980648408124007
2870 -2.4131587435191997 -8.268271287469908 -2.9660280616643546
2612 -1.2550080872641465 4.14184504260865 5.724990666569689
2690 1.6852882065187191 -4.136619268346219 2.9543381525022876
2703 10.066107444086098 -2.6169785796786584 5.279088334733168
2571 -1.6155367600478008 7.778687368692709 4.31343698424203
2914 -4.028635667497168 -3.403808293161009 4.994108410744114
2735 -5.4664147920429125 13.606239208456808 -5.211544219734816
2700 -1.0582655301062722 -0.922900624402943 0.7070770566050771
2869 -4.342629572355415 7.826352803156167 -12.386078580272873
2970 -1.7945921943565757 -10.416693148334339 3.4848866925660604
2834 3.404864421655302 -12.83162063255676 -4.540857414572556
2846 2.4123631811343564 -7.602810731328074 -7.159393439440654
2849 -0.2751407720258037 -9.300223977515357 9.984384975940761
2705 -9.946362541487222 -1.625487976178638 -2.4827754810925478
2996 -1.1445458278151432 4.594809303393022 -0.4195127853494107
2903 4.869615593768911 -1.6717437119687546 4.079498351089239
2754 5.346966200801678 -5.312847152338628 -2.1603423262944244
2587 -12.58098876692317 -7.782729519556992 9.730195851702778
2784 -0.9579846578614489 8.260822433832855 4.350143388286853
2732 4.584617356574355 1.7127961763295418 2.6728548463270645
2811 4.245469264564479 -3.1759641580709945 -3.593057803904709
2906 0.798253970091716 -9.708364572565227 -6.424388402922313
2720 0.371421341537478 -4.309536470774357 3.6669353366443884
2836 3.8697373833821502 3.0907019676065617 -6.04337113515061
2584 0.6224319576799897 -4.364933887758423 -7.70578833256895
2944 0.5528219930094985 0.4190598298855498 13.83697293088586
2840 -0.4269963433731612 -8.47487149151774 -9.305908060780082
2910 3.22361073763335 1.6187673680665124 -3.048440381619992
113 -7.105186493406345 -0.4537751487694717 -1.967062905636555
2751 6.162800806065395 -0.074373333892725 -0.3703359634054066
2847 -1.521952016523302 10.8795400593208 4.356275250818852
2880 -7.483197748966417 -7.1021729030882215 -3.7973414857550662
2730 0.3132500411029421 3.8028353517613476 6.537836005858034
2774 2.855465758400872 3.0555200168811103 0.48289205855243256
2654 3.51942266073081 -4.393245391857047 -5.806756580466784
2767 7.107849342701765 -4.829653601218501 0.16577474222347008
2753 -2.8297817833608017 -2.362965084167595 3.0779819566675117
2599 -2.4852833066601847 -11.999590623037626 -10.292544937601633
2570 3.790538051691751 1.5018823370650052 2.3800305271812245
2721 2.279071780605624 4.2685575336659465 3.428675770435471
2934 -3.1019551437332096 -2.8796578487496465 -1.0474403409950057
3198 0.23761660677808188 -0.8547259653620957 2.6028343057125793
2897 -0.6840694775803552 0.05617640272608134 1.7255820536418038
2604 -1.1670978767868303 -1.1669340125359984 0.19068979726809118
2649 -8.299422045723 9.362649927326258 -5.065773786197926
2807 8.032706508725045 -1.1869625755132014 -2.2233795103808487
2780 7.107081012887591 -7.1928038104089635 10.069181978907944
2917 -9.171371603734443 -2.859171688198351 -4.844065710099948
2550 6.796984758766232 -7.5828734377696625 -1.1040304799439278
2762 -5.221346411979409 5.999379352985244 1.0618937178428538
2929 5.85202358810523 -2.0208237183433426 -3.7441071582183
3050 4.52754581362022 1.5845336620331778 -1.4215814552914403
3231 -2.535306607820979 -0.49787720844691125 5.748745539629582
2619 1.6163675785616136 8.835098795606203 2.6165963196507196
2866 -1.9709333061382992 5.969098361302393 -8.135673211006841
3107 3.5642778967867317 -9.100257918671412 4.640376162545166
2667 2.1660514566030504 -4.514913412399678 -2.3758406990671155
2376 1.9942189423934407 10.459769371923967 2.0873667700254708
2799 -0.8534236606469767 -4.094590419169256 2.3862204567137293
2896 -5.270007143121028 -6.268978599731517 12.38110084426032
2879 3.1170956026396763 -1.9367539841958992 0.20852472352989643
2942 -4.091218116252956 -8.319583635890362 0.8347740571852306
2640 8.212958435673784 -5.195542713222329 -7.504102270490915
2757 9.407115281117266 4.507160737636337 0.08488802451199426
2794 6.942413701094564 6.573855867068252 2.864362167403734
2770 -2.8775801083352532 -7.945991397341789 -1.4077082182143885
2657 -1.5090387415321511 -1.6127960989115684 7.750545994905304
2691 0.017835995706355946 2.41395289192633 6.296900529576651
2796 9.292817864744968 -1.8503453607434988 2.835239336809832
2829 -5.309521284712223 -3.9912071113632246 0.2682868607510808
3219 4.108008173396971 -3.8083934578677274 -3.2534640743224363
2499 5.833635310523743 9.544338425491212 -6.4600601710880365
2641 0.5750521116373448 2.3617958755704542 4.570650375149836
2855 -5.658977809255341 9.477390035656397 2.8430583891126053
3423 -1.542981487396668 -3.741212216653247 -4.480096523707112
2655 -2.854474618771675 0.8934352867184169 -5.96609911623899
3241 0.9813785568798977 -2.397762445728 -0.10184869765891082
2745 0.9742353032022911 -4.814159020192587 1.7921339499956124
2957 1.584845578464316 4.208015213774716 4.812645647000466
2505 -3.062193378548741 0.6049410202268533 5.049376895283337
2939 -3.333379818821572 -9.476453499498428 -2.8314830745674717
2637 5.082170674576645 1.4906972252082125 5.44814558648716
3068 -4.790523413480432 -2.094480538181692 2.941124161557981
3037 2.232261404712282 -15.908100464328584 9.465488351512375
2365 6.3923952275295 11.917384731489623 -1.1166474316228534
2212 -2.208100015185752 -1.331282227334366 -7.991743601589742
2966 1.4211290055110397 -4.289983162523833 6.867110959109898
3117 0.03539699456020245 -0.5836272865789894 0.3021594314028756
2816 1.0798450532078427 4.506753507632253 -11.463028877299537
2887 1.2152043472180585 -1.3331077621327503 -3.807142739948222
2787 -7.170112022359379 1.3364154332335254 3.490557397807923
2820 4.5145401725352885 -0.4743957346819608 -3.4412904575419345
2832 6.2455482770720705 -0.0475465536098733 2.714537157364915
2802 0.2436472554821572 12.0074123690522 8.054774531192306
2965 -6.445896404832681 3.914096312822181 -4.442003944668714
2908 6.699670775188782 -5.6151034944298726 -2.1850037369013773
2863 -11.493027905924404 4.81180427236686 9.696691294108941
3086 -4.852059546201308 -7.2280626925935305 4.496755225748789
2651 -4.67797434556238 0.4308082023407125 1.2903905461164271
2821 -2.9339202776930584 4.175901787934117 0.5396702038570733
2912 10.26962199869007 -5.277663753292697 -1.51098162231433
3008 0.20250366253015836 0.6557925020297308 -2.2625794296646604
2989 1.6780152717997974 -0.0017720983928143509 8.167111645730671
3267 -4.550976283326361 -11.410439083711147 -3.0016414959259654
2684 -5.83857131623883 -8.289637989295587 -6.64267023764436
2789 -0.8860181221200146 -6.541128634176503 0.83189211534584
2712 -5.630253913042469 -2.3501904696481035 1.4242268991003395
3410 9.59075711942166 5.926845926411986 7.896839829730864
2711 2.4800946265239 6.6017504388019015 9.083180106285775
2423 2.8465651775098495 7.600802105502777 0.041299299087179206
3271 -1.268620295718872 3.4596121064948595 -2.5870150252800475
2724 0.9795348419177219 2.3410150417466684 0.5735188249539823
2841 0.890915324889779 1.8477199228798449 4.613859854485393
2955 -6.778543877031763 8.4886970257579 -10.37804283050641
2818 -4.031672544496891 5.72733535630916 -2.921783496741113
3112 0.9635847085749739 -4.48931434817541 1.6646177117852754
2947 -7.5368110164324875 -0.9378515948613395 -7.749329109476435
3157 6.432701047530427 10.064066812972614 6.001429935990591
3139 8.876104499356382 -4.198654349813226 -9.865594740507834
3023 -1.783430789244666 7.696254159811974 4.377743179417485
2755 2.968864324559986 -8.566318548103014 -9.491331536891602
2778 -2.365530508826288 2.0936608305844078 4.131266526328864
2959 -10.137024367802297 12.830876061722739 12.812978852883196
2760 -8.620713291853935 -7.09671525405194 0.1975694987206949
2861 -8.355124781080065 -5.057260522375755 -8.789773659738906
2694 0.3396072946670078 9.037061471145266 6.967585371996619
3143 -6.474445209801426 7.391343565928235 -2.1988746117081264
2984 -3.597102816273607 8.013088184772133 -1.0455494675572894
2865 -2.4526289590018995 0.23266593941592567 1.4645007807781945
2741 -4.248333160660834 13.55974393803591 -0.876335015016931
3047 -3.754608956364789 -3.799631304552904 -3.070435970141892
2607 8.97660506943383 2.350505580364052 -3.742598622993796
2886 -0.16504015255229118 -4.576194196827033 -4.881160588106763
2800 -0.6471156984540559 8.29915603140152 -4.956961487756305
3226 4.827698172272336 -3.765019085341419 -7.912493114238309
2900 -7.029666393887659 -4.4731748117727905 -3.438455709717876
3020 3.3887539904463804 -2.2345563709689227 5.168820796992236
3001 0.7642671616722274 -3.9397763983873855 -0.5571633006324681
2895 -5.226360476076166 -0.0209088237087185 -0.27254753882336313
3019 -7.710487003695821 -0.6160007567161025 0.3780708483026734
2952 4.444243462552752 -1.018407574266978 -1.2156796194767403
2883 3.523970288330608 -3.3445286929924487 -0.9947439179884066
3070 -9.326449985637442 7.056674638418961 -0.15334323854961546
3025 -1.5162809199901248 -2.9453214961003105 -1.3240365576839157
2659 3.9437224641527466 -6.94205558877895 -2.323130007200497
3029 2.0406637302344692 1.9716702133552857 -5.855752824535087
3021 1.9592320925311697 -9.079179455013898 2.8377995115879906
3007 -6.3438584650132945 -8.184823044226471 -10.968833319107366
2986 -1.296483810736653 -0.6015970486579827 -4.3397760215358385
2990 2.2348144351013417 3.170049464766747 0.9496018366459524
2431 -2.7486059054337346 7.138965660276824 -6.2344835777417416
2727 3.3467765866697445 7.737483172313458 -0.247505386740015
2862 -3.506352109464605 -4.390217485285455 -0.9445400649444101
2894 10.894053388660641 1.309844353814813 3.7769791326101916
3015 -3.8479214499594128 2.6109779789208143 0.6464442084553316
3054 5.854845660069523 2.4016012978948553 1.279640041888634
2901 -1.7886878095312502 11.239938562768138 -2.7497677940118166
2761 -0.10693621379704453 -4.958366571785562 0.5593576368642869
3053 8.226963887673312 -9.454209991181548 -9.504677366275176
3216 -7.8256487102649235 -6.67660540311138 7.565376609108324
2479 3.4483787238145 -8.10275188525005 1.2161447191055819
2954 6.554044311934903 -5.399700293983806 -1.8342547780287706
2744 -2.2181503103508677 1.5814240619493911 -2.0611841616341158
3077 1.1530703873342634 0.9130605462799605 -8.188743978552932
2743 -7.533564381898326 -5.9325130709585 -1.9679849386495416
2803 7.643497035454509 5.2632825132586865 -2.14656121453854
3325 1.5292328432290994 3.629267140481643 7.366008188214219
2608 4.382875782094472 0.23568684155720557 -2.809260963199943
2923 -7.86491552715473 -0.10867249095604113 -4.470092515773522
2643 2.1518418011729987 6.023528298171503 2.858838082135376
2867 -4.855174097301066 -3.7307293125634797 -1.5598755168514078
2658 4.081565310554748 -0.751554169694295 -9.647346485224475
3073 -10.717345788021003 5.189247403946643 1.4509424760459357
3236 -3.1283186674783443 5.882236920028921 -8.842100963546395
2997 16.806410782821164 10.443977124478696 -8.844737925232979
3194 8.639700864295316 -8.853309633130868 7.53657634982763
2928 -2.136113749044106 -6.759558336461732 0.8761666248208801
2827 -2.7696064752786786 5.733783524838056 -0.859259164711932
2911 -3.1435369926933863 -4.363964258425162 1.8006232276514806
2795 -11.163947451394296 -3.1975239507957505 0.9533458262695913
2981 -1.9975537872861735 -2.906616967545142 0.16635808799108182
2772 6.319612454045019 3.8280185967730134 -1.2700613627445285
3375 -0.8506155799112421 1.5413645062182153 -14.291742254739578
2913 12.004713656747597 5.47334210242522 1.8909701175494222
2804 -5.71664310854123 -3.37361105068778 5.769831108905625
2663 -5.839743435016466 6.446969621436811 -0.6333340763748182
2825 -0.9400882279646134 5.515330884081787 -11.924429836645572
3162 -0.9770600888479953 1.1031416911584024 -0.5511662419040136
2363 0.6374034947599538 3.2349647785075524 -3.6671747051236587
2809 -1.865218068201326 -0.8403851528143546 -3.603586674275921
2953 -3.3355993825676507 8.170272825131443 1.7748547558243304
2788 -4.201490335870005 8.430798945560682 -4.90012410871823
2797 8.317336825743762 3.5860229956092162 4.730664645244492
2503 -6.295832707376132 -6.3403075416924155 -0.8187863127294188
3369 5.309684664141351 2.4325488379146685 9.502994416563789
2358 3.9863952249380166 5.417497614113676 -2.0443640283974567
3082 -0.4320175614589021 0.9017895731261463 3.1263982259957652
2665 9.895102534395074 -3.777288334340769 7.418419154120228
2653 -3.665308801962775 -4.857073109851462 5.0615519331812
3059 0.6549694601192334 5.5958524602134405 1.097036956740297
2551 4.70409370838796 -8.477358891912397 -6.718919966708445
2926 6.471142925928577 -2.6047222098124814 6.697482186926898
3106 1.6164119465259692 -5.630881178013164 -4.839938323650018
2964 2.6070707333002985 -1.125167825133028 -0.2208885728320039
3116 0.2553982156202132 -0.7044608530724608 -10.310843356823206
2973 1.2166024451783493 -0.7393020889451752 -7.957481776200828
2992 -3.3009802496615337 3.6274848761728133 -1.8127415523100656
2972 6.439522984051207 1.3117085409353937 -6.680846716370899
3121 -0.47550992666206615 7.18254922972226 0.27092404445319446
3114 -8.16998231834295 6.217230764111699 -2.995950294991611
2969 -3.7713940879845436 8.005338523333522 1.5467540781207727
3087 -4.124330785234301 1.6054064665087595 -7.038557318816407
3221 -1.085358568682776 -5.036723289195121 8.260851008037138
2982 0.7431853318534194 6.746838664642443 0.12918728918479871
2985 -11.617671354957984 -3.2136258743968305 -5.413728387451303
3289 -6.753936565721561 -0.9832869629535093 2.904170527932822
2967 -1.7157840098784667 12.365498151241336 -8.097932023020395
3062 6.3712799996856 -2.0461013844238884 6.849957344560001
2968 0.9326041248270059 -13.052759331745037 0.025711177668726447
3138 -4.088059777919651 0.8977899337275549 0.9740684128461093
2853 -2.621057749877885 8.354158633905152 -1.6274671129134726
3000 3.9470937166297233 -4.189457135861748 -0.9673785688561816
3024 -3.922889733739306 1.65869233012754 0.4447136844439853
3105 -10.89975932216404 4.902763631219975 -7.180708759708966
2792 -1.3281938840644052 -3.1715835993015538 1.97641588107929
3252 -2.1708803582822367 -5.894295098963036 -6.582547474139957
2828 7.071373689777677 0.46623898578365586 -8.748648639392394
2979 11.825455859587056 -1.421936566440959 4.193112343090024
3266 6.817832641962707 8.07747484292202 5.882767883613356
3032 -6.263132177290276 2.12778222870323 -1.7032296819862345
3056 -9.983163528412298 2.5091490513439547 -7.514895879882736
2940 -9.522826773557197 1.1209545161073016 0.3752303620977165
2987 -5.00927342381287 0.9124768376382802 2.030140116279564
2991 0.21593522969233153 0.4858090105259857 -0.37112731262350607
2993 -1.4858495894644395 15.94569181908166 -10.812230423766843
2660 -3.907446450454506 6.021573435104255 5.088836036320015
3140 4.218058292030491 4.827163001339732 8.542958833215659
3115 -6.153854757281828 6.146431161187989 -2.790211076291461
2974 -6.316352025564199 2.073645996745384 -2.580655915212663
2958 -3.2090637561143263 -10.53316841353752 -0.7486614939143436
2837 7.12868713247287 5.358119039268665 -5.198085309768054
2961 0.5920951994329138 3.0999152995677712 -0.8179628636069778
3010 -4.3185115855603895 0.5645445623004526 8.484393417290564
3389 -2.3073159699852335 0.7255650182050358 1.4348674556249958
3027 0.5026252411775858 -2.81771066448439 5.40143867506109
3154 -0.33398852891103037 2.6243042329652653 -0.48767024647189877
2884 -2.644996895896442 3.9599934723375663 -4.803327263723413
3445 -4.504820540649728 4.052508137965805 9.672838461112429
3016 -3.4862413734188586 -9.466238758164748 2.009428060530138
3017 -8.583342413196323 -5.569232470490916 -0.3328829572612578
3306 -10.685986806774189 -2.143397308241601 -4.665719114523165
3005 -1.5413991818755834 -5.084279233772847 -0.06207466985026258
3292 -6.32682044440981 4.081109805479527 -1.3216349716960027
2898 -5.294789149351161 -7.015936983743108 5.018653545404651
3142 -11.67114392549491 -1.09989049947558 4.30664700233543
2978 -0.567797365378745 8.304232656136929 -4.365246871273332
2759 1.7071784716649707 6.183076461509041 7.24014363165354
3148 8.593352511909671 -2.728422463954366 -3.55524626633047
3128 -7.573888875436962 -2.082260023875153 -2.9140355770940762
3146 -0.7083615079589823 -3.6958439304411583 -4.071796683868865
3332 4.552890347859094 4.368851940121541 -8.378784143514277
3058 -5.8072964431999035 -9.862474057084265 -5.798747060695201
2960 0.9103912624911898 -1.3823733920428005 -4.484631458136567
2933 -0.7310305107820918 -10.458166245026595 2.339697018626776
3317 9.908163109235474 -1.338061132116052 -6.349058646172068
3018 -2.1556294371916427 10.553191382364222 -6.181378456030026
3052 0.32846928377587975 8.358898366769424 4.224987090027731
3034 -2.0723041342814232 -6.579522278062846 -2.840011624206343
2876 1.3402344141464801 0.07123862851656015 2.279295925362347
3160 0.11711211973653779 13.199422722810755 6.524443759374323
2763 -0.6497105724327119 -4.858783814810814 3.6980078421176867
2915 -9.447524900711898 -2.6856819879358294 -4.087966351212627
3051 7.112367093735015 14.51097777582898 9.2311630402692
2768 -1.4336539299184763 6.003449096255073 -1.4224101760298393
3099 2.978024044857311 2.355047777757312 -11.39848563716239
3217 1.2500509245816804 -3.624645698838848 -5.898966724329776
3066 -4.553105985109282 -3.1992323820069393 4.212441375673781
2783 -2.8556677578154623 1.8916134277869898 3.8937520322600836
3035 -4.473317744262027 0.8989820308640617 3.7459627414258834
2881 -5.166661735104985 -3.6926381546867137 -3.9964058787961543
3028 0.014003331687573875 4.436378124040685 -0.8107038474841679
2623 5.3462974032797295 1.4323754502590316 0.9382922297950751
2892 0.6050678673872796 -8.089775013007918 -7.948825524170839
3088 -3.6496664181476532 6.365532822914081 1.4288255196768471
3057 4.788506862012691 1.1886365289476444 -4.230280485300737
2941 -0.5015591803762797 -0.07618741609691847 -4.376475148563509
2907 6.068629760211768 -0.497519975473633 3.4562355901486423
3069 4.014068841566938 0.6169326844142985 -5.438083561811605
3237 -2.0100518266509986 6.296713253802067 5.017083205244285
3268 -4.017284455902303 -0.44969162401914864 -0.3694740142153592
3127 -3.5659445294712233 -14.759363920263539 -3.4956702586169017
3122 -1.6974765000394905 -4.552529051217362 -5.408507157508151
3253 -0.8196081880309155 -5.502688705846562 -0.43994191637821234
3260 10.00043241178676 -0.7008070460932586 3.3681156818363327
3214 -3.799122763120177 -15.474383099882536 -1.4936193705663594
2627 3.4396964077577867 -1.1974597544740129 5.315615619859122
2733 3.612439560102333 3.5142511501739118 -4.0279619122975605
2805 -2.475528113119311 -5.197292450846708 4.28236989066038
3089 -0.7883749281510747 3.432426159169226 -5.028708627970416
3199 5.664286115458422 -1.2276108802491668 3.761544668307822
3213 7.272448946428571 -4.3745972336535255 -3.9351040781230635
3071 -5.094381338669493 2.4865953034342794 -4.495618082494623
2830 11.821449549787268 -1.368837720348822 0.2927393476223474
2585 6.773326663606046 -6.533532017443913 2.381530267392588
3109 1.2291413092379329 0.8004840135994892 -0.7400270750030693
2999 3.195480109396259 -6.112871433633007 -11.425265438471024
2951 12.269180013100595 -3.35988597648178 8.152001022119066
2785 -3.2550979866970913 -2.1149606226910413 -0.08686197219280184
2680 -2.503178657364748 9.638896285667986 -0.6086579384226648
2710 -1.222254152949693 3.6146262103045323 0.9283340928576024
2909 6.123982473206048 1.3304690941824924 4.211771463019919
3094 2.0097225096437192 2.765540737875615 2.115651477662482
3091 3.7475871316897895 9.106769874183847 -0.5404123735630969
3245 4.333162514408032 0.6649755338721097 9.65112887173773
3147 -6.537873669534213 0.903772090320583 1.1530903846559257
2742 -5.407382793799103 -1.57319763728587 -4.7107268037697345
2628 1.923624492460132 -2.7569352961997504 -4.62694498330409
2962 1.722705019306627 -2.490389225744692 -2.402318512458068
3085 -2.5201805837221793 2.1640017802209774 -1.575401364354002
2920 3.8893787250773157 -6.281596276434059 4.444299789776092
2975 6.321587550417592 -0.21439534824003553 7.224030410671611
2845 -3.914655313332237 -3.635618021130479 2.6817971830944534
3104 -1.034834623700721 -7.161630612633864 -0.5001847695284943
3224 -2.7950759921990787 -6.938997184221307 -3.9270225913174968
2971 2.5749749334832948 2.9272256807562447 0.5564762528715079
2948 0.8501910113482686 4.97597305460053 -1.0740585931358702
3238 3.8433958832347606 -8.600080562188193 -7.096788471095509
3185 7.304941250220205 -4.927826251213885 0.9587864361589559
3123 -1.240929339904853 7.35493126365329 -3.9219199441318273
3129 3.7861000877557545 -1.3590575359515544 -3.809415397316569
3273 -6.433031977084699 -2.7481817996423996 -3.983728649012832
2943 11.696972310157866 -1.7222554432841448 -1.0105415568163356
3130 -0.7464777660792894 -1.1694999290099266 -4.74637338333547
3280 -4.933016480601021 -2.2131154005802753 -9.011308598094288
3278 -1.3187406753963151 7.241433309044357 11.74748625870624
3145 -6.901663886186673 -4.1180286301442095 3.357923428176895
3240 6.615092244774893 3.728085360962419 -2.153030093542532
3258 1.8014357488667585 -4.637891344160086 -2.395352043744794
3004 0.4061581206402529 -0.009773041470246926 0.5712715014546567
3334 0.8187784617271323 1.476247546689143 2.449961069623953
3046 -4.891247971492239 -2.499460744347326 -0.016647976413041696
3152 1.1530152960506819 -5.051616208598794 3.5544021044365204
2938 4.004672988911515 1.32427271678848 8.715809012489078
2956 0.624857016149122 -0.5144316387108744 -2.6434725710834877
3043 -7.756716795806794 -6.215808495483125 -11.962739802937476
3294 0.5802974432699533 6.657069687706595 -6.790275385979611
2891 2.3007315126067045 4.612123948405866 2.811586077892845
3433 -1.3447888916596504 0.09763863244100747 -3.7326450288639723
2872 -0.48751838507062245 7.920715140374322 -6.410567236448269
3108 -3.850827126890026 -2.9102323304308446 11.880028377033657
3425 -1.4578825217650084 -1.1738060762331939 -7.728517316713061
3131 1.0839369749194874 -1.540156442776685 -1.4094657161505513
2813 -0.904752380986816 -6.5792839258246625 -0.27876801981365124
3432 5.913570606663344 -10.350447309377115 9.254247330899215
3172 4.958173487459147 2.393329538376019 0.38220547151183554
3009 10.020744817299542 1.469781337610125 -1.98236968408402
3282 -0.0072913302455700655 -5.462353250972787 -10.027120629117016
3264 -6.274747930363451 -3.7593039462584663 5.565664507253163
3103 5.275012506063261 -4.9980159820353895 -1.9956156453286371
3215 4.492233865046815 13.192238551551805 0.5396313568323046
3269 -2.8195915728111367 -3.878936824202339 7.387065480323647
2814 6.984320435829331 -4.744482042267017 0.24386738664696456
3134 5.555274877902886 10.673181274953555 -2.296280824288331
3136 -1.3442421756418343 7.472172971697638 -0.4503152134338045
2902 -0.7718892990528943 7.129672688116991 0.4526726617284558
3155 -0.0071137470479373365 1.6590730425059759 0.5963261470496526
3189 -0.5337373259865333 -9.851845722891177 1.2687253111903871
2890 3.1515733164954036 -2.5950629396284626 0.2897924530044912
2998 0.2803913197884807 3.220320456536805 -7.657373764473004
3022 -3.109406881008984 -4.402079826872018 1.1668795613613072
3125 0.5680257380920265 -0.8064418133907763 -15.017923802194055
3313 2.340546079052148 -5.835978918814682 -3.4878445383192433
3190 3.01113267266584 0.2742414375159512 -2.1177269069557205
2988 12.555569065162366 5.119520455714414 -4.41574674599433
3126 -0.8481856499905917 -0.27760187830035965 1.2144805570322783
2810 -0.2970051058333173 7.39698961350601 -9.827847237789966
3165 -4.54368807662305 -0.21742323478654216 -0.535617796342044
2833 2.594812346597391 2.71538554176209 5.726493777820982
3449 3.0745717802262114 -7.929282750888702 -2.963340699600104
2737 9.588491137887594 -5.464848263962106 -4.620253933239965
3063 2.208974335380271 -3.8427504461407977 -6.496825851457682
3274 -0.27410373636236596 7.277732215248588 -1.5199271748867278
3061 -3.0441312751503076 -2.8281911003249682 2.9169284313432455
2916 -0.5269793594070461 3.006330724617794 -8.968998487510632
3048 12.64865481948187 -3.0703334315901585 2.000317280477253
3014 2.154278299784876 1.7857670603339608 -3.0884872848161566
3211 1.1826545800273858 4.768998031299327 5.366867741185273
3301 -1.2862031449210223 -12.241995535156676 -7.643745817081829
3311 7.413544528589388 -3.6126333084871955 -5.171703489935928
3076 -3.2826558096653136 11.145757749556006 -8.656987997122105
2782 -5.611351752933956 1.2485464581028223 -4.183491950254557
3191 -5.564235911885376 6.928303852106224 2.2363847380069
2764 4.9825751091231725 14.651877635776309 4.182937076533934
3357 7.670160702432912 -3.3364007848819415 7.81103030630627
3193 2.756214808104603 -0.7474374584039242 -1.1946727280717644
2739 11.938885771332677 5.25078571353561 1.1601511428396192
3222 4.8589578660631085 3.379547778046253 3.1173349770081473
2905 3.982954362850706 4.269617011567592 7.90988904120786
3186 -6.306566645389099 2.6277375244599326 6.301993479224905
3040 1.2096101062372808 -2.7436756357402694 -2.097372649359242
3033 4.592388069814507 -14.189495438388734 -6.848368799031976
2924 5.560159934615508 -0.2355534532205858 2.4723258382185054
3178 2.7785936570796888 -4.098427996182863 -1.3911869374661914
2921 1.2755025872444632 7.838997089784096 -4.99028959560877
3204 -11.82151553491218 -1.3088467582098753 14.684289529689556
3003 -4.463140283694962 3.4517378088414006 -1.7936350284216136
3353 6.421204562382778 8.775357355719644 0.23217274105971356
2752 1.7943879294554552 -7.826494101966111 -11.336978798634865
3362 6.9431509375089355 -4.030547769373201 3.6296457822308184
3235 -0.8027935904851697 -7.232735581843098 -4.7820783377545775
2976 -2.861963678081352 -1.261165699113897 -5.823468911711618
2702 4.440018580290636 -2.491448377870881 -5.678934993335749
3249 4.049933639403341 -7.098558317338276 2.3775632137544567
2946 -8.682960481143507 -0.11824213929143049 2.6110594339120894
3030 -5.432325471648823 -0.39266192346408907 -6.4415191959075155
3111 10.728368931127095 -3.000262383445994 5.666633268574887
3337 -8.58314072401324 1.564348088402632 8.285941399651936
3158 1.2534918546402058 0.9543458728003276 -2.277559029580794
3454 -5.494966930380096 -8.908194198166333 9.8210893811701
3171 -5.199902480846288 -4.096870680975161 6.355671077862607
3135 3.420013142133408 0.42403424166423886 -0.8016688740684582
2931 1.7985499899638742 3.407238839204265 -8.686874477915998
3197 11.116404990852315 -1.6028080801333577 -0.7759162515064804
2843 -10.601996994194746 2.278674478697609 -3.619640027840569
3101 2.79645655631027 3.3933173624560973 -1.7594900298080987
3397 -3.3272910856909257 9.23508833127047 -0.8202219296068983
3075 -2.277812014245136 0.9206050173449506 -0.5413328484160528
2935 -3.5653123948238776 1.7732093254162007 -1.74094414747322
3287 4.268355629650725 -0.6026653432802697 4.585425733292085
3044 -0.25513630082130573 5.352101250783885 7.00172916710548
3090 -6.195775810297392 -2.443522254090527 1.0706827863235857
2893 -1.2173904255858936 11.747272823257598 13.362323094203818
3255 -3.5157832385076158 -2.794405358280781 -1.9242602397826192
3422 1.476365270162267 1.9782450783008045 3.461320415854309
3262 4.19213612471379 0.2758010699167098 1.7751697805897808
2994 -1.3039000579309807 -12.460477966706671 0.9176877268814249
3141 3.5239713444613003 0.8781149441642797 2.6387550421809416
3409 -3.396485410260555 -5.8931285929613635 -4.446397456937263
3225 0.4748319916847568 -4.5558883233002305 -2.413641796157384
105 -9.510835237652817 -4.453677263078029 -6.262244670425226
117 -5.749141411761125 -0.3141308972172491 -0.45216198306954203
3118 2.0023444239592716 4.261577102310544 -5.384954336053063
3297 -3.025216301335893 8.939200890044228 -5.590203221925264
3443 9.845776363886992 2.5531837703561617 -4.805096693023679
3365 -9.429162009825761 6.888869823896639 4.7062972524584685
3246 3.2639435595104174 2.895551538741405 -1.881642692787724
3202 7.064945321385867 -1.128203531020571 2.116172491436741
3250 -4.396756900676309 2.6861973254645988 -0.3972313482687693
3187 -1.3350903459364045 4.828428043612875 0.8773426757116496
3188 4.587482337598039 1.7394874774498261 -0.6892912385365593
3159 1.0745103546243178 -1.925697313568123 0.4243812676974239
3312 1.7543851029585782 -7.540789088806095 0.9371267366604565
3257 -2.9887318446112032 -4.191182163005247 -5.957108256400885
3426 -1.7144661452940944 -7.719236220476222 -0.24833067259559016
3242 6.82612169371482 -3.671000890829173 -5.619707908343623
3102 -8.502103297489628 -7.738447792017975 3.3029922760775685
90 -2.0983364131378943 6.220653753566518 -11.447000015465711
3316 -3.751119109836062 1.4758003069263315 4.0677830097777505
3180 -2.9984888705801054 -0.20567080597567103 -5.108512085369251
2932 0.8025546015494666 -9.770995190837048 2.475284711879554
2983 0.8462708467887562 3.872569154712524 -3.664269020731412
3392 0.19965081094973247 -3.5246230701956365 -5.116513227837306
3300 5.293528884817536 -6.801263993692942 11.646952024261964
3167 8.26131396187974 -3.46029927586995 4.922195220801879
3119 0.018731027813328055 -3.668001948347919 -4.048700747611519
3327 -1.9985754020987636 -4.943851359221904 4.978455547845758
3394 10.305582544346782 2.4719161779233323 0.23037366496620398
2995 0.6885259520924257 -1.4978858738024123 -3.461664197816463
3450 3.130273392838292 -1.648617260863668 -6.889437967429315
3096 -5.271826130633681 -2.736842824166507 4.070089158202242
3195 1.4666029681433448 -2.1341460713802403 8.59654127675534
2945 3.1321575529789447 -11.110655430844727 -3.8414685266737596
3315 4.751170941251707 12.763927930289391 -4.575242201610683
3153 -6.674064329402866 2.7339223913925164 2.216531056245019
3290 0.14268093099022935 -7.05687829440497 2.40236955607578
3303 3.1944412747533875 -12.186479554768646 2.0942936247320527
3164 -6.487652851101615 10.477317951731795 -6.5608473253972495
3302 -8.789385340730476 8.253375910316672 -9.491672133393834
3435 -4.743076296701096 -5.3846385001145665 -0.37438654919258757
3341 6.697794512300521 1.825966422884677 1.9290387060739016
3170 8.863426028804685 0.0337758679124698 -2.390406627474987
3338 -1.7310650940202987 -0.5275628433834757 3.1061448316358864
3196 -1.5129521862179804 -0.15351097597213137 7.2182661304392015
3039 6.696128338845173 -7.042710394856024 -5.903698617161014
3041 -3.620338048804158 -2.499130489113754 -5.416820672439398
3398 -0.4457804457184065 1.5069332079768951 12.087830760312897
3209 -1.7162568238177645 10.351007043568346 -5.414050092428461
3036 8.59829415156063 -11.910777824287903 5.331823178803772
3177 -5.127584949305625 10.4702918339351 -5.918812930781045
3156 -7.045872114596676 -2.4803074141390358 -2.764751507332764
3279 -3.361179228786515 3.2010232169343977 7.498154198025187
3207 3.0764469764559323 -7.96766881046044 -1.129454494936232
2904 5.8194919343008005 8.87201297616148 3.5567680340426957
3446 4.367437601065448 -8.0198734420619 -4.438013274852774
3168 -1.7959039557829235 1.2905256425691038 6.82434259822932
3359 -2.541701597768569 3.459686298699374 -5.067719542238737
3080 0.9591760920013773 -8.390168934332811 1.062950696066595
3349 -1.86587380908357 -5.712906675339773 0.806005547561075
3320 -4.234214820341838 -2.3192007353279043 0.7734470662360972
3093 3.0199336735380315 -0.13616678880875416 4.245009801197481
2885 -6.872118213927461 1.373906646727055 -3.091073021863607
3192 -3.5135367545861085 3.220009075044809 -4.588771569102933
3149 5.608858416231505 -12.351107426984177 -3.5092462083243783
3060 -3.8186613871511885 -11.030823730030315 0.10991537277258302
3083 5.590124105828644 3.413340243674538 -2.194483507839806
3205 -5.9266477265165225 -7.813408372671784 -0.3381979270345754
3064 -3.5796703473076317 2.8849103546499175 6.041876949455022
3181 -5.611940532890111 -5.091561525363745 -6.1040381973958215
3161 -2.942170904688614 10.974920731822781 -2.170602694809407
3183 3.538867695689605 -5.162593563371948 -4.070822758031989
3326 -2.459659164520051 3.546412842700511 -3.8632758252317787
3329 1.8717918832774616 1.9132977902949502 -8.92183357354483
3206 -6.159170165132807 -0.8987172230110221 10.447294776994614
3095 -2.3376658537595927 -4.322305746709379 -1.6109485364690486
3308 -3.2995149003585795 6.049224945308164 3.245241446407502
3361 -2.5584092539144283 -1.5594352725072382 2.9519090119812392
2919 -0.740734841325159 0.560768369390234 -4.749490260131379
3100 -8.720172822658082 5.976148529529066 7.993379241017222
3124 -0.8442304468689488 0.7410307126763791 -3.154058042764546
3026 3.133576917625324 2.3897997569687592 2.2567941950328936
3406 -3.972887090039566 -2.239808536778409 1.5265239170463354
3232 4.04672953652692 -3.236120482983758 5.315137451449365
3208 3.932862778042079 3.478320344653443 3.325241015918252
3233 -2.1444901363817985 -4.810906196522548 5.688006551381409
3038 -4.645710242346372 -3.550288537191727 5.976814453579266
3386 3.8580928027563823 -0.6731380295788545 -7.7658283651071605
3385 5.856140177450067 12.054735224985532 -5.1721641006354595
3439 -9.352993506448357 5.410865259631414 -0.9509356454817235
2936 -5.194509933578107 -5.751266504730979 -7.790131772393226
3229 3.2915963080388306 -8.9299796053094 5.6806376354710535
3065 -6.911100505335533 6.782982730671103 9.245426335808965
3256 -3.384426740332594 -5.3123570711087025 3.9248327824872957
3234 2.116611369744467 -1.124581251894094 -4.125384971612137
3133 3.1206018559862025 7.285203248267917 3.938966054006842
3370 3.3765680748786546 5.013186930418771 4.340431524468948
3120 5.423247735539008 2.9364111029889615 -1.6222476787989302
3305 4.9845123999899315 1.0037865396040895 0.919594608074528
3356 2.362982347378475 -0.6858047785128414 2.263597342811528
3380 -7.351472009737222 -1.1470831902431595 -5.682721878083718
3212 11.200331726025357 13.521183494761681 3.328579882959844
3218 -0.2608743082375872 -8.641783891636454 -5.292700765564456
3259 2.2151387192050174 -5.145300950906153 5.76997760265134
3405 2.242260351455656 1.3418023783483035 -0.011056256585677151
3276 -2.2646841929904964 3.4166303088126218 6.158407888732042
3137 -1.7102805493569497 3.697221037637125 3.0674732287936255
3411 12.35892579680019 -6.265779518301298 -2.592219936180816
3092 3.849891131694501 -1.0178319342022055 2.6553946449765746
3396 8.19318451737698 -0.13761961150437338 3.932206374097282
3393 9.025482997743763 4.649472623642853 2.257690828378816
3254 5.829368940993143 3.0029958190919044 0.7724501543829986
3413 4.543729849678728 0.7435365889359579 6.131870164313159
3399 5.821367874572798 -2.415689144588601 -5.1846311015915765
3151 -0.8430877442620909 -2.2493732241267788 -4.247736473761248
3400 4.355654623543331 7.679056363829873 -2.391045066588779
3230 -5.988825048358306 6.55061945541891 2.881344879822994
3293 -0.22145533237392148 -7.561721160914591 8.255555682933773
3307 -0.3448853533295576 8.442030408820802 -2.770566784909067
3244 -7.3705766081065835 -2.144316292029095 -3.194855610205553
3261 -2.9058925688543717 1.4428497168713073 -6.605850817105115
3402 -2.9432779874104122 -6.228578160354735 -13.568127492677288
3416 -0.8213654272988676 -2.5053652026317104 -8.957619108645222
3453 -6.295565968396528 -6.432773105203623 0.17325008031264075
3412 12.386740193210567 2.5894300675611217 9.994906964568392
3310 6.653222259511705 -5.189567326466784 -6.083065633580826
3179 -7.220685027844095 -2.2946644294839857 9.48636830340056
3144 -8.21535888912152 2.4122495230144843 7.29134070213803
3286 -4.790840999126221 -5.7857199981080765 11.27019829114998
3113 -2.802460752903423 1.4372096890087724 -2.588568312718321
3175 -3.7964292199841827 5.940646046155907 8.449950687242472
3272 4.269846812655411 1.0357140838345944 -3.5390633077619684
3285 1.023497488965077 3.8196497314049624 1.4776157844366704
3419 8.559157542259012 -3.095250553246009 -5.0490352130878255
3281 -0.5809828367244768 -8.47496553922181 -1.0270031550427785
3444 0.34300347200752734 -2.4701103312473007 -9.10695678140372
3275 -8.172957047107714 -8.82172048371155 -1.980051275628971
3408 1.0812586656486316 1.067662210219119 0.30593827473375107
14 2.1581313104296767 -5.040580424439914 4.152895135050622
3284 8.289233348703448 -2.2494886744246005 1.7158510819967798
3288 -6.101766786583116 -2.2747780613636968 13.049003550318107
3429 4.179717359000889 7.518529405275676 7.14707601533571
3163 -4.680718257578698 3.6223026075220437 -4.109158485364831
3333 -2.4715401526371585 0.026405310020942742 -0.5982183906958031
3455 7.407037885052515 2.4307115850304934 -8.162465039386039
3344 -4.7581192619395125 3.0325541672509737 0.2858137016199377
2888 0.5536097099537853 -6.675634405103308 -0.06457646266377046
3173 -2.100225482115678 -7.269757896166548 5.060811767981218
3291 -2.4498283676629864 7.568698273980574 -0.7642288077976269
2899 -4.767397738915589 5.87633396923798 1.7405539443317029
3331 0.9565171445647851 6.646147297914773 -4.293985630399501
3013 -3.0366745811313347 -3.8455172101384747 9.343890148979815
3045 3.103046442274082 10.501415190467835 4.626715520552611
3031 -7.9867581211551455 9.04465249316206 -5.68350045644185
3339 -2.1203554337505843 -5.483966950614985 -2.0035269029550213
3169 0.1873076488121623 -7.839426359606379 11.850613297840244
3098 3.5107187207978647 -6.455710329856219 -0.04267342035225584
3314 1.9817737206444386 -5.818971498334694 -2.9214555193372864
3243 1.2272302921243083 1.936169352908204 1.1023737292404077
3324 -5.285711631297139 2.1546057880130935 3.6728366816251814
3342 -3.3916392501919415 6.316064805336636 -0.4851798475970067
3176 6.869859375860443 3.4792949246856386 0.253617079593927
3418 0.5319141138192579 -7.538193397429065 2.5765227068441003
3298 -5.69370060345046 -5.750655969547382 -3.911933331759374
3441 -1.2668712197567216 4.14733540903262 -11.955146303016422
3296 14.713169314262174 -9.457572345356578 -5.074447215284324
9 1.9228835325801017 6.862126732227522 -6.293552476725922
3295 -6.539503714330684 2.549058677945143 9.023404520730526
3350 -2.2593603353701335 13.323039984582765 -3.533363573408797
3434 4.8430640229155175 0.21969130642824072 -0.28065006724087266
45 1.591353249748759 -1.345786861174726 -5.7500930837392605
3442 6.075193865153426 0.9045428631179533 2.493112719514729
3382 2.6991266277370727 -3.3378998304834715 5.9664750831965065
3414 -2.801217883851919 3.200039565250013 -1.7766327671028654
3079 -0.6789436208505196 -1.1919962747024822 -0.22061167522499048
3348 0.4942905593875121 4.1457515347890945 5.216702544213639
3097 -8.705980047580704 7.672432355495462 -0.6673073373233648
3072 -8.437899647294598 4.684837413219875 6.039869914909302
3366 4.126356668676222 6.624214501684445 6.767683914201416
3200 1.08149758578455 15.108241808161116 -1.0989572810313883
5 6.711978813632847 3.2430335675873296 -0.5480224924598966
3201 -6.184555266507129 -2.179629109700483 -9.86686225659228
3055 -4.449027992202078 4.947559178196754 4.0336717374633135
3182 7.036490258505271 2.444967963400334 13.478305227780714
3345 -1.0460743309674487 -4.338422600223035 -4.820634512841558
3376 4.541727364802362 3.3803910543540696 -4.12203439144042
3330 -11.125425442493082 11.407843345937453 8.11309526603158
3042 6.365010954220212 3.542632857658966 13.058613287310402
3384 3.5244084216742313 11.882552458086716 -3.874997858143565
3358 10.646747743541182 -0.5509559982903486 0.4220566144199114
3263 2.167094083250439 -0.2978155952575009 -8.255860992913895
3430 -0.760598133188217 -6.165494617109864 -2.792546212816643
3220 0.31123460819305393 4.747625354644995 -8.646466780688332
3223 3.6795497118798215 1.40096888607627 1.0133143563838276
3387 -1.3244429600719763 -1.6240988870904782 5.251294409203561
3174 7.531248069369056 7.195100766914759 1.7277259903042115
3184 5.702182845978542 7.652894896827337 -4.5501563249031225
3084 3.237887221803101 -15.3104759838637 -1.8353979348379652
3377 4.6387266061975 4.496278058994211 -2.5562867054276293
3378 -5.512917637115127 7.145085107990785 -8.914680951045309
3381 7.147532375474511 -8.35089477902557 -4.18899530804335
3404 -0.7543853824429153 3.8442293595961456 -2.1778422051479556
3428 -1.3953000693607265 -1.461407200439065 5.927212692352673
3283 9.079264524063355 4.902060234251335 -2.9899731627558586
3407 -10.448308337382493 -10.279581126596122 9.974658174335417
3388 5.4989394167475245 -1.5354832564194143 9.097752791748356
3228 -9.772501362027752 -3.981561630027034 4.476431506024029
3437 -3.7532975643318967 -6.313636051977705 2.8653318209787075
3074 10.46421383177039 -2.207516993412491 1.6811787505641513
3081 1.8694194070039518 4.557222264759289 6.997851736325713
3078 -1.5909859963111952 -6.351740994581095 1.7216926321284411
2963 0.889188886138852 13.187881664997583 3.9600082207784757
3372 1.6290670367266795 1.4269032450678738 -2.3147842870409474
3374 -6.256302846579058 5.100182517182821 -1.6135503079426108
3351 0.7304537799367187 -11.148286297017773 4.651955420055538
3403 5.359319516816698 -4.8327381280320045 -1.3306460087873204
89 0.2247487896318057 -2.2994430758062 -7.795101190561223
118 4.790500040804456 -1.1600405025410094 0.5981198721406331
119 -2.187030232206071 -5.592521742055747 -0.1466640607106022
97 5.869822481230291 4.105763991579169 -4.893804775354087
3431 -2.243229995421898 -1.9062107052927642 -5.157279533432306
3132 0.8221030922119262 -3.1872445449361098 -10.38376679171316
104 5.7427445588329755 -5.439805580658045 -10.070722359446282
103 3.263000233587633 -2.25733421138336 -3.9495853315485108
102 -3.3855176857110414 -6.75093885444564 -12.988965509730006
101 1.6570666074821028 1.4643630489733424 0.04574381389418262
3420 6.0616688777990255 5.3530710090494065 5.34664164427645
106 0.19237195199994123 -4.723519579549354 2.8881431532400614
3438 3.372725953361364 -5.186089658292483 3.022881927799677
3390 -3.539657839771243 -1.8470118557588424 5.65254966722428
133 -1.698856890739584 7.952477465401597 0.6007014801026507
86 3.135896248093635 -1.030100569942008 -6.353203471335437
3277 4.020940756717452 -7.13603325112898 2.779485635481983
110 -1.618657774552589 -1.0070628048307855 -0.14567467761987435
115 1.6530710527978645 7.119616172422737 12.676543656784233
114 3.782416155919084 -3.239344702971166 1.6589200245608038
3447 -3.902060937333123 3.3659644509337876 5.193927029040356
139 1.4683161180082496 6.03849358296947 1.8159890212536474
3401 -12.929873773317345 -1.9895948448814595 9.680307050007608
3436 -0.8155100039642285 4.572337179668866 3.4719036949981033
141 8.4198688260115 -4.470714693138997 -1.318007148136813
122 2.2342478700523807 -7.3328028554055065 3.228997966286014
98 -6.528819255397182 5.083663657572132 8.686253339129749
121 6.996636583558762 -5.763593922533334 -0.7575803213560343
125 2.030500387318456 -8.733545512387517 7.700229646339508
6 -2.2553227821434896 -10.226703282915018 0.5000228642691257
3321 -3.082879413915549 -3.1764553463775136 4.1998073492163135
126 0.6071444432184915 8.579226865837944 8.306102793625223
129 1.9289315546711474 3.0213516574496175 -4.98686568050349
3270 -12.339393141466928 3.4238383950073255 3.513609232002066
3417 3.1670354938367598 3.6542799830022865 2.5566092237155438
130 -4.056283282932066 4.630007230853489 1.0524879409464019
3424 -4.7669843814263375 5.688370743139016 -1.6624381982268437
137 -7.104177001877996 -1.8763768621496688 -0.39355429315553603
3452 -3.040224417245024 6.092558383992855 -1.9215249236414917
3451 4.362924949922087 -0.5927914280789129 0.896237794724994
3335 6.778118359990694 2.1756840903375974 0.9612081712456753
138 -4.125385020363352 4.653924487861415 0.3977783227048108
142 -3.996473322249833 3.6721448416073863 2.9947846417391264
21 3.3907450155417784 0.9981677998213007 0.9355908329310862
1 -7.727173681340684 0.3698484676680264 -5.925447373242448
3440 0.5694708742381374 -3.926850983838631 1.3054651684085081
3336 -6.269384299429849 -6.53028559683219 5.419035369172385
3299 0.9626317308003813 7.920667223027855 -10.989331239968283
3328 0.9261053664664023 7.089251372962519 4.48606205907856
10 4.129238702361683 3.685098007709109 -7.818275245133864
3448 3.485549945254263 -9.368013188569984 -8.68328349858192
134 -18.34390165872452 -6.12469448429234 -2.25904981361904
13 -3.391767325454953 0.1108086014221694 -4.557911415083186
3304 -3.0890444299221302 7.189359840824546 2.3701637403972606
3456 7.652311920920432 8.615969523324134 4.018512220844485
22 -7.360664049779959 -0.27437652713112876 -6.985449562443461
3319 -3.7830451484641436 3.2930267318899857 9.590926312839807
17 14.842333759747289 -1.855940045264152 4.122706680577205
3360 -1.055707491359862 2.373243562862369 -2.9050720223436053
2 -3.415833465606295 -9.532942789483634 4.618474342573634
25 4.067895894675042 1.9102593318317322 -6.305951854290674
3347 -13.994448245539251 2.972178796820002 4.265730300896435
3239 -4.706222658247012 3.3785232702290293 -2.9247140882973985
3318 9.233901765147149 4.434702351133251 3.727871395564255
26 -0.5279378764621769 0.615833289296865 0.05735295828947623
29 3.6954536759474452 2.453919990975597 0.7410615603848373
3343 1.6177845589606967 1.3416569363870317 -5.519027157794104
37 3.865864805307683 -3.4483059934720037 -0.7431979860716108
3323 0.3908036336665596 5.749826348649173 -2.7800896667625232
3322 -0.47037188156622306 3.9212158678586744 3.069578813221317
3371 -8.087853496376455 11.10496402664386 0.538720553379598
41 -4.549382521653492 -9.46985411933089 7.567968013561724
18 3.671305510625913 -0.3579684899032118 -4.011586609881495
3373 -3.4418424376715495 4.631928399469142 8.218374791880692
3352 -4.7844707339358195 -1.4182767225489181 -5.137209568874959
3379 3.458626953495117 -2.9637451619078186 0.27339208334974147
3355 -8.46347387492188 0.7574413039595866 0.9802045774436842
46 0.8843626406855998 8.770192451560254 -0.5374948579760951
70 -9.671367590339816 4.169140730671166 -3.432992745974728
66 -3.315184868917852 3.1131119279478927 8.603778822094748
3210 7.976064982817024 -3.1970479259482723 1.4584012143414067
3383 -3.8570746985715987 6.155182061596006 1.801068674467753
3363 1.9958833423560296 0.09563008064566304 -12.93878956927563
77 4.79701715915474 3.97773204699165 5.496024768542607
30 -1.3992542648773474 0.16008052752806204 -9.093922317201208
53 4.670930714550929 2.954938878693924 -3.789493395857232
49 -0.9321972725433816 8.876206993724816 -4.896633590867179
33 1.0306592051115866 -2.1794919495317457 -1.2439202680037948
57 4.508846879791638 -1.2188163268764292 2.5510801843452273
3346 -0.5214054345034455 4.242194294412918 1.53667851917342
34 -10.478930327057233 3.07960499492496 6.276222254318259
61 2.957777819926462 1.5202535641290293 -1.4443827724157026
38 4.364441852913903 -3.948416726033718 -3.5794146182521582
3067 -2.2706077797241297 1.9021565417638284 9.533154692362848
3203 4.492648495403119 -0.8832935064237613 0.36112017602697605
65 4.75996379054134 -6.253885230398107 -3.3300689146761835
42 -2.4020521909284778 2.6527835750568602 8.530187907232948
3340 -0.38824625303294485 4.237407798817053 8.021434421793478
69 0.6341815790799032 4.732781683031725 4.388252415819353
3265 -1.5356659000043555 -0.3393063476135043 -5.74833251558532
50 2.1925232186930494 2.1797066134079293 5.429807283919946
3368 -1.713304690427877 4.194178238230781 10.559734267638447
3247 0.1951291330854288 5.377718539940934 -1.340069232508645
3364 7.741180583748367 -2.6686396357772537 4.842653267103686
54 -7.217254388580495 5.58434577661245 3.1561457909336936
3367 -1.5166078392078508 2.171401321097438 7.968660752474337
58 -0.6639952470812093 2.3629039291725906 5.266235362060321
3391 -2.3290369271393567 -1.3462151320620888 -6.92604103095926
3227 -4.936629780011955 -5.561945618291496 -9.308648088159545
85 -6.742870943931441 6.242907915427506 5.955507193213697
62 -5.086018058026392 -3.3581321615660302 -4.87277274044196
3354 -2.0265443125168083 7.84349564680794 -0.4348304655387022
94 -3.348953609854911 -1.898581074368672 3.220008562247507
3309 2.7639936738915347 -9.239613341814996 3.4502984394543317
3415 -3.5354356323233924 -11.251490683188306 -4.915279397041905
78 4.641871984199999 1.8788805037256193 -1.7905987711250535
73 -2.124898440674413 4.13658668000002 4.329209752224938
3248 -7.41152446153715 8.16120772664549 -0.9119758267526287
81 -5.13673901539885 -0.7312379834369359 3.374484594261542
82 4.438066530994304 0.8109143163332305 13.651777486451701
3251 5.417159251734656 8.649061386339124 -4.555218245136692
3421 3.4201228899343703 0.6387495677694275 1.9195122502268176
3395 3.1710120318325297 4.799337226671266 9.682781558346294
109 -0.15009279056676114 -2.853288359891085 1.7459079606162844
2670 0.336304774732447 5.5666829644079145 -3.764459759598369
2708 -2.1395671979893645 -2.902243696961283 7.146890398757521
2260 -7.27389935306741 -8.41064114676778 -5.517550396388605
2635 -15.801991088665606 10.244586225082571 -2.58779699672545
2686 -6.753746373135202 -3.8949534814963127 -2.5000576586940846
2697 -7.519745016383772 -6.031046124069108 -0.06746694532559326
2746 -3.340026746019172 -10.709880420126847 -6.57866072414577
3002 -3.1911038190231378 3.2703353635724413 -4.227439592386061
111 5.54453290107585 -4.871185190464336 -6.0023017596244195
2620 -0.2757298814903839 -5.805243239888697 9.091518332992088
2638 0.8802395658062582 -3.1127342944208425 2.1882358650144447
2579 3.985913399019328 2.4389285612793707 5.2777247724259535
