LAMMPS data file via write_data, version 10 Sep 2025, timestep = 67500, units = metal

3456 atoms
1 atom types

-0.27727258912345754 24.54547258912364 xlo xhi
-0.3216895407134164 24.589889540713422 ylo yhi
-1.0776244288408279 98.15042442884108 zlo zhi

Masses

1 26.982

Atoms # atomic

717 1 1.9374997416960373 2.267650508380089 1.7258744665436314 1 1 0
552 1 2.406140103555383 0.39735921131566454 -0.5501719522177089 1 1 0
690 1 0.0551865253782865 0.38683828138569476 1.8794494438799987 1 1 0
575 1 4.276590815284946 2.2875208961270923 -0.6394204529473495 1 1 0
532 1 6.828213636445397 0.34614234177744807 -0.6379309367786479 0 1 0
697 1 6.065478177072167 2.4014972972102266 1.439021450650594 0 1 0
694 1 4.243659875356358 0.26513938347085475 1.4528736448652815 1 1 0
555 1 8.699199937446899 2.2766959547992585 -0.46637228696640454 0 1 0
701 1 10.375885660805631 2.0491813049437426 1.5564142958373437 0 1 0
536 1 10.580249841423685 0.14844374298454488 -0.44095650879774395 0 1 0
674 1 8.037351441838565 -0.043718152029926516 1.7596002698287756 0 1 0
559 1 12.680644870652353 2.137677459609058 -0.51148263824111 0 1 0
678 1 12.553989131022322 0.2428561330615706 1.5686355931670142 0 1 0
705 1 14.520409768192676 2.2999315703710637 1.7973614362525367 0 1 0
563 1 16.733838371372727 2.4002511178022825 -0.4126832773466129 0 1 0
540 1 14.821959570464854 0.03812219771940961 -0.31959307249292146 0 1 0
682 1 16.756931983703062 0.45969384712474615 1.7100050932713504 0 1 0
567 1 20.91248339118546 2.78853500839222 -0.3332487837299548 0 1 0
709 1 18.860587519086934 2.298588565752303 1.5696250932642797 0 1 0
686 1 20.864926268392118 0.5465986681602656 1.672937168349843 0 1 0
544 1 18.687879440116454 0.25699573342696524 -0.3679687215014631 0 1 0
571 1 0.31501095240094634 2.260581645005233 -0.5195317729461332 1 1 0
713 1 22.970613643666475 2.323790152664706 1.6372994052019259 0 1 0
548 1 23.105110827821555 0.4732722153377612 -0.41085850306962834 0 1 0
576 1 2.2167382515943945 4.620662924587391 -0.5437307871591573 1 1 0
597 1 2.2631915781633904 6.68471526052474 1.5194998876121777 1 0 0
451 1 0.28605512017587953 6.342495631259368 -0.6604101551882613 1 0 0
714 1 0.16527071807261684 4.269077246553545 1.489464378922503 1 1 0
556 1 6.061189610798577 4.264391749279035 -0.64313777975417 0 1 0
455 1 3.9439249318247915 6.466366063035207 -0.5154421849393837 1 0 0
718 1 4.188492527308582 4.299114475641516 1.3474822875728174 1 1 0
577 1 6.187540445301421 6.256255206801737 1.3738279809506544 0 0 0
560 1 10.681164750541454 4.276103106983382 -0.7362142613574232 0 1 0
435 1 8.531221356625485 6.183082458665912 -0.6494094977635678 0 0 0
698 1 8.423475841055824 4.169620679556104 1.270197208953289 0 1 0
439 1 12.441075863510846 6.548141853627216 -0.3989429506439037 0 0 0
702 1 12.412316514438563 4.595842502090013 1.471856546207376 0 1 0
564 1 14.588007579811416 4.423518950135182 -0.2987890299741597 0 1 0
443 1 16.82659188256944 6.4150139992838735 -0.5663040410748634 0 0 0
585 1 14.723574421121812 6.469110975620376 1.4771575552082927 0 0 0
706 1 16.742140466400286 3.88572484614952 1.7655701332968476 0 1 0
568 1 18.75489070517399 4.331420593232175 -0.5536108805974805 0 1 0
447 1 21.080244565210613 6.653788118038942 -0.23105932259665052 0 0 0
589 1 18.623996024069413 6.389136558008067 1.5092672647036394 0 0 0
710 1 20.565141577522432 4.7160641176115865 1.558878406232032 0 1 0
572 1 23.044862879075254 4.700233361679993 -0.3601799375891478 0 1 0
593 1 23.10145827992813 6.457936393724693 1.8579102596880417 0 0 0
456 1 2.541498670591048 8.609695539325974 -0.5641224589403598 1 0 0
594 1 0.23578315877536593 8.688955572295367 1.7841229698407846 1 0 0
436 1 5.980685654848847 8.48187737029484 -0.48074544269103503 0 0 0
598 1 4.562195937094286 9.067601821967537 1.6983438375033426 1 0 0
581 1 10.221169104457095 6.494650652503834 1.6357582107940294 0 0 0
440 1 10.562287006386482 8.640493303265439 -0.4567449250493387 0 0 0
578 1 8.43035185946031 8.405513055270207 0.9760736714687632 0 0 0
582 1 12.512973133743518 8.34122872061641 1.805994956448529 0 0 0
444 1 14.793996385857163 8.226081837581559 -0.32379185847731395 0 0 0
467 1 16.423449320546503 10.331898464541633 -0.2149592005315092 0 0 0
586 1 16.598256936724113 8.572630569338545 1.8463857030481114 0 0 0
448 1 18.704999178372915 8.660221163217823 -0.37504284915320274 0 0 0
590 1 20.89927691132265 8.401437890908348 1.9987470449568172 0 0 0
613 1 18.8175218898849 10.379264819560067 1.6083702988619777 0 0 0
452 1 22.97178086848286 8.66101549981134 -0.20550009954671566 0 0 0
621 1 2.4148524908163216 10.801674438582022 1.893684117919431 1 0 0
475 1 0.1443453307194607 10.769053479061954 -0.3130281765554135 1 0 0
480 1 2.1414848875715027 13.005423194863424 -0.4920849345418711 1 0 0
618 1 0.3904705853348641 12.83744129156692 1.6404976829838573 1 0 0
479 1 4.244530734924756 10.822427437545146 -0.17183786476836715 1 0 0
601 1 6.529496857221817 10.94362214611641 1.4278452179176604 0 0 0
460 1 6.334947252646472 12.93187206098088 -0.2509236551512195 0 0 0
622 1 4.471374417682364 12.826829452118394 1.6658056053392287 1 0 0
459 1 8.431019563090125 10.81677460123427 -0.19296390027004806 0 0 0
605 1 10.633285872801665 10.399785823655895 1.4311586231794746 0 0 0
602 1 7.942372561665021 12.781175594375307 2.313790914231544 0 0 0
463 1 12.623870577121645 10.747008155962183 -0.21389867133690288 0 0 0
464 1 10.201139893961559 12.740500216081365 0.0536421177002111 0 0 0
606 1 12.526539994657535 12.730185474336587 1.6775675518420834 0 0 0
609 1 14.623256026233717 10.415886724887775 1.7477247188111877 0 0 0
468 1 14.514004880899439 12.695757937694491 -0.0332020215711486 0 0 0
610 1 16.151828798060663 12.603230665766056 2.128560093693422 0 0 0
471 1 20.530177804545062 10.9609619360643 -0.6247226009006369 0 0 0
472 1 17.845710896555495 12.44197604567231 -0.4724306775079906 0 0 0
614 1 20.71902765576138 12.723624842589945 1.4080540012574643 0 0 0
617 1 22.819480803138838 10.903650592480659 1.7724390086732278 0 0 0
476 1 23.10080238511187 12.999751113788918 -0.4819753586643247 0 0 0
645 1 1.995176924222176 14.97959336993746 1.8686646925489927 1 0 0
504 1 2.082310539341138 16.84642943216356 -0.21095004864337186 1 0 0
499 1 0.2984506964809671 14.661934898047633 -0.4269326059613717 1 0 0
642 1 0.3475227771173728 17.020059724053255 1.687927479624034 1 0 0
503 1 4.069244439077435 14.97589217115394 -0.36344814732807995 1 0 0
646 1 4.730151144610173 16.97038257402798 1.9977464049114038 1 0 0
484 1 6.227645483027595 17.111022750173653 -0.24818756474281545 0 0 0
625 1 6.527893606926982 14.968281659622201 1.7672186476410938 0 0 0
483 1 8.583376683223367 14.679017581206676 0.004592517316438949 0 0 0
488 1 10.487868149342967 16.916727760590014 -0.34376570435657994 0 0 0
629 1 10.336478734242936 14.879763776141376 1.7718780217965353 0 0 0
626 1 8.528416447763448 16.856482524919052 1.8515273948007063 0 0 0
487 1 12.23976878604529 14.531041935724506 -0.44985861307772224 0 0 0
630 1 12.552975958952137 16.97506070571547 1.8269370810059833 0 0 0
633 1 14.551323383655559 14.595638909223974 1.8878256794425097 0 0 0
492 1 14.454463629158035 16.503806492518898 0.07780164727677574 0 0 0
491 1 16.507225159018283 14.53643507416875 -0.5843477693623329 0 0 0
634 1 16.64176747825846 16.650919699640482 1.7176468314695383 0 0 0
495 1 21.022147951301598 14.730990661418234 -0.40905908034126404 0 0 0
496 1 18.526985570625932 16.82199516012811 -0.4022767764379892 0 0 0
638 1 20.204743163455333 16.43791291329054 1.5202183799770603 0 0 0
637 1 18.496471280554935 14.298827586027972 1.5236821691404323 0 0 0
641 1 23.23579626026799 14.994987049173453 1.6117744216478864 0 0 0
500 1 23.25486160938032 16.79090873086907 -0.27951863905866836 0 0 0
528 1 2.204450363525576 21.06896693834223 -0.5432222969752385 1 0 0
669 1 2.2947189450585084 19.076307116633807 1.6919485202153703 1 0 0
523 1 0.281043925196675 19.12581356202017 -0.4463923063170284 1 0 0
527 1 4.116724442763356 18.70701693906574 -0.4302038806649625 1 0 0
670 1 4.212447285948155 20.810766829880222 1.5517123610593004 1 0 0
649 1 6.562410093798088 19.609569985272564 1.6907297349261774 0 0 0
507 1 8.46029433254254 18.67610076310254 -0.28597697688308243 0 0 0
653 1 10.436838758914515 18.733341130838554 1.3988296501003967 0 0 0
650 1 8.623590075883106 21.239969236797243 1.9157308682102432 0 0 0
512 1 10.209974503404824 20.796449236638708 -0.2672248172203566 0 0 0
511 1 12.73038545121843 18.78894268598269 -0.4476926383300437 0 0 0
654 1 12.443429613419505 21.008772976673185 1.8568012571628394 0 0 0
516 1 14.44847428936846 21.36272585578078 -0.10141772571146013 0 0 0
657 1 14.376685907068959 18.936258164426015 1.8819716422245159 0 0 0
515 1 16.880866595846726 18.936894420385983 -0.36207304261928575 0 0 0
519 1 20.717882847447036 19.071317029282504 0.0853063555303133 0 0 0
520 1 18.499208451907094 21.043586409326593 -0.30054115539950765 0 0 0
661 1 18.757066027193957 19.11252131175666 1.7633821051617322 0 0 0
662 1 20.587445458603327 21.404736779070276 1.3295919756269727 0 0 0
666 1 0.17015932945329482 21.17059374088631 1.2956545291921358 1 0 0
524 1 23.06936947179406 21.048674541615185 -0.37984457479273404 0 0 0
665 1 23.098995536084956 19.100094235502276 1.678665979342636 0 0 0
693 1 2.386564736444658 23.046081945464202 1.4585021861326073 1 0 0
508 1 6.310920033394002 21.045216048596686 -0.4750986482188265 0 0 0
551 1 4.289852112772672 23.327321474751663 -0.3974049306330747 1 0 0
673 1 6.096710001346927 23.089309055064774 1.7115029443842156 0 0 0
531 1 8.351629810686017 23.163347953585486 -0.37042050282675976 0 0 0
677 1 10.573463737124372 23.26839033002699 1.7213504985669403 0 0 0
535 1 12.338451533251801 23.13039738294274 -0.3496944136209381 0 0 0
658 1 16.431462161999953 20.82807241607076 1.9212630743347106 0 0 0
681 1 14.543403496648937 23.139820904407394 1.8613802979513259 0 0 0
539 1 16.68355638135302 23.143050924739633 -0.3862821776662366 0 0 0
543 1 20.873173775518396 23.498567673362615 -0.10210405625647068 0 0 0
685 1 18.677124080769758 23.2166113375443 1.7204694755698022 0 0 0
547 1 0.23247805322494863 22.96332814708898 -0.42718401409821005 1 0 0
689 1 22.939230620980865 23.261675258962562 1.5613615401526633 0 0 0
861 1 2.0711511844718506 2.261998724010857 5.615515907008712 1 1 0
715 1 -0.11419135661724608 2.484591042205052 3.857487991932503 1 1 0
834 1 -0.02119119289689886 0.015229335987567205 5.888395348876053 1 1 0
719 1 4.061001302648393 2.4623467679891076 3.367748764388164 1 1 0
676 1 5.896298092849268 0.449852202347397 3.7453660737257914 0 1 0
841 1 6.225065275353745 2.538815282725597 5.462838507492369 0 1 0
838 1 3.9574114884892753 0.31865173210220377 5.748027742741619 1 1 0
699 1 8.104164554201045 2.080633720009498 3.3310450924021717 0 1 0
845 1 9.739056909154854 2.2312980669232103 5.853748321654991 0 1 0
818 1 7.874655063132893 0.32082427730346463 5.677704546234739 0 1 0
680 1 9.872036963357173 24.474969526321082 4.03449316161892 0 0 0
703 1 12.155567318832507 2.1088074320043657 3.822475178442784 0 1 0
822 1 12.366711786108784 0.1073180991894328 5.401855966144518 0 1 0
849 1 14.269910616425253 2.319523756055688 5.854198996443047 0 1 0
707 1 16.67219399674729 2.502960850672936 3.7391657183171363 0 1 0
826 1 16.53362328106887 -0.01925986600757773 5.727230580379569 0 1 0
684 1 14.398656063118828 0.010761126749182393 3.624866673945786 0 1 0
711 1 20.787055984618384 2.311146073157858 3.587143411526193 0 1 0
853 1 18.452667987884674 2.2928241737122534 5.680817445538948 0 1 0
688 1 18.76169392768658 0.48194179070745735 3.5440392325920413 0 1 0
692 1 22.829797180810722 0.22045129441803502 3.680168373071729 0 1 0
857 1 23.109708615479654 2.183526661418497 5.952351554644548 0 1 0
830 1 20.726415611331134 0.24212388261365259 5.520671802977031 0 1 0
720 1 2.0941195269254687 4.5492841291781785 3.8762376253759427 1 1 0
741 1 2.096439579970799 6.521614743423428 5.889849890708956 1 0 0
858 1 -0.02553069633821725 4.320488881066906 5.6661045344405565 1 1 0
595 1 0.4910749740838388 6.752961086445542 3.8744804999984916 1 0 0
700 1 6.06029285239827 4.3799263349783555 3.592055762490727 0 1 0
599 1 4.080187170819365 6.604625412002417 3.606899280692364 1 0 0
721 1 6.0966685566012515 6.832628411658839 5.437056859182113 0 0 0
862 1 4.222294113325889 4.685436210166378 5.7097145512359315 1 1 0
579 1 7.959944887986357 6.409254249689665 3.248885846294664 0 0 0
725 1 10.18630316495644 6.609931248799001 5.6676595759709505 0 0 0
842 1 8.084330809649176 4.356153907554019 5.6036494834276835 0 1 0
704 1 10.347308872528627 3.990722348613337 3.662017551704313 0 1 0
583 1 12.371098898375298 6.307776162269479 3.560221590856271 0 0 0
846 1 12.37099074153428 4.593751037796841 5.644567800036648 0 1 0
708 1 14.5137993504322 4.459753787501014 3.372915758131942 0 1 0
587 1 16.651900552084776 6.402043158819137 3.4935415130106557 0 0 0
729 1 14.656712829422235 6.600659337562836 5.704627524491108 0 0 0
850 1 16.36645894628412 4.458613905018922 5.995211107387022 0 1 0
712 1 18.80701464186952 4.612137718045649 3.76772913867378 0 1 0
591 1 20.792015545979353 6.572949849455519 3.799664864581419 0 0 0
733 1 18.290350347137682 6.5091869598190035 5.5222158081700785 0 0 0
854 1 20.547230779503288 4.690168162532849 5.714327606895447 0 1 0
716 1 22.897689982396322 4.333700701896623 3.8407650945208784 0 1 0
737 1 22.437476697484172 6.6852266182168725 5.9947896591639855 0 0 0
600 1 2.4793705259095153 8.720166639258073 3.6878177223334783 1 0 0
738 1 0.22996225454931207 8.599550783661076 5.800329874512097 1 0 0
742 1 4.242906186147887 8.815736892000995 5.729616516195974 1 0 0
580 1 6.713703677478615 8.802455677614203 3.6405827835188145 0 0 0
722 1 8.338380136302842 8.228227647922578 5.569205368781076 0 0 0
584 1 10.067389967619825 8.467743916600725 3.5100100643838825 0 0 0
726 1 12.164396160604515 8.160992021140302 5.46291339338637 0 0 0
588 1 14.510647705516057 8.158129180162854 3.6518710212338394 0 0 0
611 1 16.84674643463319 10.59297880537037 3.734682667493461 0 0 0
730 1 16.56571500774021 8.466857536184921 5.576751661756692 0 0 0
592 1 18.408040754559813 8.588014024056378 3.9294833337754635 0 0 0
734 1 20.65110092601587 8.59284272386438 5.850324346197516 0 0 0
596 1 23.13871844838824 8.439274720663734 3.8386607677973306 0 0 0
765 1 1.8022294094092075 10.932572443319845 5.631496230033298 1 0 0
619 1 -0.24026795443175808 10.757243287479076 3.9499644498885207 1 0 0
624 1 2.1094647485549394 13.054959572339138 3.740881573092497 1 0 0
762 1 24.479431618727197 13.023583732379628 5.949722317573742 0 0 0
623 1 4.439792224643006 10.904317441821462 3.841750899423711 1 0 0
745 1 6.479872753055566 10.76909556155224 5.810181470112071 0 0 0
604 1 5.985597881884301 12.80902177226785 3.78881402965436 0 0 0
766 1 4.048378820374389 12.852849955359446 5.5903338479335964 1 0 0
603 1 8.525328050494215 10.488812188488039 3.185953050711868 0 0 0
749 1 9.850048803958893 10.43982066357743 5.476510222104048 0 0 0
608 1 10.45811639628907 12.522585006623506 3.167025422619946 0 0 0
746 1 8.144837874255492 13.020209957145898 5.886713344794015 0 0 0
607 1 12.122018836660985 10.371952386879506 4.108613430372397 0 0 0
750 1 11.998085752210212 12.296737580560366 5.876757200329585 0 0 0
753 1 14.147375978581668 10.756197244663765 5.948404313767041 0 0 0
612 1 13.937102839395564 12.771800116818694 3.8950641310426946 0 0 0
754 1 16.145081809092247 12.57941626517488 5.412126825109758 0 0 0
615 1 21.045506789208503 10.517065705747056 3.8033857773441477 0 0 0
757 1 18.85910766791408 10.366411517328682 5.91797920591003 0 0 0
616 1 18.45058463055677 12.477575512608318 3.493878228431278 0 0 0
758 1 20.678640950706267 12.746695068876248 5.545160060435771 0 0 0
761 1 22.626197695421013 10.840355913309377 6.22223119173086 0 0 0
620 1 22.5139112244467 12.930545886821463 3.803849580225301 0 0 0
648 1 2.0705076224902963 17.17580035108508 4.033504795345869 1 0 0
789 1 1.930167714571828 15.20633799039743 5.944619426990418 1 0 0
643 1 -0.23605734490690242 14.794987881554896 4.020281925941465 1 0 0
786 1 24.503048259013134 16.926293268283068 5.733667578454397 0 0 0
790 1 3.914719701851725 16.735716792204947 5.799263090399846 1 0 0
647 1 3.98736821766696 15.189860443246955 3.4794600434939618 1 0 0
628 1 6.30028301269278 16.810299083295263 4.063809738069525 0 0 0
769 1 6.00451298060481 14.897826502278159 5.980303409031613 0 0 0
627 1 8.21109552227253 14.90377579926382 3.980891731220912 0 0 0
632 1 10.314507594225166 16.92305300151294 3.6831284951474084 0 0 0
770 1 8.014249467819313 16.564587892207335 5.9667460539363155 0 0 0
773 1 10.187609500256354 14.8775327096055 5.583517551663043 0 0 0
631 1 12.209756437157514 14.765088822252045 3.831370430286114 0 0 0
774 1 12.301832360485108 16.505147902038885 5.73083725014971 0 0 0
636 1 14.370590403174289 16.886001556830507 4.2110741441594595 0 0 0
777 1 14.324403970767973 14.71816009815495 5.977235536874166 0 0 0
635 1 16.428923111033427 14.92182806834577 4.080967986365332 0 0 0
778 1 16.602943981519502 16.649714958370538 5.873643884619013 0 0 0
639 1 20.63117389075002 14.778502253663309 3.277453237226225 0 0 0
640 1 18.660152356050155 16.771021700571836 3.496160677214303 0 0 0
781 1 18.352375631440935 14.708122032902995 5.970979313425042 0 0 0
782 1 20.547574474722204 16.29862550579105 5.925232910198797 0 0 0
644 1 22.435708480690465 16.99474706154698 3.8271581033969024 0 0 0
785 1 22.612967956406344 14.8523012966473 6.039788114955427 0 0 0
672 1 1.8872574473973271 21.030625313695914 3.6153717856717558 1 0 0
813 1 1.7883301803685043 18.888268898782236 5.942206761488915 1 0 0
671 1 4.243708620276386 19.10664067422225 3.5752281206276466 1 0 0
793 1 6.093489074655025 19.019593599042146 5.913717742254895 0 0 0
651 1 8.10972421603052 18.906457755294575 3.7797799715076685 0 0 0
797 1 10.3816081550576 18.338717742702563 5.887602312330344 0 0 0
655 1 12.32176593713423 19.218794354753292 4.276607122657473 0 0 0
798 1 11.94816766567873 20.87754046960493 6.2338400480959475 0 0 0
801 1 15.095542277154264 19.090589690468974 6.018774613572002 0 0 0
660 1 14.324714437684372 20.772202675691332 4.35304405350051 0 0 0
659 1 16.76343598494295 18.690253290592786 3.8727437581998005 0 0 0
802 1 16.670485962132126 21.016009842947092 5.858868439155343 0 0 0
664 1 18.527186047704504 20.951780733140502 3.595410662660205 0 0 0
663 1 20.597742642843137 19.02648235043636 3.559937991017688 0 0 0
806 1 20.597197084259946 21.252647586398602 6.1243945194622045 0 0 0
805 1 18.441665307753503 18.959055745038995 5.554927321495865 0 0 0
810 1 24.35060847046256 21.14544966765235 5.836072205598475 0 0 0
667 1 -0.12824712635785565 19.370176778325934 3.693658518440423 1 0 0
668 1 22.479776883376523 20.938591910889073 3.4226957252971966 0 0 0
809 1 22.648705198492216 19.20800542430031 5.578910089963038 0 0 0
696 1 2.164468178575404 -0.14613478031276148 3.402016844234768 1 1 0
837 1 1.9007248776029386 22.867770288573958 5.737914030818665 1 0 0
691 1 0.01973295995130292 23.049827070595043 3.736940621572919 1 0 0
814 1 4.162319281780162 20.801983940348393 5.838143403136816 1 0 0
652 1 6.273283725026938 20.934391086418046 3.959303343831957 0 0 0
695 1 4.034401782696718 22.91772885863479 4.020490299900629 1 0 0
817 1 5.793651797115637 23.354365386369437 6.058719497795531 0 0 0
794 1 8.195148720070664 20.677547415723716 5.887667183655215 0 0 0
656 1 10.545148668124437 20.963343874766117 3.687095473212948 0 0 0
675 1 7.828023886448161 22.92091563730135 3.9617574457246123 0 0 0
821 1 9.595196608353817 22.880093795920054 5.8378912036715125 0 0 0
679 1 12.207713517338489 22.92260021643291 4.079106562433345 0 0 0
825 1 14.403176244532032 23.260386539050472 5.829462210834214 0 0 0
683 1 16.388233391421522 23.042133206166667 3.7260612458442113 0 0 0
829 1 18.698178218228968 22.999862527638818 5.770947159691954 0 0 0
687 1 21.015271508979147 22.99256167105117 3.822208699477132 0 0 0
833 1 22.632985286122896 23.15863628333902 5.580919846275359 0 0 0
840 1 2.1325586639878327 -0.03747826222742978 7.798084545708612 1 1 0
1005 1 2.2731926048907667 2.455682236984124 10.26962367843903 1 1 0
859 1 0.2949084192821052 2.128816676787113 7.91508491301183 1 1 0
863 1 4.197232164186447 2.2544153201023693 8.054514732833226 1 1 0
820 1 6.182818610430984 0.6753515717059768 7.7260685103619196 0 1 0
985 1 6.043573139282184 2.1627554096907637 10.182228679047286 0 1 0
982 1 4.127003292996932 0.043704990185900794 9.614397229438396 1 1 0
843 1 7.98555755536902 2.317116507271092 8.202103676469356 0 1 0
962 1 7.813078550868257 0.09862161537209779 9.98156735171129 0 1 0
989 1 10.49575460769237 2.0083535214290706 9.93857781969631 0 1 0
824 1 9.761789958816111 0.2584261520517046 7.820748561122915 0 1 0
847 1 12.442667051992574 1.8714703123165983 8.025315004808695 0 1 0
966 1 12.291720240930449 -0.20750346151300564 10.32481722273942 0 1 0
828 1 14.779379715654478 0.7787917325809848 7.959411364279383 0 1 0
851 1 16.811685642378634 2.417255488579422 8.025516610827607 0 1 0
993 1 14.294143301488267 2.5612331516245583 9.964718384897333 0 1 0
970 1 16.45961307664924 0.24433435326840436 9.838622355325018 0 1 0
855 1 20.48253107614719 2.665098916228387 7.5654244702299405 0 1 0
997 1 18.383406126912746 2.322666405463453 10.212814011827554 0 1 0
832 1 18.63721676318073 0.5403740956625352 7.631226824117203 0 1 0
974 1 20.715290197747443 0.6532797769476087 9.496631254105067 0 1 0
836 1 22.77692924319831 -0.08411506315563924 8.165851323421473 0 1 0
978 1 0.4253178449713084 0.2611488806092359 10.057666667021 1 1 0
1001 1 23.260306392982145 2.0578883319719066 10.03591934327815 0 1 0
864 1 2.1183551946602073 4.250487073036112 7.648750368130418 1 1 0
885 1 1.9368411668186138 6.7811433769920715 10.147854274009232 1 0 0
1002 1 0.3814444098305346 4.497372726908714 9.880085127784302 1 1 0
739 1 -0.19071700136488512 6.284299935799016 7.971221362797062 1 0 0
844 1 6.087528453213938 4.700212787256139 7.440018972649094 0 1 0
743 1 4.206665501239887 6.590560077283141 8.028052725641293 1 0 0
865 1 6.137030624739351 6.660178262603506 10.006606371019743 0 0 0
1006 1 4.130425040771249 4.490185611227459 9.919656278276804 1 1 0
723 1 8.125470832645695 6.315922887434939 8.192243769690883 0 0 0
986 1 8.197637574107292 4.094421608802889 10.464648163253647 0 1 0
848 1 10.30877146705751 4.574512132056408 7.822489792928906 0 1 0
869 1 10.388390315882438 6.7389647411973 9.686111292724396 0 0 0
727 1 12.353672478259684 6.439997085698828 7.613666927679182 0 0 0
990 1 12.38110371216272 4.358140987779554 9.718053906403494 0 1 0
852 1 14.28918963563902 4.189044342694358 7.9062706551254305 0 1 0
994 1 16.350408587031986 4.331069440286529 9.813632065368939 0 1 0
731 1 16.445161672094926 6.669349224363675 7.723993150003844 0 0 0
873 1 14.575025512644384 6.370762501778844 9.683276796388345 0 0 0
998 1 20.56345465345575 4.007349957169513 10.014895412660323 0 1 0
877 1 18.62745984820267 6.425630384083438 10.029297411276334 0 0 0
856 1 18.60952171503385 4.57009800941459 8.082399369097013 0 1 0
735 1 20.509553366523 6.955945861064248 8.056659291709316 0 0 0
860 1 22.66369725269562 4.226026660526801 8.040547849288727 0 1 0
881 1 22.97298207860068 6.24234047806626 10.025510943442631 0 0 0
744 1 2.125283830646159 8.433938877609572 7.9211205720064015 1 0 0
724 1 6.22456459587718 8.594923030952696 7.717981758416556 0 0 0
886 1 4.227552461278218 8.63005415059117 9.942950355382179 1 0 0
767 1 4.00552440185171 10.913917590741244 7.667922347989576 1 0 0
866 1 8.149646754790655 8.69858715053647 10.069840747588078 0 0 0
747 1 8.222396814959724 11.044459099694036 7.631795459449526 0 0 0
728 1 10.436380560450079 8.885974281875207 7.624608509304881 0 0 0
893 1 10.746657528137 10.687437813218875 10.084319661877075 0 0 0
751 1 11.993959892801701 10.878902257159325 7.898242435844427 0 0 0
870 1 12.488859302601135 8.66341042656728 9.82756155910106 0 0 0
732 1 14.525372557412346 8.575644671179012 7.754579035861987 0 0 0
897 1 14.33050119151732 10.354814975631381 9.791469860219948 0 0 0
874 1 16.523400240761077 8.368669687644378 9.917523413137895 0 0 0
878 1 20.428929805597107 8.786607021238964 10.077986027640954 0 0 0
736 1 18.31778671100573 8.618198827277846 8.11329480415369 0 0 0
759 1 20.45601453185907 10.938663331474736 7.901897655373348 0 0 0
901 1 18.353637615865104 10.54817980767889 10.030736067761499 0 0 0
882 1 0.030527652428292806 8.41986868171909 9.96853114297219 1 0 0
740 1 22.54276606857647 8.789095754922648 8.030698977188873 0 0 0
763 1 -0.19614291715621002 10.683712634437278 7.796672698636801 1 0 0
909 1 2.279666030562711 10.49523706144714 9.769016988717667 1 0 0
768 1 2.0966864291799046 12.670055146016258 7.658331352229242 1 0 0
906 1 0.17542436568997233 12.421444466520256 9.957108413039032 1 0 0
889 1 6.043285304876824 10.71251922034667 9.963779711031655 0 0 0
748 1 5.8722357745585505 12.991756708378052 8.107831843363272 0 0 0
910 1 3.863876277172924 13.006697538494858 9.928062321839837 1 0 0
890 1 8.16580299356367 12.657917458813216 9.902461215658317 0 0 0
752 1 10.002296366338758 12.975413268850046 8.024168134526438 0 0 0
894 1 12.70040350835171 12.789753058655396 9.8394611015745 0 0 0
755 1 16.62167671622195 10.689319172433288 7.773007557731239 0 0 0
756 1 14.512316713075018 12.70625356529672 7.982856641936378 0 0 0
898 1 16.460876978017197 12.547731496615881 10.168148953137214 0 0 0
902 1 20.704535160447477 12.35282074819545 10.10555719594665 0 0 0
760 1 18.48162016713222 12.799553952372372 7.981758159822775 0 0 0
905 1 22.834888492482342 10.44621964508785 10.052741440002192 0 0 0
764 1 22.812563113330953 12.725525534274944 7.918008202700104 0 0 0
792 1 1.782829405195225 17.09506545530082 7.861668805440354 1 0 0
933 1 2.009669906696492 15.019926099459767 9.781105623023121 1 0 0
787 1 -0.040122203992491445 14.597183657207017 8.014267275836742 1 0 0
934 1 3.935467286032747 16.768571842645386 9.974942327258137 1 0 0
791 1 4.020132595164277 14.924171238645913 7.85778119565245 1 0 0
772 1 6.109522586746609 17.210718067224413 7.848264635118557 0 0 0
913 1 6.304303232464938 14.89020730527666 10.127369508476411 0 0 0
771 1 7.881364949173461 14.765910263220388 8.182689273768132 0 0 0
776 1 10.316342345380638 16.5751373586426 7.801467496974563 0 0 0
914 1 8.451158637966241 16.742394074666286 9.93768110726206 0 0 0
917 1 10.428500058204019 14.776720628079401 9.678134559391552 0 0 0
775 1 12.386736053459886 14.686125563445708 7.7147325301151835 0 0 0
918 1 12.35678567048382 16.930626169515804 10.244069497895795 0 0 0
921 1 14.275447984401975 14.808053310056081 9.893534684997412 0 0 0
922 1 16.541523148019756 16.685205484735917 9.730360070588166 0 0 0
780 1 14.442893526792966 16.8308974374956 7.827862883444594 0 0 0
779 1 16.40265911254687 14.51007546467805 8.063631613292204 0 0 0
925 1 18.83599384301492 14.418091303340484 9.91479958736198 0 0 0
783 1 20.7401834157571 14.72137177148594 8.001546059430844 0 0 0
784 1 18.85256797294523 17.137119813318755 7.824834639274448 0 0 0
926 1 20.616175580728807 16.577118718156832 10.184082797205274 0 0 0
930 1 24.499678531847096 16.375473011140095 10.212451587168689 0 0 0
929 1 22.571753786777364 14.387408017044216 9.84648508630666 0 0 0
788 1 22.627102565663158 16.59431069461811 8.207490264946468 0 0 0
957 1 1.8719343737983372 18.723687863217336 9.869306160476564 1 0 0
937 1 5.807840323947287 18.77336633199132 10.064493064415597 0 0 0
958 1 3.6805413712313517 20.52010602760049 9.821656746753458 1 0 0
796 1 6.6160270064196816 20.581203859059755 8.07566587267618 0 0 0
815 1 3.9131141854995644 18.773719478338215 7.7020170767981995 1 0 0
941 1 10.512165293893482 18.928944630429378 9.730368915463371 0 0 0
800 1 9.949744511668952 20.85987636917889 7.880171699851751 0 0 0
795 1 8.258865818292987 18.825767696947757 8.219132229988961 0 0 0
799 1 12.218598779603724 18.699746656876847 7.789027916036963 0 0 0
945 1 14.568790995830653 19.05087644424524 10.060780811660935 0 0 0
804 1 14.246101769525488 21.12274277806624 7.6844504404023155 0 0 0
803 1 16.769950641431436 18.74180986103383 7.853500251835225 0 0 0
949 1 18.91781382263067 18.65037428434738 10.179525747627045 0 0 0
807 1 21.20391574994344 18.67833804612799 7.677098086139871 0 0 0
950 1 20.512416909454913 21.527698232883168 9.883757100165052 0 0 0
808 1 18.519178712234677 20.945493381616302 7.93007976458556 0 0 0
811 1 24.481244134511165 18.887036509350928 7.804581389314599 0 0 0
953 1 22.8601257760997 19.094858850165878 9.928863999718233 0 0 0
816 1 1.7267067819229927 20.758596230701905 7.841704297034948 1 0 0
981 1 1.8781155977094461 22.748826764571632 10.22566525962005 1 0 0
835 1 0.038221917913215164 22.907092926799727 7.616302039402669 1 0 0
839 1 3.844324496755961 22.763627860015617 7.961020615930117 1 0 0
961 1 5.749421160892902 22.830094104437386 9.762835518849379 0 0 0
938 1 8.249690515029622 20.910481048748302 10.163938159323935 0 0 0
819 1 7.948259599324967 23.047087771364218 7.853542126489147 0 0 0
965 1 10.062324441026318 23.23027866831746 10.093484035419856 0 0 0
942 1 12.307577891780143 21.042672420490604 9.873972947581734 0 0 0
823 1 11.810506984902155 23.167357682324123 7.663874267049174 0 0 0
946 1 16.49191058750926 20.956875744445412 9.824782982053152 0 0 0
969 1 14.789277990422947 23.005010800999855 9.674328925232064 0 0 0
827 1 16.66008978976202 23.133640839470274 7.847665913536856 0 0 0
973 1 18.60148531322404 23.492195756466415 10.03255775365691 0 0 0
831 1 20.796521975159386 23.200523517469136 7.904556831537763 0 0 0
954 1 0.23459999398886178 21.036328336630014 9.698396041559999 1 0 0
812 1 22.654894598185315 21.243093364054374 7.925403795762355 0 0 0
977 1 22.83299310376973 23.09429250856946 10.063416484171864 0 0 0
1149 1 2.1486487416787363 2.3392303741382046 14.249254290957724 1 1 0
984 1 2.458138021678894 -0.009330559520334403 11.963895901278926 1 1 0
1003 1 0.4957672348487475 2.3908379669163597 12.428464057705636 1 1 0
1007 1 3.999169837519127 2.504362801758995 12.18547214215252 1 1 0
1129 1 6.168468833895846 2.060268334541784 14.057629587811562 0 1 0
1126 1 4.414302101856858 0.17621940397371944 14.243650641749339 1 1 0
964 1 6.229447100734752 0.3283399452023906 12.231746339273723 0 1 0
987 1 8.571372842464294 2.1481669320003682 12.324245852850144 0 1 0
1133 1 10.532180355583746 2.5542453856527576 13.95048506987924 0 1 0
1106 1 8.458945170603013 0.2974821044235969 14.246050093927634 0 1 0
968 1 10.401208993078951 0.14824615390101975 12.350728833755484 0 1 0
991 1 12.124850584922237 1.932996545096295 12.074306900597847 0 1 0
1110 1 12.163867429022705 0.23065081213006455 14.211969800604422 0 1 0
1137 1 14.05831662929368 2.1198098303981343 14.314841480143594 0 1 0
972 1 14.31191128269903 0.0295011163462775 12.017704319790155 0 1 0
995 1 16.21922354080521 2.0353773444422383 12.523911044960268 0 1 0
1114 1 16.410434545656187 0.21062121066134076 14.157535253338725 0 1 0
999 1 20.688412538717046 2.1242968636618174 12.182859466395374 0 1 0
1141 1 18.4158349990227 2.14063507690681 13.976160603951046 0 1 0
976 1 18.63717315924592 0.11883184517672063 12.085744173333673 0 1 0
1118 1 20.168894090768077 0.13628311565015605 14.474239433094882 0 1 0
1122 1 -0.17813152617683675 0.27711812351393084 14.051401936772859 1 1 0
1145 1 22.66737206465529 2.273985620156263 14.253411731170505 0 1 0
980 1 23.11799775652885 0.271422256943892 11.811397169464199 0 1 0
1008 1 2.091655327299029 4.715842025751369 12.223200211391635 1 1 0
1029 1 2.2530611855210103 7.040916679262767 14.564962054534728 1 0 0
883 1 -0.14104451609710172 6.62627485328949 12.15563076111535 1 0 0
887 1 4.019605594073451 6.622996636317686 12.401756636352845 1 0 0
1150 1 4.20689324281704 4.3714102718204275 14.324889367882468 1 1 0
988 1 5.867585423001664 4.531307267269322 12.077567445535454 0 1 0
1009 1 6.394225606280981 6.323484424534159 14.30384786709839 0 0 0
992 1 10.57727328898898 4.461772784809161 11.973196197963686 0 1 0
867 1 8.089446244046396 6.431339308997905 11.999116218450187 0 0 0
1130 1 8.51562663451646 4.279843018802809 14.084880893969315 0 1 0
1013 1 10.540162432194506 6.63614401130128 13.85340601586726 0 0 0
871 1 12.310814032026897 6.651597767045984 11.528222542234884 0 0 0
1134 1 12.421824202171475 4.587755034087484 14.25921560277545 0 1 0
1017 1 14.318167387262408 6.507428541047308 14.109252909603335 0 0 0
996 1 13.876963780940443 4.640690567069836 12.17839560177379 0 1 0
875 1 16.258146976521225 6.293166022431732 12.066505603361819 0 0 0
1138 1 16.477144156583094 4.099238332388343 13.985939060795275 0 1 0
1000 1 18.38229838170699 4.312692379308409 12.005233375192416 0 1 0
879 1 20.513445468750596 6.125664004365026 11.819623876548086 0 0 0
1142 1 20.781099016968597 4.306225663880034 14.195442275771534 0 1 0
1021 1 18.38784504257709 6.40786281889437 13.98767050259631 0 0 0
1146 1 0.26281574883356984 4.494784607037172 14.173788106703244 1 1 0
1004 1 22.888897245346023 4.180224782805945 11.908115370208618 0 1 0
1025 1 23.093946634626413 6.3160099236517855 14.121824425922952 0 0 0
888 1 2.270449555638657 8.444015623309435 12.100332038939376 1 0 0
1026 1 0.05876261335395927 8.678677894397639 13.89408801157013 1 0 0
868 1 6.542406925049122 8.726270615442218 12.28135167601108 0 0 0
1030 1 4.221141033497551 8.727316558714667 13.968774282351204 1 0 0
911 1 4.375824866046403 10.983326350161835 12.160445395283945 1 0 0
872 1 10.478695268217134 8.64000224113532 11.700344082786604 0 0 0
1010 1 8.452586598607946 8.40265640336822 14.128355053923231 0 0 0
1014 1 12.531222711046942 8.068587999036748 13.785984223753015 0 0 0
876 1 14.288436994550974 8.290361872771857 11.688823267489646 0 0 0
1018 1 16.404543980749743 8.354202268446437 13.730415939214046 0 0 0
880 1 18.608320880997546 8.415935589730575 12.04159011545064 0 0 0
1022 1 20.76279990981704 8.295927201445545 13.97476031052699 0 0 0
884 1 22.533604808512628 8.713542632737784 11.928384239726624 0 0 0
1053 1 2.1062783039206416 10.82926032663854 14.103707133480558 1 0 0
912 1 2.246739036704678 12.306140227929319 11.87653088070371 1 0 0
1033 1 6.398636731992133 10.619378973292582 14.333218082367056 0 0 0
892 1 6.330435564499671 12.881689841367386 11.835456729480008 0 0 0
1054 1 4.364619972323963 12.741805282236053 14.041329245302403 1 0 0
891 1 8.52941332790767 10.888392892594709 11.943279948522756 0 0 0
896 1 10.352610297153952 12.776295815756963 11.938189670628153 0 0 0
1034 1 8.194748040560588 12.952174540546304 14.025964535459172 0 0 0
1037 1 10.102905422986106 10.199358811040236 13.963521518861244 0 0 0
895 1 12.323549009261642 10.232550954832913 12.325409351747702 0 0 0
1038 1 12.567950942282877 12.455475362692427 14.548630408442122 0 0 0
1041 1 14.465431416890787 10.699757986300714 14.006914359926526 0 0 0
899 1 16.42604745716713 10.523010895679995 11.953883119368841 0 0 0
900 1 14.239995893733248 12.369289090033893 11.780872787356351 0 0 0
1042 1 16.282513496918526 12.408061449111221 14.055137153308769 0 0 0
903 1 20.645516148834602 10.224315255477988 12.32141290865722 0 0 0
1045 1 18.76228165283284 10.54204478011804 14.263875009961927 0 0 0
904 1 18.265761559316502 12.410484681512827 12.418480619798455 0 0 0
1046 1 20.676272203959535 12.727909679077536 14.31243386432224 0 0 0
1049 1 22.618789428140097 10.378183035567178 14.35207686800738 0 0 0
1050 1 -0.17689133149760056 12.856500596361535 14.257033556701225 1 0 0
907 1 0.3124600838017696 10.454867751373623 11.636443951520706 1 0 0
908 1 22.685117251669325 12.511023446694601 12.089389740144062 0 0 0
936 1 2.1346714509590865 16.6261911328645 11.797667808627937 1 0 0
1077 1 1.743109569937244 14.918313606035015 14.06990266882064 1 0 0
931 1 0.26413470641180803 14.231613199796692 11.982009088473905 1 0 0
935 1 3.952775795357913 14.438777831393512 12.110618827943297 1 0 0
1057 1 5.913627205995447 14.928652271990487 14.415155559278462 0 0 0
916 1 6.199981556636161 16.482065153238892 12.17753987103014 0 0 0
1078 1 4.111228366788435 16.850921189870263 13.926051114326452 1 0 0
915 1 8.458432289306801 14.714993085613791 11.833606071643414 0 0 0
1061 1 10.221413981145137 14.86252489267357 14.10732400991766 0 0 0
1058 1 8.056033918651268 16.601273863642014 14.169627972915684 0 0 0
920 1 10.359546908962805 16.672218450817823 12.137026225731073 0 0 0
919 1 12.548750662783583 14.470614392314996 12.211871617686107 0 0 0
1062 1 12.30531537209569 17.02810280011827 14.051219072638588 0 0 0
924 1 14.538699343928169 16.57277004401739 11.879233323916358 0 0 0
1065 1 14.502364122501154 14.477935904798157 14.118365467627038 0 0 0
923 1 16.688801317529574 14.654278253808249 12.163595034901576 0 0 0
1066 1 16.532692541951 16.402449202198923 14.423534462774409 0 0 0
927 1 20.80023218326845 14.69594028249901 12.674009445656479 0 0 0
928 1 18.619971064447938 16.39729790405387 12.271394357876865 0 0 0
1069 1 18.488388219311354 14.68710588026695 14.24781941227364 0 0 0
1070 1 20.642371643217786 16.92481104440433 14.304429856372701 0 0 0
1074 1 -0.1867251240512173 16.617442436993898 13.96482462101455 1 0 0
932 1 22.650244334982553 17.09785307918178 11.835887833664238 0 0 0
1073 1 22.733460244818538 14.616517431919458 14.55633081808486 0 0 0
960 1 1.9170972118343932 20.810754926667848 12.195740529574156 1 0 0
1101 1 1.7234031834380845 18.81943622154637 14.08932533144922 1 0 0
1098 1 -0.26155694747088515 20.651835677465115 14.00490325682096 1 0 0
959 1 3.991029928430123 18.908497922114243 11.80838517228837 1 0 0
940 1 5.979673237913146 20.888015524013404 12.127093376419673 0 0 0
1081 1 6.070570831247554 18.487809837248832 14.239475678552498 0 0 0
939 1 8.452399455771609 18.602082387099202 12.008193527333665 0 0 0
944 1 9.997681924576408 20.93284300983207 12.083405349733024 0 0 0
1085 1 10.400381011905266 18.64556577237493 13.792852126094576 0 0 0
1082 1 8.297609407128963 20.803017971194066 14.092129276227212 0 0 0
943 1 12.331084430007696 18.935327110366245 11.575209712182723 0 0 0
1086 1 12.436386196148147 20.95914819981852 14.484927208840775 0 0 0
948 1 14.4048852005473 20.796396425169412 12.150459631282583 0 0 0
1089 1 14.298440249768264 18.97731675697206 13.920544948820062 0 0 0
947 1 16.778987600908508 18.317442949178904 12.194994454665743 0 0 0
951 1 20.876282426378715 18.669061625642442 11.850175422538014 0 0 0
952 1 18.68473488674794 20.618102417117548 12.086980495717903 0 0 0
1093 1 18.54940623328674 18.855432849625643 14.225396821762383 0 0 0
1094 1 20.96760850279655 21.1250616236971 13.66109840035376 0 0 0
955 1 0.020140398694629413 18.846647510682942 12.143143813308518 1 0 0
956 1 22.951009615158398 21.142619258845755 11.892421032935069 0 0 0
1097 1 22.739110633926785 18.779401100181317 13.785959174495252 0 0 0
1125 1 2.0787632108150147 22.77538411036643 14.219602618362998 1 0 0
1102 1 4.046827191971589 21.154518655509904 14.302222730883669 1 0 0
983 1 4.223479124396828 23.04527786319482 12.35786146625436 1 0 0
1105 1 6.414623177088298 22.819617099264974 14.03895500545687 0 0 0
963 1 8.23059447708398 23.008472641658322 12.177651435504554 0 0 0
1109 1 10.337580291265642 22.73042544429866 14.272116128965047 0 0 0
967 1 12.283532851849856 22.769465458881434 12.37115676533987 0 0 0
1090 1 16.57460774199732 20.55783530907091 14.299964689065801 0 0 0
1113 1 14.317920726356622 23.10507709793984 14.224489739030675 0 0 0
971 1 16.757297136810266 22.51791836075961 12.087934052713972 0 0 0
1117 1 18.934103603393247 22.797175106173007 14.038898423340934 0 0 0
975 1 21.030714515913964 23.34763427958007 11.833191199899199 0 0 0
979 1 0.09195584193621037 23.014087207471498 12.210289424462903 1 0 0
1121 1 22.90884694221426 23.3670073847531 14.067362071567123 0 0 0
1293 1 1.642279580690222 1.839386432521434 17.835949614979377 1 1 0
1128 1 2.0014615406653506 -0.03049481253556019 16.19383317195553 1 1 0
1147 1 24.52004153772433 2.25450900367387 16.326758609042766 0 1 0
1151 1 3.963605092476513 1.807985955293237 16.36928377328424 1 1 0
1273 1 6.205904521981451 2.0644147918985896 18.294704675396037 0 1 0
1108 1 6.4104894590406865 0.2823992571948195 16.329753399185364 0 1 0
1270 1 4.290917906671319 -0.11155437740262508 18.387993574859173 1 1 0
1131 1 8.151738354494285 2.2524648441509347 16.288366611301534 0 1 0
1112 1 10.168468946650844 -0.04351526924875604 16.185856464578965 0 1 0
1250 1 8.500517377000893 0.2127374209162992 18.317103615736457 0 1 0
1277 1 10.04964538668779 2.324635218058919 18.31418024176912 0 1 0
1135 1 12.03970211358728 2.1120653196239196 16.478716380603075 0 1 0
1254 1 12.401480923317406 0.37458132768653074 18.33376235367548 0 1 0
1281 1 14.492980047051669 2.2080029580052103 18.460860647145097 0 1 0
1116 1 14.192612448758855 0.07593775363937894 16.10490898229752 0 1 0
1139 1 16.36588315852474 2.325881933241785 16.233640542279655 0 1 0
1258 1 15.930331982257071 0.1147285075167303 17.69639284579172 0 1 0
1143 1 20.573924960941532 2.0680614791077643 16.00918391110778 0 1 0
1285 1 18.414473694074722 2.2140531484163906 18.06032289895342 0 1 0
1120 1 17.987080269409084 0.32271737595679584 16.146735510624186 0 1 0
1262 1 20.536902314079832 0.2197545638532069 17.97790753821247 0 1 0
1289 1 22.58606526357002 2.268963256579419 18.266991284704904 0 1 0
1124 1 22.611587184219992 0.13438409689445302 16.131399046254703 0 1 0
1266 1 24.429781514350367 0.19900466402004302 18.204245919221776 0 1 0
1152 1 2.0337144393090214 4.340883931033608 16.10508399123084 1 1 0
1173 1 2.290762154903134 6.4806579599200065 18.101584135697394 1 0 0
1031 1 4.324629713718732 6.588540877882003 16.360615554511334 1 0 0
1294 1 3.722125679491465 3.9058355467641164 18.539581538289326 1 1 0
1132 1 5.912926918382981 4.3610405368131975 16.27388630937263 0 1 0
1153 1 6.305108893226018 6.309922708616272 18.020942831935457 0 0 0
1136 1 10.375029769236056 4.382880105531309 16.144626253048866 0 1 0
1011 1 8.059553352904251 6.2782335164449705 15.951447117678828 0 0 0
1274 1 7.95839976820036 4.351090407603789 18.187533150124892 0 1 0
1157 1 10.220349178643723 6.043038857898532 18.293260580186654 0 0 0
1015 1 12.164375698422814 6.484589221055711 16.137250850090197 0 0 0
1278 1 12.388537167683477 4.4974074387977225 18.094593559101156 0 1 0
1161 1 14.419260740517126 6.357820581197194 18.264641973553182 0 0 0
1140 1 14.351950829930281 4.19294480825099 16.35145865583544 0 1 0
1019 1 16.191605764670186 6.273496290819879 16.195617649703404 0 0 0
1282 1 16.478714900896577 4.29992007312074 17.889529460594915 0 1 0
1144 1 18.439622198193028 4.117137745818165 16.176988254243952 0 1 0
1023 1 20.354322586214302 6.316435616512665 16.076590936492302 0 0 0
1286 1 20.426119544950105 4.462964515180941 17.613955251675478 0 1 0
1165 1 18.239863773442494 6.429629598319227 17.910364665424755 0 0 0
1148 1 22.883377666853065 4.3719848369761385 16.000108263966084 0 1 0
1290 1 -0.07427217431123401 4.2575398353266 18.267605360296628 1 1 0
1169 1 22.78913287884469 6.311959706272728 17.926348796035796 0 0 0
1027 1 0.2958203975637037 6.57858928011744 16.42424874476852 1 0 0
1032 1 2.1988897716463245 8.906579696937348 16.29415030646382 1 0 0
1174 1 4.003549964170958 8.708683871226077 18.174447905744746 1 0 0
1012 1 6.2491394382281005 8.496137372816644 16.345886664126393 0 0 0
1016 1 10.175581933991674 8.542542748566056 16.32599482951644 0 0 0
1154 1 8.214848197015083 8.542548335978527 18.28180943343112 0 0 0
1035 1 8.566205807626298 10.713899840480238 16.137004235234645 0 0 0
1158 1 12.318066608306916 8.26699831042989 18.489010933204494 0 0 0
1020 1 14.303890867880451 8.664389992076842 15.922169637064336 0 0 0
1162 1 16.11975198060494 8.28036027039721 18.39328379739496 0 0 0
1024 1 18.37913310991611 8.277548651048598 15.898171684215459 0 0 0
1166 1 20.477321959121603 8.209648511355043 18.19229561922185 0 0 0
1028 1 22.867169208532047 8.416975683387902 16.349219558940753 0 0 0
1170 1 0.005834996040502027 8.675480611187357 18.254606064224596 1 0 0
1051 1 -0.10444411857706654 10.771961231967472 15.937169519434331 1 0 0
1197 1 1.8916264453989053 10.691296649987631 18.167262193806653 1 0 0
1056 1 2.012031180119244 12.980007783952647 16.081457624253026 1 0 0
1194 1 24.406623615503165 12.710891765839358 18.273723321304868 0 0 0
1055 1 4.006489096197828 10.845567483767 16.17732311182258 1 0 0
1177 1 6.303904730442875 10.69093132971532 18.09014970140487 0 0 0
1198 1 3.995536955127087 12.484349636622508 18.13116371563709 1 0 0
1036 1 6.498194635916083 12.487930991462543 16.10170335140563 0 0 0
1181 1 10.451981478856753 10.431803460826208 18.163887024657754 0 0 0
1040 1 10.219226658417496 12.902203605877 16.115053618785986 0 0 0
1178 1 8.213564094599759 12.597533874170344 18.207879675577818 0 0 0
1039 1 12.449794407267019 10.66677651401761 16.166791436452336 0 0 0
1182 1 12.189343561433011 12.78933559287243 18.375375052973222 0 0 0
1185 1 14.566315650715737 10.37825883016833 17.997478426066156 0 0 0
1043 1 16.476896761082088 10.627516045560593 15.892167571902334 0 0 0
1044 1 14.489375845557984 12.52694868216266 16.38258521323679 0 0 0
1186 1 16.52547987902379 12.636596443672781 18.15663256372014 0 0 0
1189 1 18.642629052531625 10.340585483802487 17.998799787992144 0 0 0
1047 1 20.73921298528095 10.36995405294342 16.15401651362544 0 0 0
1048 1 18.69151483094152 12.43985459182116 16.67837235609293 0 0 0
1190 1 20.71307906225605 12.728146663143187 18.202926641984853 0 0 0
1193 1 22.72552268014043 10.390711229435697 18.19182760030632 0 0 0
1052 1 22.576133658734143 12.44406174336061 16.404088142094807 0 0 0
1221 1 2.06888237564274 14.700600157352993 18.199182810907324 1 0 0
1080 1 1.970024148502107 16.948666751119973 16.295767045952214 1 0 0
1079 1 3.975258163976739 14.980773627401206 16.207026018041727 1 0 0
1222 1 3.8452859885621633 16.69695227029071 18.30521597390787 1 0 0
1060 1 6.3818055028424485 16.888771832273513 16.48317357150984 0 0 0
1201 1 5.982720220828387 14.500351538279313 18.0482191685336 0 0 0
1059 1 8.06298111639399 14.675815735147538 15.963296661869716 0 0 0
1064 1 10.41011671478566 16.571466931499458 16.020737435353137 0 0 0
1202 1 7.857187719620926 16.873164235537367 18.335059736771854 0 0 0
1205 1 9.867346028092049 14.658071704394793 18.067992607353585 0 0 0
1063 1 12.13422085757584 14.661689867563178 15.934178176595545 0 0 0
1206 1 12.218839196670535 16.565610342620346 17.968607394633374 0 0 0
1209 1 14.223844019078483 14.635299203059965 18.443160378068555 0 0 0
1067 1 16.338240076284734 14.52991126298372 16.427187058261538 0 0 0
1068 1 14.344403126785984 16.70416206936911 16.10948057860455 0 0 0
1210 1 16.07870675885802 16.608585116562963 18.370082417043754 0 0 0
1213 1 18.60575243487557 14.625564104546617 18.332487532970617 0 0 0
1071 1 20.482561618941055 14.857122734715603 16.40429520774581 0 0 0
1072 1 18.597884026677207 16.853831094326495 16.272645395078005 0 0 0
1214 1 20.533350454291416 17.02345926741006 18.47897186187592 0 0 0
1075 1 24.50841032332309 14.793360909807728 16.488051416169814 0 0 0
1217 1 22.338416677128713 14.701730301885641 18.279558213096475 0 0 0
1076 1 22.647762490988754 16.814824178382786 16.20402574162406 0 0 0
1218 1 -0.1594590387976914 17.020918328059757 18.257744217525975 1 0 0
1245 1 1.5883360077073652 18.686286219908737 18.421119702734504 1 0 0
1099 1 -0.12643872034516318 18.751279121683368 15.946982848505137 1 0 0
1104 1 1.7893052776756444 21.04546136495354 16.280404536265813 1 0 0
1242 1 0.0017218883292202114 21.02632764264402 18.352831074554445 1 0 0
1246 1 3.985473672044461 20.80286965175943 18.01147152376257 1 0 0
1103 1 4.165437425598564 18.79546481554685 16.216119888587507 1 0 0
1084 1 5.878790146361756 21.035472940686788 16.090662197400178 0 0 0
1225 1 6.0092121255000155 18.85848127016049 18.286523893618536 0 0 0
1083 1 8.248936915707638 18.52566962178257 15.993019637578325 0 0 0
1088 1 10.225096520023396 20.62634350815201 16.092325783776523 0 0 0
1229 1 10.116594470057095 18.546454605896933 17.929029062193386 0 0 0
1226 1 7.9146047816139635 20.43114429985657 17.790684075154445 0 0 0
1087 1 12.513815794457216 18.922191814696767 16.12719381152676 0 0 0
1230 1 12.339753561312971 20.977677619868004 18.229232310277432 0 0 0
1233 1 14.300704142252917 18.876732030153185 18.156209937818158 0 0 0
1091 1 16.69475783952017 18.649129093574473 16.347267829879655 0 0 0
1234 1 16.74684633569295 20.634047972442758 18.15622751614892 0 0 0
1238 1 20.393769013397524 21.044914392576466 18.381367792500686 0 0 0
1095 1 20.802959442902655 19.155266134406233 15.895192977149975 0 0 0
1237 1 18.567031081606814 18.772159428185645 18.202341178023566 0 0 0
1241 1 22.58066350788581 19.144910363403305 18.083598033203145 0 0 0
1100 1 23.124530464981667 21.060674569163673 16.363686692181094 0 0 0
1269 1 1.6761699672914887 22.93418527677565 18.180383091688082 1 0 0
1123 1 0.09836780650386806 22.980306631883337 15.942971411337005 1 0 0
1127 1 3.9709258475860505 23.094533565345635 16.289758069061712 1 0 0
1249 1 6.329563449956567 23.079118879019205 18.25829739648978 0 0 0
1107 1 8.064037956843293 22.94922188331155 16.37781552957548 0 0 0
1253 1 9.88227503709619 22.578996024454092 18.093109793300645 0 0 0
1111 1 12.000875633236788 23.25966510725211 16.60195769144399 0 0 0
1092 1 14.514465167539331 20.88621629059338 16.386877795934083 0 0 0
1257 1 14.448540604426125 23.113921304886816 18.000479568251883 0 0 0
1115 1 16.51757444085049 22.803402537762217 15.96246144045584 0 0 0
1096 1 18.89033887545957 20.886622824597893 16.171754235624586 0 0 0
1261 1 18.478561779195765 22.88456551440875 17.68388424144263 0 0 0
1119 1 21.003681006075496 22.442246122655234 16.305486737935706 0 0 0
1265 1 22.430497474950847 23.113103717455566 18.438331960299518 0 0 0
1272 1 1.8275923790916364 -0.02130333691886216 19.923506133708518 1 1 0
1437 1 1.7041999344343437 2.431596802476927 22.663516501227353 1 1 0
1291 1 -0.1320339690401572 2.135811487317569 20.02082447990131 1 1 0
1417 1 5.915266897662887 2.292138379158649 22.624352636269307 0 1 0
1295 1 3.8476127146165835 1.8082891924287816 20.528937501001597 1 1 0
1252 1 6.406892641311025 -0.02429878959512749 20.720904932921307 0 1 0
1414 1 4.043338921670024 0.07193437896641941 22.561101646698326 1 1 0
1275 1 7.9566824591305245 2.230030634367527 20.41000003193189 0 1 0
1421 1 9.750823758521772 2.083101275915738 22.294384217194025 0 1 0
1394 1 8.003941406934764 -0.041792785917644126 22.639773208267982 0 1 0
1256 1 10.182078894375646 0.19058291059370736 20.53279830498922 0 1 0
1279 1 12.027095410178589 2.3106630221602154 20.394154059877323 0 1 0
1398 1 12.181801781963514 -0.16643804664447825 22.171548932092616 0 1 0
1425 1 14.4846197138009 2.231953573769633 22.212088274767982 0 1 0
1283 1 16.460835771837914 2.234128492518506 20.132974663622715 0 1 0
1402 1 16.37624621705219 0.01074334850914005 22.06894883554532 0 1 0
1260 1 14.305263640116559 0.058648456123395865 20.03845784625956 0 1 0
1287 1 20.654265570343817 2.324593811755599 20.556125478198286 0 1 0
1429 1 18.47046991955618 2.2295752383874863 22.23136691897221 0 1 0
1406 1 20.58828578242855 0.10646176373262389 22.255038269649535 0 1 0
1264 1 18.49720028338956 0.5565054300518737 19.948838648205044 0 1 0
1410 1 -0.005360890005930707 0.19680949653680457 22.3066154966041 1 1 0
1268 1 22.398765923573997 0.5848282972344889 20.007402634686212 0 1 0
1433 1 22.465892731959407 2.0993785251631407 22.571027312727743 0 1 0
1296 1 1.7624875031010054 4.319262663346847 20.122183279625368 1 1 0
1317 1 1.6755085842705861 5.995875624079321 22.623247171307188 1 0 0
1175 1 4.2034073376089856 6.263116294799767 19.965404552866584 1 0 0
1276 1 6.115089263692114 4.2709367431228245 20.108611793195657 0 1 0
1297 1 5.684730382749824 6.278477579722751 22.36669193885117 0 0 0
1438 1 3.668355477390847 3.9800518105589973 22.363129138179566 1 1 0
1280 1 9.794465471227056 4.103389400678314 20.481850777706505 0 1 0
1155 1 8.101747352640286 6.238779125601025 20.143213241602723 0 0 0
1418 1 7.916567572114639 4.123474545366615 22.453876824989 0 1 0
1301 1 10.66909633497167 6.485943243390298 22.38632618487784 0 0 0
1422 1 12.209687959723349 4.293998228601477 22.28928150995068 0 1 0
1159 1 12.224074768939818 6.336345096080676 20.34254881919755 0 0 0
1284 1 14.358551443288674 4.055170839500206 20.242944617522255 0 1 0
1305 1 14.42924326370847 6.1473956180255485 22.311848308386253 0 0 0
1426 1 16.40757331078506 4.209838287976683 22.22148052218537 0 1 0
1163 1 16.45633810432892 6.0100683979793965 20.442553934497408 0 0 0
1430 1 20.438562835618832 4.582599364933267 22.510384108405315 0 1 0
1288 1 18.607803438543556 4.269368982116984 20.146451847711973 0 1 0
1167 1 20.693364723851126 6.440879174406532 20.23774143670462 0 0 0
1434 1 24.355157617257888 4.119298294435161 22.191826252106043 0 1 0
1292 1 22.710589203133566 4.23163693283068 20.078937754354904 0 1 0
1171 1 24.5247967308699 6.309613349168879 20.20805372145932 0 0 0
1313 1 22.69821517313663 6.43240579038391 22.21796307179853 0 0 0
1176 1 2.0048112451740563 8.370608602352926 20.306826789791536 1 0 0
1341 1 1.708700563804877 10.629596660163816 22.155255950697196 1 0 0
1318 1 3.8906553489543274 7.920743245801985 22.0217604514007 1 0 0
1156 1 6.165591953359214 8.171881913382423 20.324713524269704 0 0 0
1321 1 5.926140860174308 10.292259577609066 22.25997796497027 0 0 0
1160 1 10.378334896382045 8.55633657570098 20.09807040383962 0 0 0
1298 1 8.300008264931773 8.85373357807525 22.144089145578985 0 0 0
1302 1 12.96735041792724 8.264360914481301 22.450707179737073 0 0 0
1164 1 14.30905201387492 8.353902353438409 20.046449894744203 0 0 0
1306 1 15.849366131789592 8.612357904951251 22.5316773617883 0 0 0
1309 1 18.045279851302034 6.274480446955043 22.643277785619674 0 0 0
1168 1 18.519105482354107 8.70491087688234 20.760038023342638 0 0 0
1310 1 20.81811831141058 8.286348320598345 22.19246450640425 0 0 0
1314 1 -0.12785317777763877 8.290681252921559 21.929256124978444 1 0 0
1172 1 22.535667678224982 8.225505515006779 19.859628727622713 0 0 0
1337 1 22.48546249164044 10.510053667526105 22.44445666655664 0 0 0
1200 1 1.6222800031256737 12.795703276481728 20.085034850115836 1 0 0
1338 1 -0.21535962010109433 12.216854697332394 22.361518086729124 1 0 0
1199 1 3.835728669696368 10.530762762315513 19.989595606620746 1 0 0
1180 1 5.852900801021456 12.728952048000862 20.002008973917487 0 0 0
1342 1 3.8622794001382728 12.442852286282804 22.630471401335885 1 0 0
1179 1 8.234483031744748 10.422369124093823 20.1576903774172 0 0 0
1322 1 7.800217658229014 12.219997008661057 22.10153080865801 0 0 0
1184 1 10.060044786206229 12.596837718864627 20.498998037532267 0 0 0
1325 1 10.026307834378922 10.813627399774358 22.438826195443298 0 0 0
1183 1 12.486457518419462 10.374005762382525 20.22495818139607 0 0 0
1326 1 12.224558534109748 12.63704362416384 22.531114521793892 0 0 0
1329 1 14.218285291413698 10.582758815820743 22.141125601212323 0 0 0
1187 1 16.4341837503476 10.362003824257586 19.916244324216017 0 0 0
1188 1 14.088867762755907 12.686372095468714 20.329446232030385 0 0 0
1330 1 16.392226848583185 12.46249899363229 21.93389293414521 0 0 0
1191 1 20.597124228283498 10.464037798676054 20.50325614729241 0 0 0
1333 1 18.11336523494201 10.463626059176955 22.596703131452447 0 0 0
1334 1 20.43009751526867 12.411199035437548 22.555913995709588 0 0 0
1192 1 18.45674461968963 12.522866979466547 20.463713867100946 0 0 0
1195 1 24.50709650264855 10.559207963560045 20.198679234721837 0 0 0
1196 1 22.376749665551515 12.772525161257516 20.374873578600983 0 0 0
1365 1 2.0339089190697934 14.41245120044755 22.054752622255126 1 0 0
1224 1 1.9633743593501083 16.678867587205907 20.339823114709525 1 0 0
1362 1 -0.14567622787469353 16.78156921747167 22.254316665947165 1 0 0
1219 1 24.439104587310425 14.690634510124713 20.310354277167377 0 0 0
1366 1 3.615990329166384 16.35766427172316 22.56639599794303 1 0 0
1223 1 3.8004390712850693 14.761054127314406 20.096690886491174 1 0 0
1204 1 5.8501713756145195 16.555530876133595 19.84643729767027 0 0 0
1345 1 6.051834099828054 14.6956733877311 22.00143831327412 0 0 0
1349 1 10.325820074915923 14.74312197066791 22.250576619166086 0 0 0
1203 1 7.846647579706898 14.480960480916702 20.16837015625397 0 0 0
1208 1 10.077484436733515 16.697882087952294 19.984232078800304 0 0 0
1346 1 8.38906162343635 16.60954782742465 22.14236313582427 0 0 0
1350 1 12.39238667444098 16.87832487593745 22.508036003280097 0 0 0
1207 1 12.054377366499484 14.68197364581091 20.06800099469171 0 0 0
1353 1 14.56304381436007 14.610645898945506 22.58520254019593 0 0 0
1212 1 14.493109475388428 16.67141170827663 20.49085414553412 0 0 0
1354 1 16.437865815291275 16.685175559975562 22.422432250693557 0 0 0
1211 1 16.71861808591982 14.680334610102472 19.99402702977633 0 0 0
1358 1 20.903584664385185 16.51644997024885 22.212812799401394 0 0 0
1215 1 20.334415444740088 14.65682451422307 20.381000034413837 0 0 0
1216 1 18.617244837960513 16.681367334196786 20.29258066754544 0 0 0
1357 1 18.033049667477293 14.705548239910746 22.39996197752759 0 0 0
1220 1 22.623259583484476 16.88094849170325 20.138362249659746 0 0 0
1361 1 22.594865464229095 14.290292122914883 22.518141133277418 0 0 0
1248 1 1.9018129616365864 20.81011067314244 20.322254192323175 1 0 0
1389 1 1.7395224598509254 18.778821774608673 22.573798706877298 1 0 0
1386 1 24.52309002341117 21.11315353529892 22.284826991704943 0 0 0
1243 1 -0.19464970321130676 18.982172509295424 20.359230585429646 1 0 0
1390 1 3.773308649314769 20.934349123928257 22.288800900723164 1 0 0
1369 1 5.54650673890804 18.817334141618687 22.123464909722088 0 0 0
1247 1 3.8076470836623155 18.948898687049137 20.022365279243928 1 0 0
1228 1 6.337078717312158 20.729115467931813 20.194473446651685 0 0 0
1370 1 7.756024450845258 20.570224268033392 22.487332090508893 0 0 0
1227 1 8.005354410162548 18.772473593141285 20.329190408782548 0 0 0
1232 1 9.992114143484399 20.626720669193134 19.775488168432556 0 0 0
1373 1 10.308470316553366 18.852448698881894 22.119896196801463 0 0 0
1374 1 12.196748120795228 20.86638662837005 22.366451285390465 0 0 0
1231 1 12.258122561698412 18.32633635399432 20.39399335893853 0 0 0
1377 1 14.42132796410183 18.83297239607903 22.416595011227216 0 0 0
1378 1 16.580597467494464 20.68603321384345 22.479953482780733 0 0 0
1235 1 16.149146212948665 18.633597740528614 20.3662917783591 0 0 0
1381 1 18.751473269345773 18.49608075380818 21.930216184668623 0 0 0
1240 1 18.209856401976715 20.78451963434506 20.19519155182687 0 0 0
1239 1 20.920610501869 19.11754275472598 20.169951748382857 0 0 0
1385 1 22.666409238488598 18.76233253123874 22.42761639516945 0 0 0
1413 1 2.0688776672814773 22.93029298640638 21.969447649881314 1 0 0
1267 1 -0.2585431560999497 23.382385209573364 20.30856556066311 1 0 0
1271 1 4.074747587980209 22.754104506185428 19.929973688119148 1 0 0
1393 1 5.863834564858556 22.923791280070326 22.379318249088165 0 0 0
1251 1 8.32038883522736 22.633752547005876 20.404553285627774 0 0 0
1397 1 10.554709266265702 22.526851156514333 22.473782265708007 0 0 0
1255 1 11.970120846653277 22.965643872843117 20.207226565917438 0 0 0
1236 1 14.222200447552295 21.11753687732034 20.094659260242317 0 0 0
1401 1 14.597568694667062 23.021665489307097 22.32708083279064 0 0 0
1259 1 16.73097777817422 23.301941005682167 19.73129915003366 0 0 0
1382 1 20.409671893774963 20.963586743638956 22.556403087386215 0 0 0
1405 1 18.021522879580438 22.945554002856234 22.312156987094394 0 0 0
1263 1 20.30993601737527 23.07793320422185 20.14245753996495 0 0 0
1244 1 22.8357074646433 21.13866376285192 20.387900546125252 0 0 0
1409 1 22.513687488841597 22.93988102916672 22.262736541257922 0 0 0
1416 1 1.8268990825169236 0.06563057574504 24.421838620891943 1 1 0
1581 1 1.9601531035164492 1.8403690885666988 26.51062025808948 1 1 0
1439 1 3.659655322755429 2.090178642481629 24.312115759671503 1 1 0
1561 1 6.063302946702689 2.195196468767787 26.41280278312239 0 1 0
1396 1 6.081397732093481 -0.09659632122425704 24.922238014149183 0 1 0
1558 1 4.1516597847981735 0.11444350304783513 26.551046366542444 1 1 0
1419 1 8.235019412782476 1.9554163886510416 24.427463778556138 0 1 0
1565 1 10.21679788091705 1.9583402850869946 26.290731999176757 0 1 0
1400 1 9.978599669626135 -0.09046086328260419 24.398209460595343 0 1 0
1538 1 8.104899623767594 -0.29535701729848873 26.484726196776993 0 1 0
1423 1 12.413621011332665 1.9004470785151848 24.238175714824816 0 1 0
1542 1 11.959834344888234 0.2555523160329546 26.56176645240846 0 1 0
1569 1 13.741858397654143 2.5360095795604116 26.270313089910104 0 1 0
1427 1 16.423894519188515 2.304170897482068 24.6136073442381 0 1 0
1404 1 14.802075674924403 -0.09277787656033931 24.412973942375693 0 1 0
1546 1 16.671577891626654 -0.05554034950384723 26.01547927509219 0 1 0
1431 1 20.474848837784442 2.203149001563622 24.36638901072687 0 1 0
1408 1 18.327386389578784 0.39403858658389423 24.131467610808738 0 1 0
1573 1 18.408324125454754 1.954454897352762 26.491941729053845 0 1 0
1550 1 20.46469486208013 0.2711219449294566 26.313233211446022 0 1 0
1435 1 0.08194300085703543 2.2797384952621598 24.746993262359897 1 1 0
1577 1 22.72425226808987 2.250351495574056 26.392542369448133 0 1 0
1412 1 22.46771611207688 0.0943959004155871 24.50053372681323 0 1 0
1554 1 24.377486913126724 0.2605602236322957 26.4435525641369 0 1 0
1440 1 1.8935509398360502 3.9820545525861615 24.920435302991056 1 1 0
1461 1 1.9851230439457512 6.159101231532194 26.68453632552742 1 0 0
1319 1 3.8760760161905043 6.096316952824284 24.842283895628796 1 0 0
1420 1 5.840077774035115 4.432842227563139 24.884393294692252 0 1 0
1441 1 6.009611618424162 6.511160318001828 26.587919639485698 0 0 0
1582 1 4.103041903284334 4.0600254992063585 26.97074234726928 1 1 0
1424 1 9.904775805877009 4.214211169333919 23.984081247583827 0 1 0
1299 1 8.075111580998703 6.3882219408573135 24.63143201020575 0 0 0
1562 1 8.287221645047216 4.1311431919898896 26.451745872985263 0 1 0
1445 1 9.968043813029608 6.160990497082622 26.294684123748304 0 0 0
1303 1 12.33657611765599 6.56717013206289 24.604780172684368 0 0 0
1566 1 12.032966880691768 4.5161097344953784 26.735560621922254 0 1 0
1449 1 14.2444601471772 6.362008652695204 26.748725269161824 0 0 0
1428 1 14.236245586023555 4.538387848445049 24.14805245409921 0 1 0
1336 1 18.14462360350283 12.814885807492718 24.496859083657736 0 0 0
1570 1 15.711996632766047 4.146431234868503 26.53667093239603 0 1 0
1432 1 18.450006412333472 4.127022513887123 24.549206760293707 0 1 0
1311 1 20.67288612159311 6.260864711207093 24.51286849836456 0 0 0
1453 1 18.106907391234756 6.571425594748757 26.77508174814442 0 0 0
1574 1 20.40229388490252 4.202224912928529 26.668655274526095 0 1 0
1315 1 -0.06903520578433825 6.10586366752361 24.420398269439055 1 0 0
1436 1 22.39310867590573 3.875013867870339 24.35897298163326 0 1 0
1578 1 -0.008742898693884116 4.490157174112668 26.772121840388838 1 1 0
1457 1 22.577328146673167 6.285725174849906 26.398987479027493 0 0 0
1320 1 1.920504114374264 8.10870634621602 24.276937215961755 1 0 0
1485 1 1.970610941888307 10.056452158409762 26.30938754185413 1 0 0
1343 1 3.4450325071798655 10.180051992759443 24.197900659289132 1 0 0
1300 1 5.870397865569994 8.100772092125242 24.375742828671722 0 0 0
1462 1 3.9349151044393462 8.385881869119483 26.57563755229361 1 0 0
1465 1 5.834014619802737 10.813170326746723 26.873013574289633 0 0 0
1442 1 7.875410094179303 8.419302588251668 26.542859518402786 0 0 0
1304 1 10.25460900120602 8.22828394666331 24.33947931987522 0 0 0
1446 1 12.235539536679658 7.902414919364384 26.87691757950787 0 0 0
1308 1 14.238593338487554 8.783435121929955 24.81807321656512 0 0 0
1450 1 16.490042505714953 8.924202415790809 26.447487051653273 0 0 0
1312 1 18.76424327647122 8.11565868418348 24.435900272037728 0 0 0
1454 1 20.225352244054967 8.400319243230161 26.593532213865853 0 0 0
1477 1 18.331731319791942 10.392886778201326 26.79709141453835 0 0 0
1458 1 0.03136548707228737 8.09534421432938 26.454412531876788 1 0 0
1316 1 22.755358815313116 8.326812450286894 24.039318038488005 0 0 0
1339 1 24.443141950993798 10.12478097143544 24.664693175684942 0 0 0
1344 1 1.7608476265932085 12.561082440340252 24.647500245029303 1 0 0
1482 1 24.119195136713635 12.03438109625005 26.599840556952362 0 0 0
1324 1 6.071726042342175 12.3716147994595 24.40535238855141 0 0 0
1486 1 3.636547314979873 12.208351154317336 26.44691363165295 1 0 0
1323 1 7.575256135762882 10.133643188637201 24.375902662649633 0 0 0
1466 1 7.97665437112491 12.796964752111782 26.40203964456875 0 0 0
1328 1 10.111766063692137 12.566746933097477 24.243015900804796 0 0 0
1327 1 11.85427293299686 10.34273941374161 24.429936731956957 0 0 0
1469 1 9.772711753857825 10.18602834624263 26.300025065280376 0 0 0
1470 1 12.203881138376563 12.725905609722057 26.369317691391384 0 0 0
1331 1 16.052130338651814 10.736444992873855 24.616124253564763 0 0 0
1332 1 14.015977710078516 12.481729559680616 24.47941489511114 0 0 0
1473 1 13.980585760959567 10.682114675367417 26.624825956000432 0 0 0
1474 1 16.224426237641836 12.715030182160081 26.623289497780952 0 0 0
1335 1 20.34947856282325 10.392028439756384 24.467319362119472 0 0 0
1841 1 22.432169285578624 23.160880758829492 34.38357144477469 0 0 0
1478 1 20.198266554790848 12.26369728514033 26.527205574629505 0 0 0
1481 1 22.136438589969046 10.15541259159271 26.607707038535 0 0 0
1340 1 22.497406493838263 12.282366272107042 24.697328149626664 0 0 0
1363 1 24.412428349848426 14.69257565464016 24.664685350536345 0 0 0
1509 1 1.255004325550897 14.548598256690328 26.57342268630516 1 0 0
1368 1 1.5514994554853023 16.5452308219229 24.49297879055027 1 0 0
1489 1 5.469640738726392 14.292087194886879 26.277481159187282 0 0 0
1367 1 4.167836244371554 14.44003798729521 24.237835928324092 1 0 0
1348 1 5.620787587072495 16.60111603118964 24.326938083143734 0 0 0
1510 1 3.783112612403671 16.529157721607532 26.69357353908236 1 0 0
1347 1 8.134323545912475 14.412562366029402 24.388188758007512 0 0 0
1493 1 10.078203518534917 14.322731576501937 26.63330380001121 0 0 0
1352 1 10.281143560641464 16.332119552120588 24.677607936579584 0 0 0
1490 1 7.871582675242882 16.07080839668508 26.549495540474428 0 0 0
1351 1 12.38275782189672 14.908018815136431 24.2272990461268 0 0 0
1494 1 12.0372661873024 16.691583441208472 26.32849300871905 0 0 0
1355 1 16.44711689238573 14.7938017190174 24.606626077669652 0 0 0
1356 1 14.158468528257064 16.909355052064022 24.754863994315144 0 0 0
1497 1 14.167494656418452 14.928158271727677 26.461326409060202 0 0 0
1498 1 16.15496524773944 17.10640616470878 26.97172808201057 0 0 0
1359 1 20.19190524652891 14.201937393575305 24.208659458607038 0 0 0
1360 1 18.704491804248605 16.845027026078398 24.5234643097465 0 0 0
1502 1 20.756844036661796 16.292784469833215 26.210412892268266 0 0 0
1501 1 18.339868223244963 14.768212668969488 26.645609705024114 0 0 0
1506 1 -0.028895545358794933 16.86279322562777 26.659462991296706 1 0 0
1699 1 -0.24409103552293537 22.724661433684815 32.68943120229421 1 0 0
1505 1 22.415109721935416 14.180442757767285 26.511097907460332 0 0 0
1392 1 1.715587622290578 20.891671513913735 24.384190814014218 1 0 0
1533 1 1.9129763498610357 18.49440734392843 27.185020027539643 1 0 0
1391 1 3.549744475936741 18.554811581994656 24.592585530108757 1 0 0
1372 1 5.77584050119553 20.904279612225857 24.3577369181645 0 0 0
1513 1 5.8748471124648525 18.578998409141086 26.51406368524568 0 0 0
1371 1 8.146572099670369 18.6860132998382 24.068827889659552 0 0 0
1517 1 10.151657907903756 18.762034964458195 26.083543150282008 0 0 0
1514 1 7.976332339320534 20.704272132157314 26.42345904222737 0 0 0
1376 1 9.78060707329485 20.869716531146103 24.287335446043492 0 0 0
1375 1 12.384238822129374 18.91758493234296 24.29534963283684 0 0 0
1518 1 12.132606046904959 21.066103558240414 26.043166387555004 0 0 0
1380 1 14.216851100874157 20.719355510596436 24.280669533017605 0 0 0
1379 1 16.437027368832446 18.49081760409061 24.293244725885618 0 0 0
1522 1 16.40857863294729 21.01391275983279 26.52088199512361 0 0 0
1521 1 14.011238148948197 18.892977412562658 26.62741373075184 0 0 0
1384 1 18.67627469245759 20.927907947297072 24.834406401331506 0 0 0
1383 1 20.80504945575597 18.633439316930577 24.863361719466077 0 0 0
1525 1 18.496652538172583 18.70064879110587 26.58824062053059 0 0 0
1526 1 20.767256184186813 20.957031636826684 26.34234044443454 0 0 0
1364 1 22.673236316504664 16.44245098548015 24.525883129081464 0 0 0
1388 1 22.92700949976458 20.62137806535066 24.322621238562306 0 0 0
1529 1 22.682326497906608 18.82913461425926 26.732575325477704 0 0 0
1557 1 1.776590944869545 22.672260384054994 26.3534660548654 1 0 0
1411 1 -0.07511299993008133 23.24017787479569 24.34893260745708 1 0 0
1534 1 3.7749783168538142 20.478996338157195 26.401563653277353 1 0 0
1415 1 3.920182012215598 22.957777084134328 24.507181050338044 1 0 0
1537 1 5.884124689966059 22.402311102503475 26.605716950985144 0 0 0
1395 1 7.98975912479281 22.747327574914628 24.4580875573051 0 0 0
1541 1 10.163614827447777 22.68177828901156 26.63465055610942 0 0 0
1399 1 12.449670114414014 23.333398863676926 24.552639422964308 0 0 0
1545 1 14.315192396650316 23.08954718095866 26.420455251937405 0 0 0
1403 1 16.73987366371432 22.789899775139148 24.447194285328237 0 0 0
1407 1 20.608251551286088 22.951853875309595 24.370180207939743 0 0 0
1549 1 18.757093141705944 22.87897928608662 26.782246008279945 0 0 0
1530 1 0.007158694795471987 20.706483310503152 26.495807213565307 1 0 0
1553 1 23.00179150265766 22.83524264058738 26.336394245889746 0 0 0
1725 1 1.7524900119924993 1.9309578413675053 30.786596356435194 1 1 0
1560 1 1.8535815395464246 24.556397713124355 28.233910804574425 1 0 0
1698 1 -0.24286236824526455 -0.09159095723647978 30.70856144112933 1 1 0
1583 1 4.245575897575552 1.9515730429929645 28.639113509291562 1 1 0
1705 1 6.277337109835687 2.192438274972183 30.291885277512808 0 1 0
1702 1 4.123868239171755 0.0684271135635463 30.43615721266945 1 1 0
1540 1 6.252478045104715 24.513536705646395 28.67892854393621 0 0 0
1563 1 8.181743161491866 2.2836600102959217 28.49931018984755 0 1 0
1682 1 8.336446969453274 0.21924034735248887 30.963723385259577 0 1 0
1544 1 10.068095818943748 0.16964352019831713 28.517905642033647 0 1 0
1709 1 10.132659492354794 2.4512344152001915 30.674028126668624 0 1 0
1567 1 12.150930735988192 2.4915927778466096 28.44506167576759 0 1 0
1686 1 11.998595507131991 0.16800004237174138 30.284935018688575 0 1 0
1548 1 14.098708952286499 0.25825271621058266 28.132477185583614 0 1 0
1713 1 14.26290407982426 2.416033520129509 30.18567043754016 0 1 0
1690 1 16.18282348968757 -0.05582669880549618 30.73124638729372 0 1 0
1571 1 16.305201966417968 1.9910158611430697 28.35659329925174 0 1 0
1575 1 20.913495882062975 2.3142316477844935 28.375321656316512 0 1 0
1717 1 18.456956344685715 1.9153989460893666 30.639295329533756 0 1 0
1552 1 18.456191598987715 -0.18794633481018058 28.56514918119244 0 1 0
1694 1 20.62734340026001 -0.09601838815282054 30.277543219133637 0 1 0
1579 1 -0.0365859677055522 2.1916232890929614 28.550731805690113 1 1 0
1556 1 23.010360674571935 24.49683967178661 28.524349296363184 0 0 0
1721 1 22.837618854378604 1.658212181615365 30.179372072417124 0 1 0
1584 1 1.9702869887595664 4.247713869017478 28.70491107654315 1 1 0
1605 1 2.379526065841809 6.248315397859997 30.794193886332184 1 0 0
1722 1 -0.17416464860247727 3.9691012604006124 30.52651349073223 1 1 0
1463 1 4.0039595384603865 6.305978452556685 28.50770316832132 1 0 0
1564 1 6.334273279287731 4.456424099999211 28.557135220003143 0 1 0
1585 1 5.9961422532930655 6.191586458403681 30.720017276779277 0 0 0
1726 1 3.98419420950482 3.8522696267892176 30.837322218122207 1 1 0
1568 1 10.078886911596573 4.373810873376641 28.659296838522362 0 1 0
1443 1 7.943919209155483 6.5355151586172955 28.795178007264028 0 0 0
1706 1 8.008884832078637 4.230250152960057 31.014028640653635 0 1 0
1447 1 12.154771289396075 6.372138784773919 28.722095202479235 0 0 0
1710 1 12.173402039680296 4.5019249200271965 30.53819077049092 0 1 0
1593 1 14.195679849366154 6.510561405197592 30.828128779211717 0 0 0
1572 1 14.11953908309083 4.5170224903054255 28.570641127995795 0 1 0
1451 1 16.382565726210224 6.165187980625039 28.569366993470872 0 0 0
1714 1 16.458152899420185 3.886905146874078 30.201653693988874 0 1 0
1576 1 18.30955223422547 4.132241700829477 28.1447559973767 0 1 0
1455 1 20.270661313666025 6.276610199920329 28.598849967240966 0 0 0
1718 1 20.56208460726466 4.4368712513524375 30.486518666857755 0 1 0
1597 1 18.34372190983654 6.4279938921537765 30.642572571675508 0 0 0
1459 1 0.07904587891515302 6.280335798645508 28.93279515662428 1 0 0
1580 1 22.70305453447979 4.387840943928795 28.26549283239287 0 1 0
1601 1 22.403359695166976 6.07731389611449 30.870859835202673 0 0 0
1464 1 1.6357786944495618 8.408147582774209 28.818084901574128 1 0 0
1629 1 1.6113213732661897 10.413730344829556 30.85187495288939 1 0 0
1444 1 5.868021479955894 8.571285993818975 28.856646729694983 0 0 0
1606 1 3.8685542470837273 8.627733281111341 30.806421709519984 1 0 0
1589 1 10.003951967937569 6.30801217243591 30.82739747672873 0 0 0
1448 1 10.118995332436842 8.33492913982623 28.686702242556947 0 0 0
1586 1 8.039103706748575 8.289300800195212 31.066804681856816 0 0 0
1590 1 12.352437465404838 8.33862512463408 30.598750405647387 0 0 0
1452 1 14.259074717135285 8.547291118667925 28.560972129688924 0 0 0
1594 1 16.334263645462016 8.280761430716257 30.2098866427549 0 0 0
1475 1 16.53652932146548 10.604995662864345 28.676265486027575 0 0 0
1456 1 18.41263843700397 8.403743079610758 28.56562046053433 0 0 0
1598 1 20.437260671695356 8.74673793228572 30.45876566028515 0 0 0
1621 1 18.311528754066437 10.919895537418407 30.696106241916365 0 0 0
1602 1 24.41709560859003 8.353461205946001 30.998951039282623 0 0 0
1460 1 22.902081676775026 8.274596108655604 28.553681181543993 0 0 0
1625 1 22.786692544219683 10.627499594807322 30.4890433443744 0 0 0
1488 1 1.7736948544076157 12.604957510941414 28.416567036142656 1 0 0
1609 1 5.983309159852084 10.332791152360118 30.742782184782218 0 0 0
1487 1 3.807399327665399 10.628591684927242 28.64995024555004 1 0 0
1468 1 6.108945707462313 12.867706628235851 28.532803958541646 0 0 0
1630 1 3.621627111990372 12.513387191122163 30.543054364962885 1 0 0
1467 1 8.026176019826595 10.113715076696193 28.838629180817563 0 0 0
1613 1 10.010505269385758 10.230685057032053 30.86754236777261 0 0 0
1472 1 10.314528907533578 12.283996034300243 28.699765449993663 0 0 0
1610 1 7.972813863264763 12.199555717957391 30.550245787700913 0 0 0
1471 1 11.880815804899386 10.239324043741455 28.25757173839986 0 0 0
1614 1 12.373866782993636 12.26828310044229 30.730607173740946 0 0 0
1617 1 14.341642050306028 10.391339900440554 30.225184245769498 0 0 0
1476 1 13.787293519051376 12.606229980084862 28.318924367926748 0 0 0
1618 1 16.19897816502558 12.434966914609388 30.719516779612732 0 0 0
1479 1 20.372899706877824 10.69733753071935 28.579554288837205 0 0 0
1480 1 18.41997112022395 12.884266195090062 28.51202171380129 0 0 0
1622 1 20.7468245442507 12.519827743989644 30.656223795428627 0 0 0
1483 1 -0.27287259271133024 10.500234998685126 28.41351596458661 1 0 0
1626 1 -0.24038036980858885 12.341144341269606 30.63693889196363 1 0 0
1484 1 22.362770527385166 12.805239740698461 28.611690541053463 0 0 0
1653 1 2.0363068702736955 14.635996930475374 30.58390991242786 1 0 0
1512 1 1.8477834193734526 16.52785366454325 28.848411042523935 1 0 0
1650 1 0.04224933091846067 16.7167626174356 30.620763051329632 1 0 0
1511 1 3.7394492921159275 14.354249795351773 28.309928482001606 1 0 0
1492 1 6.303787359125085 16.22279747624676 28.926402036827735 0 0 0
1633 1 6.308588451731345 14.580217529298377 31.017279562520343 0 0 0
1654 1 4.248550527699809 16.513201256410653 31.06317838182501 1 0 0
1491 1 8.486914644230561 14.564922365589478 29.00823302803544 0 0 0
1496 1 10.154234116415479 16.59879857060379 28.394291829449248 0 0 0
1637 1 10.22152142137924 14.509429545907127 30.931923870375947 0 0 0
1634 1 8.022818863314047 17.098266448329404 30.482207536569774 0 0 0
1495 1 12.14419552068123 14.43020285517961 29.06530517982863 0 0 0
1638 1 12.218541258092218 16.603314111010263 30.951998883340693 0 0 0
1500 1 13.870161834552794 16.7462414089565 28.873579125859397 0 0 0
1641 1 14.590621052554718 14.928511441432413 30.61389397606045 0 0 0
1499 1 16.01567031284334 14.644599959470941 28.247801531626873 0 0 0
1642 1 16.344818218712668 16.591865290215324 30.707287496495347 0 0 0
1645 1 18.381995527146714 14.184442440727487 30.53320057228735 0 0 0
1503 1 20.558708473974917 14.72271586210106 29.052162556178438 0 0 0
1504 1 18.468183635025312 16.7709221896965 28.453518197416344 0 0 0
1646 1 20.65106713532036 16.781278544500793 30.498346635934755 0 0 0
1507 1 24.336254066852838 14.811688705649825 28.42332853522699 0 0 0
1649 1 22.79827115456552 14.30344319246014 30.66493748997384 0 0 0
1508 1 22.665041171431994 16.61766367716075 28.640821065052656 0 0 0
1536 1 1.8891998752761348 20.69435188603375 28.8239956773007 1 0 0
1677 1 1.9470459530302273 18.35467577454167 30.969865504240914 1 0 0
1674 1 -0.24600637075076093 20.73571854390829 30.814808019847543 1 0 0
1535 1 4.4967961270870624 18.71779068814068 28.676914759002432 1 0 0
1678 1 3.8445406659000785 20.654271920727368 30.98151121295716 1 0 0
1657 1 5.9074340895760855 18.567779419405184 31.0621282075344 0 0 0
1515 1 8.069298396327993 18.338919526157802 27.909885972536834 0 0 0
1520 1 10.030799207479067 20.490529378075507 28.256909737782085 0 0 0
1661 1 10.189529427394422 18.684375740289894 30.703175174210894 0 0 0
1658 1 8.04969999655502 21.01770282943808 31.039821847829657 0 0 0
1519 1 11.850040278769832 18.631944642432302 28.51927984633377 0 0 0
1662 1 11.84118375021255 20.763498846648282 30.579641333975392 0 0 0
1665 1 13.734412580873041 18.670802068127777 30.798944016275318 0 0 0
1524 1 14.0464259211218 20.595288945648015 28.638457348812057 0 0 0
1523 1 16.02244724506452 18.603638533038215 29.034762178495306 0 0 0
1666 1 16.09574535012414 20.78327038069397 30.535485139140928 0 0 0
1528 1 18.272705089701823 20.811750176629467 28.589494493500474 0 0 0
1527 1 20.443625723464358 18.759413477608497 28.595470087754933 0 0 0
1670 1 20.500212265356403 21.032873336098916 30.12313803256351 0 0 0
1669 1 18.67414417445456 18.90844016375454 30.7556313498315 0 0 0
1531 1 -0.12631273223094325 18.713451714310324 28.668658458551576 1 0 0
1532 1 22.9099811702456 20.877215904575287 28.901197174558042 0 0 0
1673 1 22.107266700781892 18.846016276916956 30.663535763368532 0 0 0
1701 1 1.873610211387473 22.5555001812844 30.78091375878277 1 0 0
1516 1 6.122074713746695 20.585714865492818 29.18210483930991 0 0 0
1559 1 3.7388500462064505 22.587310594113788 28.47223837526231 1 0 0
1681 1 6.101774619424826 22.94979244649911 30.72280077740478 0 0 0
1539 1 8.009329239828299 22.439980330202403 28.446808215235855 0 0 0
1685 1 10.169181714974847 23.08847746746182 30.249217167644243 0 0 0
1543 1 12.412712279836931 22.81821407392148 28.272919458227804 0 0 0
1689 1 14.217173599000892 23.091148329332746 30.319345785219287 0 0 0
1547 1 16.17372600643663 23.25513183822757 28.529831318876553 0 0 0
1693 1 18.18408862415931 22.56215428229315 30.72749750334331 0 0 0
1551 1 20.667903694106307 23.13120357088677 28.171869633871882 0 0 0
1697 1 22.49531246269224 22.895721800573234 30.271625688470994 0 0 0
1555 1 -0.03556987622271493 22.660731073744905 28.4065694888953 1 0 0
1842 1 24.54490527360754 -0.3034224204177634 34.62747428094919 0 1 0
1869 1 1.8754731204129231 2.1247184427249097 34.72006386374467 1 1 0
1704 1 1.7396308340472153 -0.11708025450219586 32.41851279314371 1 1 0
1727 1 3.843562142238804 1.8247986632320563 32.35923955095056 1 1 0
1684 1 5.988182874979914 -0.01724851392932325 32.55777698051405 0 1 0
1852 1 6.094008533084352 1.9991731861872517 34.52667988117518 0 1 0
1823 1 3.8093045400618397 0.3200289368855791 34.67283233981378 1 1 0
1707 1 8.130616646650212 2.1232051576269586 32.65292513930121 0 1 0
1853 1 10.103453865836519 2.1628119625710926 34.79792919602265 0 1 0
1688 1 10.350927978689306 0.3526929630680703 32.4235510630092 0 1 0
1826 1 8.41219032211317 0.27431559041841225 34.3689321951892 0 1 0
1830 1 11.92731465111399 0.2902046117306267 34.74329623302341 0 1 0
1711 1 12.146447881184692 2.1862685926986116 32.61197006981393 0 1 0
1692 1 14.148437324136165 0.0656031973473506 32.331533513718234 0 1 0
1715 1 16.26012276417083 2.540142689136138 32.48211545723021 0 1 0
1857 1 14.541914440719873 1.8690092343973372 34.482506770942386 0 1 0
1834 1 16.233960512495884 0.07292764662285234 34.34490315289104 0 1 0
1696 1 18.44496299218357 -0.19669048963551017 32.24959795220894 0 1 0
1719 1 20.573579318088967 2.2491993204629215 32.54020864375019 0 1 0
1861 1 18.258584823503384 1.8528597506270517 34.284923869699604 0 1 0
1838 1 20.47387987016659 0.011250852573741144 34.45642873178646 0 1 0
1723 1 24.11190433049984 1.7523961429560062 32.722118216851385 0 1 0
1700 1 22.50980647034673 -0.18530532422726564 32.11457714825852 0 1 0
1865 1 22.43987293815998 2.2033114124903785 34.78652137265689 0 1 0
1749 1 2.0530602558997906 6.324322516366979 34.7585398216718 1 0 0
1728 1 1.556985713881662 3.4660267456335223 32.599530333864266 1 1 0
1603 1 -0.27582263524861617 5.851874300017886 32.702060964772215 1 0 0
1866 1 -0.17942104804731285 4.078731006968114 34.802785425606395 1 1 0
1607 1 4.226697936822666 5.719803239356828 32.74143005511706 1 0 0
1708 1 6.057630169946316 3.9151457159605068 32.868488570338066 0 1 0
1870 1 3.568186403320775 4.018027738984434 34.561482013690004 1 1 0
1729 1 5.588874522594506 6.057440374345089 34.98560525378329 0 0 0
1712 1 10.02465727658008 4.302723327708698 32.727563282083324 0 1 0
1587 1 7.7252953634912735 6.45756004691888 32.978456559566226 0 0 0
1850 1 8.101317153193092 4.360368017042631 34.750246209663786 0 1 0
1733 1 9.838944182841729 6.311393468569192 34.816415683097816 0 0 0
1591 1 11.77121072508665 6.4992325007310985 32.78052923477031 0 0 0
1855 1 11.91669334312483 4.364659926610902 34.5131320300628 0 1 0
1737 1 14.29262168254018 6.340423937029431 34.84530385208974 0 0 0
1716 1 13.883495449641368 4.314009035782401 32.86814258387644 0 1 0
1595 1 16.18249832003393 5.952224147668816 32.53506419102872 0 0 0
1858 1 16.520501148467993 4.266127549760804 34.605368260826175 0 1 0
1741 1 18.34497905957962 6.31286931588058 34.552984883904216 0 0 0
1720 1 18.54571617696999 4.16511071419822 32.621086699245296 0 1 0
1599 1 20.041600723047466 6.280952872913637 32.681422761611984 0 0 0
1862 1 20.538680053389413 4.476622871507387 34.56303466525975 0 1 0
1724 1 22.52223402090752 3.882948105673437 32.65175068511301 0 1 0
1745 1 22.308944063806777 6.369730309011305 34.60279479315102 0 0 0
1608 1 1.7228914081939188 8.725330317949954 32.97695782071011 1 0 0
1746 1 -0.26356512361474654 8.162355758761937 34.50850571613817 1 0 0
1627 1 24.39898900198085 10.457124926106971 32.95793792420291 0 0 0
1588 1 5.857584274498457 8.354827165215251 32.78506125899802 0 0 0
1750 1 3.8666769650504857 8.31132966324631 34.65425214090679 1 0 0
1631 1 3.822344122910982 10.582379087012564 32.61850973166919 1 0 0
1592 1 10.03858350800154 8.660672773182018 32.75637168351864 0 0 0
1730 1 7.592414680083414 8.42661169943997 34.66757590997368 0 0 0
1734 1 12.572922775432671 8.447364731155817 34.71872692457397 0 0 0
1758 1 14.253196259479639 10.61172480255873 34.29188363142509 0 0 0
1596 1 14.566676845386025 8.539046141611161 32.68580053075778 0 0 0
1738 1 16.49058431180871 8.728312321874542 34.697866304946494 0 0 0
1742 1 20.390686322442647 8.532288974112188 34.84607082251282 0 0 0
1600 1 18.479819199927768 8.53580143801297 32.506870594803345 0 0 0
1623 1 20.761627343641592 10.520584760728307 32.71739857473085 0 0 0
1765 1 18.649994993036884 10.601612769888822 34.49563924331937 0 0 0
1604 1 22.363529997040715 8.176594859315687 32.45901520301288 0 0 0
1769 1 22.643668413315204 10.187555993507457 34.7039562175851 0 0 0
1773 1 1.608609402464379 10.616770475792526 35.14648099858619 1 0 0
1632 1 1.7621290042266469 12.426352941664105 32.71567197561376 1 0 0
1770 1 -0.27224737847043945 12.810318666773615 34.87186960887105 1 0 0
1753 1 5.9119957031166726 10.568740802361727 34.95642010270464 0 0 0
1900 1 3.7745209953494934 12.276072097362453 34.922029944538686 0 0 0
1612 1 6.326670633787388 12.216077340716256 32.89550233603356 0 0 0
1611 1 8.036169125479505 10.145603858515129 33.02202884159905 0 0 0
1616 1 10.183010800807951 12.560068112702258 32.71422590477093 0 0 0
1756 1 8.38378175309492 12.078130101536567 34.81117879560624 0 0 0
1757 1 10.467379092850786 10.263650958697472 34.716261797042584 0 0 0
1615 1 12.094069832837853 10.563663566349803 32.50473845662596 0 0 0
2072 1 12.636715749695842 12.36078133208343 34.53456885633275 0 0 0
1619 1 16.43504849536931 10.569559399008288 32.663394152538864 0 0 0
1620 1 14.341609555385435 12.7216325110359 32.557959056541335 0 0 0
1762 1 16.603416258381124 12.465076378101665 34.565832378119644 0 0 0
1766 1 20.608512333240242 12.758677337231726 34.85311248981131 0 0 0
1624 1 18.789652195997917 12.719073574546242 32.7488755845022 0 0 0
1628 1 22.67584434379269 12.40658935776442 32.77053819519629 0 0 0
1656 1 1.6639556991393456 16.40131399273603 32.88666778730497 1 0 0
1651 1 -0.21060885781911254 14.355181872230272 32.70507499063467 1 0 0
1797 1 1.9032696616582059 14.419328838291808 34.986051080606096 1 0 0
1942 1 3.9199585285452585 16.312933431459292 34.79733713791819 1 0 0
1655 1 3.9655943131971014 14.425192465154524 32.6947190645746 1 0 0
1636 1 6.171960328350391 16.560660232568885 32.959544041117 0 0 0
1777 1 5.947858133261747 14.522371905149368 34.5405164718192 0 0 0
1635 1 8.356528218990995 14.251778760001917 32.962833809440276 0 0 0
1778 1 8.049079467012575 16.291361323971053 34.99303958195327 0 0 0
1640 1 10.220829102545482 16.67216645023199 32.82755519756633 0 0 0
1922 1 9.928675524794818 14.46036171841477 35.407432285503866 0 0 0
1639 1 12.1546056376969 14.85889859574955 32.67250167526588 0 0 0
1930 1 12.104645450504888 16.91904219710561 34.963354036861254 0 0 0
1644 1 14.316089715955874 16.79481501251292 32.655542527363636 0 0 0
1785 1 14.27219805599941 14.840250749230274 34.79200596417276 0 0 0
1643 1 16.50457524673771 14.761683573488268 32.46061504121063 0 0 0
1786 1 16.55379942878271 16.50112205033097 34.561147909202006 0 0 0
1671 1 20.517300721931782 16.904775653154516 34.88853328789665 0 0 0
1796 1 18.63506574009034 14.63409880698374 34.70624305715732 0 0 0
1648 1 18.67392658378357 16.37999655258188 32.48815841441014 0 0 0
1647 1 20.794916317598314 14.752582195829659 32.810662307061854 0 0 0
1944 1 -0.22402108356578052 16.712953521268 34.79913387766788 1 0 0
1793 1 22.567082697399115 14.735989300421513 35.13574722062967 0 0 0
1652 1 22.952464191938986 16.749632443799904 32.62194407613898 0 0 0
1680 1 2.0002215809951203 20.644996716713244 33.233870292203164 1 0 0
1794 1 2.059073368281718 18.26881892468564 34.92772763187567 1 0 0
1801 1 6.260485179867993 18.71749207503919 35.11465029765018 0 0 0
1679 1 3.7549052819500526 18.772523258607237 33.13446479323104 1 0 0
1660 1 5.847068074197467 20.610807598819584 32.766454519519016 0 0 0
1822 1 3.9506892192845218 20.822727941641915 35.43372669371726 1 0 0
1782 1 10.159999541239227 18.565732245692615 34.8637987787745 0 0 0
1659 1 8.000255309369534 18.656063853101678 32.963412941254376 0 0 0
1664 1 9.89532538773226 20.853747913179873 33.0778226174233 0 0 0
1663 1 12.028238950903956 18.978724839644507 32.65037695347356 0 0 0
1805 1 12.048860939915956 20.69610305526566 34.965299082102945 0 0 0
1809 1 14.386659143876736 18.91915829735015 34.404132602430415 0 0 0
1668 1 13.987336034201872 20.946232718888254 32.530221395150946 0 0 0
1810 1 16.46113206518347 21.205504038558416 34.58521576656683 0 0 0
1667 1 16.500857451862103 18.677955761077563 32.574236197582344 0 0 0
1814 1 20.79147471142152 20.6670445003451 34.67655110585823 0 0 0
1672 1 18.335035993987027 20.69981585823075 32.60480562268003 0 0 0
1676 1 20.54842761435141 18.520545803838168 32.72900888195 0 0 0
1813 1 18.205047563426653 18.59312667606053 34.631997386279444 0 0 0
1939 1 -0.23080958543995592 20.67365749254413 34.87446380968102 1 0 0
1675 1 0.06954736820862184 18.87599170990653 32.776933517976104 1 0 0
1818 1 22.44870553445073 20.624224503353176 32.23771454631452 0 0 0
1965 1 22.878360646801205 18.571131541977138 34.83260752630331 0 0 0
1849 1 1.9195422741790638 23.13533672317744 34.71972124898091 0 0 0
1825 1 5.939741217607445 22.92279933725868 34.52420013407522 0 0 0
1703 1 3.7384678928971233 22.79626896754999 32.6469553985292 1 0 0
1802 1 7.682627336126719 20.623375283983165 34.9149443496596 0 0 0
1683 1 8.16214277387933 23.04176579131311 32.80328553108076 0 0 0
1829 1 9.86652407062534 22.935289468299736 35.0172509853832 0 0 0
1687 1 12.198894548926896 22.76049228648052 32.44232890262329 0 0 0
1833 1 13.904939603156707 22.892017954327287 34.488557797585116 0 0 0
1691 1 15.784297772632671 22.801313952499427 32.66570028414054 0 0 0
1837 1 18.33484082824458 23.10115855190272 34.43807666079406 0 0 0
1695 1 20.40472350472573 22.54632457571485 32.52786819750309 0 0 0
1307 1 16.11269776234319 6.82253596072688 24.532194195713632 0 0 0
1387 1 24.38670044728844 18.15879718895971 24.658222869499113 0 0 0
1867 1 1.4617989845406887 2.0611837483202975 39.22668913431104 1 1 0
1990 1 1.8744104658442238 -0.026118353279446227 36.631594537074264 1 1 0
2416 1 22.46421663692189 22.703431964499927 46.739089622112104 0 0 0
1828 1 5.996028973377846 1.6760872170809138 38.7948724454164 0 1 0
1945 1 3.6625774935387403 0.2011416919927439 38.81168249337059 0 1 0
1847 1 6.114338262285079 -0.14975399532537484 36.47449587217224 1 1 0
1878 1 8.120946859503345 1.8365936908656 36.37537198627514 0 0 0
1851 1 9.984331586919174 1.832520694209685 38.644247438114306 0 1 0
2000 1 7.916303090377994 -0.018500479994586094 38.886381742061054 0 1 0
1804 1 10.185202287169057 0.13358750595502827 36.57983934670901 0 1 0
1856 1 12.341181821301632 2.5616630514592003 36.365939156181675 0 1 0
1994 1 12.26943948487653 -0.09053250089362203 38.56121852446934 0 1 0
2114 1 14.112760198643933 2.203085850296662 38.54251520840555 0 1 0
1739 1 16.31045532678276 2.0736254349905 36.914393707700675 0 0 0
1812 1 14.170784438184304 0.17353352022224877 36.44786096059976 0 1 0
2142 1 16.012564416821995 0.06695053380737409 38.55551567745871 0 1 0
2011 1 20.28464839182645 1.7739671284177958 36.68106751198629 0 1 0
1840 1 18.428716353197608 1.586085306670636 38.631227348700605 0 1 0
1978 1 18.283718734649 -0.04941075082173363 36.42145825591775 0 1 0
1979 1 20.451203591960294 -0.22361773809354113 38.601679773558686 0 1 0
1986 1 -0.2253382862428768 1.9613481074753323 36.62009932032131 1 1 0
1859 1 22.53063108538531 0.12052541160809521 36.613542078131886 0 1 0
2125 1 22.314820834709145 1.6495978198211487 38.43348217709263 0 1 0
2136 1 -0.11618026378822183 0.06149818257772405 38.45875168340058 1 1 0
1872 1 1.8794888332441304 4.202348080052467 36.90696149739276 1 1 0
1909 1 1.99964693821566 5.9317949924588325 38.860550748636875 1 0 0
1748 1 -0.19199030292000288 5.860848276038357 36.548482060545744 1 0 0
2006 1 -0.04577228869680772 4.072641983042396 38.61090474087535 1 1 0
1894 1 3.9561863058447093 5.94768425204122 36.64287497351573 1 0 0
2014 1 5.967421178347153 4.023396950001502 36.74890761620927 1 1 0
2116 1 3.9212776414588975 4.130474932158668 39.00245612137992 0 1 0
1895 1 5.962655906339836 6.108767887526108 38.88156038446046 1 0 0
1735 1 10.086152624525273 4.082674895852061 36.77752616987551 0 0 0
1731 1 7.653495105500028 6.606740360306386 36.50999808857599 0 0 0
1854 1 8.11110256892788 4.092786877260173 38.522903731724476 0 1 0
1877 1 10.346224494351205 6.358755450541424 38.6974634223219 0 0 0
1740 1 12.116511986256794 6.439594071556659 36.543695791774546 0 0 0
1761 1 12.341222744805295 4.216034216503528 38.92684914679275 0 0 0
2053 1 14.358084753741675 6.011803017993728 38.769235230270844 0 0 0
1860 1 14.357017713575667 4.1750743986730985 36.43176405238363 0 1 0
2008 1 16.477610417522683 6.311936451178727 36.8190060759793 0 1 0
1925 1 16.255875331642812 3.843170138942221 38.65606901125838 0 0 0
1864 1 18.430447478951663 3.7066348564171383 36.611944746156695 0 1 0
1743 1 20.424979510308304 6.3265084095818205 36.590537590055504 0 0 0
1863 1 20.309818847472485 3.9553306580810874 38.908337495286 0 1 0
1911 1 18.66176249538791 6.186509796807138 38.291991905762735 0 0 0
1747 1 22.618533143487994 3.9802782554119744 36.9123243915604 0 0 0
2010 1 22.535677965091963 6.212726792340971 38.78708416579368 0 1 0
1752 1 1.707456438061492 8.284692979946135 36.87847610428298 1 0 0
1751 1 5.4151819835109505 8.516190142419088 36.7310987022063 1 0 0
1876 1 3.6364277850140905 8.15335639987839 38.79603481236743 0 0 0
1736 1 10.068762516263277 8.402280313471836 36.825400512803995 0 0 0
1780 1 7.979098338304713 8.358378919149326 38.63886196827269 0 0 0
1898 1 12.414872383699997 8.193453582491001 38.86579117048951 0 0 0
1764 1 14.595059265552825 8.190271195769315 36.93257287629152 0 0 0
1768 1 16.885999403575823 8.411329443115704 38.85664346230442 0 0 0
2235 1 14.219735525616633 10.169155142940827 38.756206786568995 0 0 0
1744 1 18.273545279778993 8.343894701727105 36.41698911593671 0 0 0
2007 1 20.450445280994806 8.415639813236998 38.58712946093736 0 1 0
1891 1 0.13394551281593026 7.7084851410553785 38.61858183567309 1 0 0
1889 1 22.764347255869325 8.537008381019927 36.44063396203181 0 0 0
1912 1 23.424579831682053 10.485582680400288 38.628037373036946 0 0 0
1914 1 2.007580074555494 10.52831628597726 39.19859359230742 1 0 0
1795 1 2.4807506397077193 12.608231565631499 37.16564956802674 1 0 0
1890 1 5.8637824642400025 10.246782083356324 38.72133165454787 1 0 0
1776 1 3.5205164165498477 10.05656335986061 36.86449429191378 1 0 0
1800 1 3.95155355535912 12.551898898809108 39.32912436530878 1 0 0
1774 1 5.424825949781692 12.029704495510915 37.01347220317503 1 0 0
1732 1 7.916735983382136 10.073826329520411 37.000310463381076 0 0 0
1779 1 10.146353174472072 10.354317134646445 39.359666802356735 0 0 0
1781 1 10.128482299510436 11.995319986092905 36.906871131793594 0 0 0
2062 1 7.775514926159893 12.089136592889783 38.77896306572999 1 0 0
1903 1 12.609479948146433 10.266077725703141 36.64533257350308 0 0 0
1754 1 12.269104281750707 12.253246468883734 38.660935414826 0 0 0
1787 1 16.42206068020532 10.600040312598606 36.50728127081792 0 0 0
1934 1 14.588159455934516 12.559971520699426 36.478964828691545 0 0 0
1902 1 16.02910077970661 12.127535124334846 38.618726229918366 0 0 0
1929 1 18.417927038658974 10.375977199022614 38.544706893420255 0 0 0
1767 1 20.777187559783535 10.3883774859125 36.64997683721466 0 0 0
1789 1 18.600749821304277 12.521520414653086 36.97066376252225 0 0 0
1791 1 20.868272419533255 11.860288540436084 38.73120706600928 0 0 0
1771 1 0.3619349039331001 12.52828444201026 38.79803631337094 1 0 0
1772 1 22.605225381003244 12.76643819075314 37.07732471058901 0 0 0
1923 1 0.04457377748871416 14.884766684502207 36.85539590545275 0 0 0
1919 1 1.8640019124518084 14.606232455492794 39.094291406297415 1 0 0
1819 1 1.9715290589660674 16.573035063418843 36.62442655368159 1 0 0
1824 1 -0.19969451920898337 16.695329332095014 38.95725872768903 1 0 0
1799 1 4.14947065778581 14.624114363007802 37.041480010166154 1 0 0
1798 1 5.721249552666522 16.63528189070093 36.67612909138793 1 0 0
2065 1 6.121358356687305 14.431638998688992 39.22445933461281 0 0 0
1967 1 3.856817382472136 16.576533140167328 38.87644081445519 1 0 0
2045 1 7.974309000037421 14.31463275713441 37.129144896579135 0 0 0
1784 1 10.078899136978787 16.595538271957217 37.207862961628784 0 0 0
1921 1 10.045645239856029 14.033765015273769 38.86338434328704 0 0 0
1928 1 7.8052847674833234 16.889903638618698 38.89177063637358 0 0 0
1803 1 12.312543007549523 14.840130929897205 37.12193771116272 0 0 0
2385 1 12.059424641624087 16.916435770002053 38.971217963769455 0 0 0
1783 1 14.391571960242972 16.667685931678896 37.424252430624044 0 0 0
1926 1 14.309250471770167 14.170030262128746 39.00467785262357 0 0 0
1908 1 16.370996159070557 14.598950439004152 36.49396564941256 0 0 0
1953 1 16.343556659429602 16.409000103206147 38.89666986403241 0 0 0
1790 1 20.421891624087742 14.991113484739895 37.09715488548989 0 0 0
1816 1 18.411701388000644 16.765699843353218 36.80977622757899 0 0 0
2085 1 20.438279841107025 16.8383651986127 38.823472342363445 0 0 0
1958 1 18.595587584731753 14.777064273540791 38.873395780094874 0 0 0
1957 1 22.840784713739374 14.191834761407154 39.27463528982167 0 0 0
1937 1 22.586845000043226 16.723423849865547 36.995750904592455 0 0 0
1821 1 1.9926437432285562 18.55590582196278 38.932127367455976 1 0 0
1918 1 -0.013850962710679371 20.70843242767667 38.99710092851269 1 0 0
2106 1 3.97787979144871 18.590602232917206 37.02424451491349 1 0 0
2219 1 6.014273539950845 20.849517264907753 37.04133642310879 1 0 0
1997 1 5.685939120003248 18.90224594357815 38.98483599906366 0 0 0
1987 1 3.5155800333986993 20.967765954925397 39.13991990129663 1 0 0
2186 1 8.17335463739785 18.766200136256124 36.79008181897606 0 0 0
2067 1 10.039552829241238 20.978020799543977 36.7575335737106 0 0 0
1966 1 8.054522591804867 20.85586039741446 38.814816697547165 1 0 0
1808 1 10.264289516963997 19.26480461987638 38.800026219634766 0 0 0
1806 1 12.313586828692275 18.71686168630172 36.80183090799572 0 0 0
1879 1 12.207424061126094 20.80974968949097 39.073815245239 0 -1 0
1950 1 14.39791217347534 18.739756041522845 38.92508036127991 0 0 0
1811 1 16.08086841158216 18.345163974595486 36.79078926198923 0 0 0
1835 1 14.269650938401222 21.16008912731241 36.58464504566469 0 0 0
2097 1 16.205015261415575 20.658710519409333 38.49307351477054 0 0 0
1981 1 18.013012295041854 20.745731210533165 36.3441733725091 0 0 0
1820 1 20.59663669962486 18.87853009738435 36.52046743863117 0 0 0
1792 1 18.267798348002543 18.533278677030893 38.943912427274306 0 0 0
1839 1 20.26990552886312 20.717124270719587 38.28254007769318 0 0 0
1845 1 22.786210116151203 20.45857459167801 36.935723547746264 0 0 0
1955 1 22.79099431891737 18.702964084190718 39.04473575648569 0 0 0
1817 1 0.2878475814191701 18.774473912379584 36.77616466683976 1 0 0
2109 1 1.5665129972921925 21.04410007369536 36.894245551188156 1 0 0
2130 1 1.6081751162485154 23.02667628662862 39.04236298384962 1 0 0
1848 1 3.8170997792175454 23.016473156375234 36.90591387884746 1 0 0
1991 1 6.095013288866494 22.73255532300994 38.96830374646151 1 0 0
1827 1 7.800999130658063 22.580085748983755 36.61391851713868 0 0 0
1832 1 9.850859759352351 23.25958469010922 38.70754654115603 0 0 0
1954 1 12.058476096316733 23.043283606656743 36.70381794649863 0 0 0
1952 1 14.22561327284734 23.01466545640291 38.72352051117259 0 0 0
2098 1 15.884121878531145 23.162626569978976 36.57346079903279 0 0 0
2105 1 20.652081739834962 23.147932858691092 36.34187469019525 0 0 0
2101 1 18.057428686677156 22.563521517683284 38.623577347777605 0 0 0
1846 1 24.12285340236138 22.807467871759123 36.48547983385944 0 0 0
1962 1 22.55618608555011 22.738425597712947 38.68927251064604 0 0 0
2138 1 1.7260482299811684 2.374111318240952 43.126019668265414 0 1 0
2159 1 1.7387212750522303 0.13220972319532892 41.07983662491592 1 1 0
2013 1 3.746287702496762 2.1355558717888354 41.555851657864665 1 1 0
1998 1 6.029977468505673 2.526667865798996 43.138106574569974 0 1 0
1993 1 5.747074534643572 0.3851083959508126 40.89309322510071 0 1 0
1969 1 4.0207500200693 0.10029605887114912 43.1254589167462 0 1 0
2160 1 8.244746070562345 2.262886532547822 40.800510923808794 1 1 0
2222 1 10.16363415501745 2.2281366568393706 42.72198631005174 0 1 0
1956 1 10.221905535755825 -0.1316487821219947 40.94705848678205 0 1 0
2557 1 7.971829278249576 0.2997424343135401 42.75703611089592 0 1 0
1881 1 12.657032762295856 2.311376334914033 40.67999764634295 0 0 0
2146 1 12.166475620042807 0.1406135635710692 42.64774101204272 0 1 0
2212 1 16.661324928144076 1.9853717463640423 40.73306693830746 0 1 0
2149 1 14.557619384400589 2.0211471617115278 42.60477615909653 0 1 0
2298 1 14.432726676776051 -0.023813092328545782 40.670526839998736 0 1 0
1968 1 16.745977174398647 -0.09714425977727481 42.73425862674104 0 1 0
1982 1 20.153787229882553 1.879479650042232 40.58250776185434 0 1 0
1883 1 18.531296832916432 2.15447511854459 42.887038559144884 0 0 0
2122 1 18.427900906327288 -0.04429728609483646 40.849295698884646 0 1 0
2448 1 20.43859844436551 -0.01631039920164762 42.919775543776005 0 1 0
2133 1 24.310398276756366 2.197235127216675 41.08721803544524 0 1 0
2012 1 22.317366174932403 2.3618312896668505 43.12560892667765 0 1 0
2068 1 -0.24325179441517086 0.38499584781090435 43.022200178886955 0 1 0
1844 1 22.393182134376453 -0.10925445690111193 40.62779012060615 0 1 0
1871 1 1.8707655885412313 4.038671483900863 40.907025322124326 1 1 0
2018 1 1.7505269412407425 6.259323778177069 42.74069071265336 0 0 0
1984 1 24.418030383113575 6.074931580008904 40.687662560364814 0 1 0
2015 1 3.9098666712123507 6.261154680079637 40.67541596517216 1 1 0
2021 1 4.239398340477136 4.516226050970751 42.87707479370988 0 0 0
1880 1 6.144858915408627 4.03010819198795 40.54233898137685 0 0 0
2199 1 6.401066916987738 6.330734855048256 42.97504825329152 0 0 0
1999 1 10.143770222554524 4.357902421240727 40.75108965672239 0 1 0
1901 1 7.904553764782397 6.262343627200034 40.59653500469372 0 0 0
1759 1 9.969138664284875 6.397994897424915 43.22385142762713 0 0 0
2041 1 8.02696810734974 4.368105347789233 42.25759978966115 0 0 0
1897 1 12.0441522673498 6.155545022264213 41.05737257667442 0 0 0
1947 1 12.099708881621078 4.028290386118699 43.29369280616945 0 1 0
2120 1 14.052260072099754 6.01004882845823 43.00911424123677 0 1 0
1885 1 14.491661918959519 4.120000953391275 41.18931478851987 0 0 0
2001 1 16.418828646484023 6.025641038652121 40.3560572466786 0 1 0
2026 1 16.369881609934403 3.977191803957738 42.862754866735656 0 0 0
2004 1 18.27762418424942 4.188079269107857 40.924402297012115 0 1 0
1975 1 20.305863025788412 6.263855112899514 40.5509293075237 0 1 0
2135 1 20.552200559799445 4.4228948573121105 42.820127220332076 0 1 0
2071 1 18.381942806286375 6.493165735371533 42.96873537353851 0 0 0
1875 1 -0.19274970953384699 4.153959666510193 42.77401145599541 0 0 0
2137 1 22.490569670202653 4.0184081449862505 40.49307658411749 -1 1 0
2033 1 22.584421733517274 6.215788339657687 42.450364628867604 0 0 0
2158 1 1.5504085830599632 8.333600734045245 41.10057974472524 1 1 0
1996 1 24.254266871006855 7.9930746315841095 42.860756691130035 -1 1 0
1899 1 5.776080558060634 8.309036636220728 40.62213814964661 0 0 0
2155 1 3.9030306885001504 8.648642840136482 42.687434175621405 1 1 0
2039 1 3.8709400603723054 10.549555235322146 40.920799391690025 1 0 0
1949 1 7.545175585276173 10.495635632401278 40.93949492804801 0 0 0
1874 1 10.078496573491623 8.340747861783369 40.87348453186774 0 0 0
2042 1 8.228599389565403 8.438705107442692 42.81519797992573 0 0 0
2245 1 12.656910103540312 10.405652081546481 40.83583805894493 0 0 0
2161 1 12.045156868820438 8.589599215741897 42.47127058930042 0 0 0
1755 1 14.510738277978346 8.383126183067228 40.93106866566157 0 0 0
2143 1 16.39649711693461 8.167836235687613 43.10136205660055 0 1 0
1815 1 18.41747951904371 8.323698861803178 40.864804257488544 0 0 0
2009 1 20.572436524995226 8.451070175436536 42.780257537226916 0 1 0
2050 1 22.478297374806814 8.75710547358933 40.55021630873116 0 0 0
1892 1 1.857193361778029 10.361279925674772 43.031621983827954 1 0 0
2055 1 1.6849751731203142 12.697919466010637 40.93975715302042 1 0 0
2036 1 -0.22277268067723627 10.632674415145363 41.453247473129785 1 0 0
2095 1 5.6778184974618275 10.872763418359078 43.036650110953374 0 0 0
2185 1 6.19143421452511 12.675807136140538 41.222578179524234 0 0 0
2103 1 3.726163144455761 12.587855265336696 43.181993093773016 1 0 0
2043 1 10.261471803173057 10.502011512776205 42.836518496200554 0 0 0
2069 1 9.943962162883517 12.295175894197348 40.87686617132799 0 0 0
2066 1 8.020458548956121 12.574802801899914 42.83315130211812 0 0 0
1971 1 14.51474949681903 10.137008612387431 42.92041966781081 0 0 0
2247 1 12.306562772246705 12.640051775769415 42.610594060454886 0 0 0
1906 1 16.505770587323767 10.81029934287075 41.21737514021566 0 0 0
1974 1 14.27184266976529 12.186587166219853 40.845169709374524 0 0 0
1905 1 16.046971190790565 12.51291308629536 43.04270448890681 0 0 0
2051 1 18.466888300826994 10.359042428969307 43.17673675696203 0 0 0
1882 1 20.32776463183545 10.265353516044692 40.77755058190662 0 0 0
1940 1 18.309886857105106 12.575839391767257 40.33212634083182 0 0 0
2151 1 20.5416862261444 12.31930952376189 42.800763510865046 0 1 0
1933 1 24.097425161839702 12.5134167030441 43.433639685227845 0 0 0
2128 1 22.43577822800946 10.489003837083608 43.13222028808869 0 1 0
2081 1 22.735878691690992 12.362224422925275 41.20112215306004 0 0 0
2084 1 1.4978120341585806 16.570774930987582 40.852090944061565 1 0 0
1938 1 1.6965129175108256 14.389777088053306 43.10268588201664 1 0 0
1935 1 24.385949378091183 14.434341372807895 41.37274758050034 0 0 0
2083 1 5.990919467983245 14.707091402718401 42.93490517084389 1 0 0
2061 1 3.679329514101977 14.420273801833533 40.98617891341829 1 0 0
2542 1 6.369580789528937 16.881627084552264 40.94499677355846 1 0 0
2353 1 3.852905022371635 16.892966681610424 42.95997643701621 0 0 0
1760 1 7.950434595045646 14.4137547181799 41.00615173571227 0 0 0
1948 1 9.935589448140894 14.430283147409398 43.06443528719924 0 0 0
2096 1 10.2484800334447 16.581706515515805 41.33144664212301 0 0 0
2187 1 8.193165923627097 16.88340959651331 43.06825573731257 0 0 0
1831 1 12.284792674651175 14.95666604317757 40.890686308130704 0 0 0
1946 1 12.210907774674746 16.654931200248313 42.696639300670654 0 0 0
2283 1 14.31756053680645 14.820424122308324 43.18819683028381 0 0 0
1983 1 14.537332333668957 16.831007157832445 40.67209926405572 0 0 0
2094 1 16.197096573217877 14.463775661184707 40.826712467054314 0 0 0
2108 1 16.16827506711195 16.9221425997505 42.681676422845655 0 0 0
1807 1 20.49052700542603 14.426235875615541 40.997374919664544 0 0 0
1932 1 18.40598891408193 16.56534760106406 41.027731946422975 0 0 0
1763 1 18.052712829601568 14.606677446729892 42.80244895732426 0 0 0
2390 1 20.379857685949567 16.645206288613117 42.926834377847676 0 0 0
2280 1 24.50221294460622 16.157131487170993 43.16994409575729 0 0 0
2192 1 22.7998708355258 16.48782701633479 41.02727239976772 0 0 0
1959 1 22.13254709367621 14.489452724832148 43.27110254648207 0 0 0
1989 1 1.7961843080614432 21.049900246744663 41.1069255244235 1 0 0
2113 1 1.8979166789968525 18.44617596396977 42.97202464429293 0 0 0
2091 1 -0.01856299942554801 20.84070261443223 42.89818485022377 0 0 0
2272 1 3.923971737290918 18.85201018138529 41.104314977041 0 0 0
1976 1 6.047340518871359 20.937077526493226 41.27354374002632 0 0 0
2377 1 3.727967588507317 20.889999809218722 43.18775086352107 0 0 0
1924 1 5.709775706759156 19.022121990407044 43.15969533924153 0 0 0
2086 1 8.031141864622954 20.222670521048414 43.095965712052916 1 0 0
2141 1 8.33335989435801 19.061531795461256 40.74834052642357 0 0 0
2090 1 9.96746646968998 21.325598124386225 41.25550074213692 0 0 0
2076 1 10.645184856704109 18.884546553421522 43.06595843519108 0 0 0
2551 1 12.332395677130373 20.959373751100387 43.106172858039365 0 0 0
1972 1 12.316249239615331 18.68536372444558 40.97776446214177 0 0 0
1977 1 14.139158895151649 20.81877446979621 40.98457988272631 0 0 0
2127 1 14.293332366794951 19.092388492794484 43.067992050985254 0 0 0
1973 1 16.28031653075486 20.604307009563378 42.720098586526724 0 0 0
2123 1 16.445369828592348 18.70709019569911 40.85821024307193 0 0 0
2093 1 20.479201676613123 21.083610361657108 42.76099463866599 -1 0 0
1788 1 20.867280272373804 19.083334277648284 40.77055944448232 0 0 0
2216 1 18.307944436910915 20.608973102661835 40.531470763479646 0 0 0
1951 1 18.4526358618064 18.843706753439868 42.72703669831644 0 0 0
1985 1 -0.22143111733587145 18.675232031664173 40.87826409194199 1 0 0
1961 1 22.659508896627067 20.85090836609008 41.291578863176774 0 0 0
1927 1 22.75205888792498 18.68696025135489 42.905233812994965 0 0 0
2232 1 1.917904193838814 23.174878118780036 43.03848552856378 1 0 0
1843 1 4.037914838096212 22.870169416908645 40.710932316487586 1 0 0
2003 1 6.275634088202924 22.62970876827397 43.14895337936027 0 0 0
1980 1 10.33047398063739 23.346287929876155 43.15397765270399 0 0 0
2140 1 8.159616179200942 23.186661347486314 40.99401015440649 0 0 0
2073 1 12.189909313295058 23.001609377553116 40.68923264483357 0 0 0
2401 1 14.402094495613785 23.32819092977323 42.80002617047017 0 0 0
2209 1 16.22486400717345 23.03300583972357 40.8138339385826 0 0 0
2129 1 18.559483661023428 22.8889165537078 42.53890001009181 0 0 0
1988 1 20.480088158003092 22.646550745955672 40.63537915026609 0 0 0
2231 1 22.658760314187965 23.05431724714218 42.97546783957228 0 0 0
2196 1 24.39816492189749 23.086795498023335 40.93072228906285 0 0 0
2325 1 2.168788428813526 2.192721418658131 47.48524635202893 1 0 0
2218 1 1.8221607339877415 0.21001917332742592 45.17959615653216 1 1 0
2163 1 4.012902854778807 2.1920483843026886 45.10277579389503 0 0 0
2233 1 6.427688199883609 1.8724015639629066 46.67669187453696 0 0 0
2404 1 4.484073311276305 0.4173317661896836 47.05774420423639 0 1 0
2145 1 6.185897533533218 0.003954252530401325 44.98359118181022 0 1 0
2326 1 8.166612391351745 2.5526100041650484 44.7116199281178 1 0 0
2403 1 10.299672450060486 0.156306587836814 44.84439494608621 0 1 0
2397 1 10.144811057395765 2.528110822913443 46.55028826271844 1 1 0
2118 1 8.892912959495645 0.3463436859114646 47.20699126449657 0 1 0
1873 1 12.462495818546271 2.325277124128452 44.90491947226669 0 0 0
2217 1 12.30017017004508 0.09902514143090868 46.76191633344905 0 1 0
2293 1 14.152756135273746 2.4712156755996384 47.059094426097026 0 1 0
2132 1 14.676405429081198 0.3337555740558753 44.7792828474405 0 1 0
2005 1 16.405142606386192 2.325086868199726 44.87354614052519 0 1 0
2284 1 16.153985737302023 0.5145384565765305 47.0652404876787 0 1 0
2446 1 20.703378025938314 2.0619943487736703 44.9750779266651 0 1 0
2285 1 18.877333290884707 1.9245148624040311 46.9426827387202 0 1 0
2413 1 18.512810142895525 0.13391344046449216 44.87293828951656 0 1 0
2433 1 20.508232056135014 24.504072554009895 47.413317075101006 0 0 0
2378 1 0.2959420728257077 2.2788985522735192 45.18471517661687 0 1 0
1868 1 23.169696673866355 1.7883995193684705 47.01414209154696 0 1 0
2386 1 22.54220048410921 -0.08205566922888799 44.90843828178583 0 1 0
2211 1 2.0068763488754326 4.258105784932481 44.598346803482016 0 1 0
2168 1 2.1834688651154135 6.198983870717591 47.25677693751927 1 0 0
2029 1 24.507204487081943 6.392344094488265 45.10354935443739 0 0 0
2306 1 5.957459011370048 4.4199044446348 45.25208561599794 0 0 0
1775 1 3.9929611810826566 6.436954122360046 44.686767566705115 1 0 0
2244 1 4.189790421756866 3.839698339292805 47.174938332694055 1 0 0
2294 1 5.762441317540574 6.070184011107256 47.542585239723365 0 1 0
2332 1 10.023051603473686 4.514892978723815 44.99171026803278 0 0 0
2257 1 7.711230716502424 6.548829364155758 45.23203359217011 0 0 0
2291 1 7.934941807432553 4.4061323985006355 47.000129120348 1 1 0
2329 1 10.390258727135542 6.581036193990567 46.88789360731201 0 0 0
2175 1 12.065527840884481 4.525441354830832 47.231244247970594 0 0 0
2027 1 12.236064345113006 6.679419432877059 44.49675597085749 0 0 0
2440 1 14.02654123061342 4.659145681947919 45.234019642698314 0 1 0
2164 1 14.464253214352464 6.363348849245891 47.280457207207945 0 0 0
2165 1 16.26960963759386 6.430341310946115 45.11120324983697 0 0 0
2032 1 16.469158700296454 4.1493883273819545 47.20242053166581 0 0 0
2227 1 18.456982496088777 4.2632463297064875 45.212462712646456 0 1 0
2144 1 20.59759157197478 6.57516943740502 44.768302724673674 0 1 0
2179 1 18.340605082130708 6.379286650300557 47.126033982067156 0 0 0
2002 1 20.584155781703288 4.001425029212587 46.911981672106606 0 1 0
2111 1 0.23301667525259606 4.3739366476854835 47.02880206247065 1 1 0
2134 1 22.900106720506678 4.302192560914028 44.92549554926496 0 1 0
2437 1 22.395171280453347 6.316701833933581 46.97399824633393 0 1 0
2038 1 1.9419835962197198 8.289443407036298 44.871318282870256 1 0 0
2366 1 0.23670793910184862 8.0363375459903 46.87129259757361 1 0 0
2183 1 1.9639422438629284 10.087505400436765 46.89856116182277 1 0 0
1896 1 3.9318128230490705 8.356474789634191 47.027123673899055 1 0 0
2157 1 6.00549146711998 8.481704463154829 44.60713935185996 1 1 0
1884 1 9.924413598737587 8.525605838097169 45.09075993231842 0 0 0
2313 1 7.484643640645839 8.464741228345872 47.10931235114116 0 0 0
2259 1 12.174318604242444 8.890615472782063 46.67939407326114 0 0 0
2312 1 12.444283956638065 10.508168067208942 44.86026399955996 0 0 0
2406 1 14.34668069275009 8.46556265515666 44.93780239417635 0 1 0
2152 1 16.41597582497517 10.712708669028723 45.462449074307926 0 1 0
2147 1 16.194453841185023 8.631123264579825 47.06121715233701 0 1 0
1907 1 18.33560825368579 8.442914342490202 45.02539915319528 0 0 0
2242 1 20.077544253291506 8.263506897523131 47.121357907396074 0 0 0
2028 1 20.378724264476062 10.172106159659954 45.29799591402943 0 0 0
1888 1 22.599032546718618 8.211448253662429 44.99367504766093 0 0 0
1910 1 24.42225263196918 10.281674383593655 44.790858121357644 0 0 0
2052 1 22.567162882557213 10.470860982137479 47.14252415206681 0 0 0
2074 1 1.4845407969012356 12.236090475355105 45.31799210889762 1 0 0
2139 1 3.915651395098548 10.446583927448154 45.09233475188693 0 1 0
2255 1 5.777064780770605 10.437044133584195 47.0521578332152 1 0 0
2352 1 3.7657017912127984 12.864753197001974 47.1053539814405 1 0 0
1941 1 6.298685527518771 12.860250907830045 44.95846592963952 1 0 0
2223 1 9.892197926490464 10.238841859850538 47.263782138075136 0 1 0
2337 1 7.769396151761505 10.62954559130039 44.82811696846832 0 0 0
2528 1 7.908611448509673 12.473705244708675 47.09639457259926 0 0 0
2024 1 10.117216677389974 12.633060693636827 44.9643818473428 0 0 0
2256 1 12.049441494625631 12.28723159468393 46.97725720898591 1 0 0
2046 1 14.3947010026057 10.838551701123366 47.60165158383674 0 0 0
1836 1 14.14631207530304 12.730096808208819 44.8670921997036 0 1 0
2362 1 16.540905380675788 12.803042988838698 47.17956604180946 0 0 0
2250 1 18.371158470614468 10.553183303320731 47.21977200298831 0 0 0
1960 1 18.169376834412567 12.672374858866513 44.919109782768516 0 0 0
2075 1 20.27557278945838 12.883799208686053 47.007530854134885 0 0 0
2107 1 24.399458538390036 12.474858004542398 47.273279868728594 0 0 0
2170 1 22.264250701253026 12.396476669585125 45.24800865740581 0 0 0
2131 1 1.8959691391040203 14.673815349487361 47.43070111453389 1 0 0
2087 1 1.393719519471139 16.591827164294813 44.996064737866874 1 0 0
2064 1 24.45467227198054 14.485080961116976 45.575243416679 0 0 0
2351 1 24.416526698285324 16.49910950723848 47.56141142020084 0 0 0
2545 1 3.9505567292060855 16.76700025188611 47.05798479967757 0 0 0
2058 1 4.020249979941897 14.744531003535004 45.29707399956849 1 0 0
2184 1 6.102693505033032 17.01152311355549 45.125977063290186 1 0 0
2117 1 6.21400526817129 15.013282812470292 47.15058127080921 0 0 0
1904 1 7.979090231607428 14.863298480480966 45.44070879341262 0 0 0
1970 1 10.032424481243709 16.74783193922783 45.231175689227655 0 0 0
2070 1 7.913747886269162 17.09147372177317 47.233181729072385 0 0 0
2316 1 10.141264066653083 14.730951618151622 47.17097842686367 0 0 0
2115 1 12.223745082958695 16.74835344491052 47.00460549965859 0 0 0
2099 1 11.979836297503816 14.665205040433124 44.83752913797585 0 0 0
2180 1 14.072948712419477 14.716255300653962 47.06045161295966 0 0 0
1931 1 14.260711962303084 16.984941367820817 44.881038071279036 0 0 0
2047 1 16.146411427800537 14.816315334005271 44.91699904518585 0 0 0
2048 1 16.30545825513861 16.648172133689926 47.14537445366796 0 0 0
2264 1 20.73897702247087 16.415149344771997 46.95770953278854 0 0 0
1886 1 18.2176534287465 14.890007332078113 47.103508680501314 0 0 0
2054 1 18.242985802465967 16.86999410963518 45.196420775180904 0 0 0
2189 1 20.067570810152915 14.650947091374679 44.606914195682705 0 0 0
2102 1 22.435313566814287 14.325373778864913 47.784761403408005 0 0 0
2056 1 22.843811871038298 16.791966876142965 44.91304829981475 0 0 0
2089 1 1.6428938199079874 21.149085442916792 44.866940167137486 0 0 0
2154 1 1.7502007077863935 18.340063621630826 47.213300849070045 1 0 0
1917 1 -0.1576022026061568 18.88258509581067 45.426350997741416 1 0 0
2207 1 5.726724381662249 18.780349839718248 47.46821029611356 1 0 0
2271 1 6.285609769972573 20.809262978593196 45.29793023367113 0 0 0
2398 1 3.639535398652206 18.957264598385265 44.929992218296 1 0 0
2447 1 10.456439236851216 20.631002197761852 45.123920224411144 1 0 0
2350 1 8.244100879568455 18.61146876814086 45.20853421554747 1 0 0
2382 1 8.185760335534315 21.074931864638266 47.030547254697524 0 0 0
2049 1 10.473270716737145 18.887685082234995 47.575619945140055 0 0 0
2022 1 12.665540784555041 18.671981849012326 45.21605723853502 0 0 0
2174 1 14.389142151539499 18.585121396225745 47.129486968345795 0 0 0
2239 1 14.703121358221027 20.81419387700454 45.12780930660572 0 -1 0
2121 1 16.69169663626932 20.833951650404693 47.282819453873614 0 0 0
1916 1 16.561358952634727 18.94014725624102 45.079512136276655 0 0 0
1964 1 18.40147955103196 21.185104465100117 45.23027277608763 0 0 0
2301 1 20.507304511431236 18.557897084418606 44.86522659037634 0 0 0
2273 1 18.599042992705826 18.95315190625091 47.1337539647547 0 0 0
2077 1 20.694883739491964 20.926097303416846 47.059875273972395 0 0 0
2438 1 24.485177291334196 20.96704325782465 47.17657700567355 0 0 0
2215 1 23.011311233032202 20.64745175406577 44.697416254223256 0 0 0
2063 1 22.51014491283273 18.81458995341486 47.18746234080667 0 0 0
2258 1 -0.25727568221727104 22.7981519798561 44.94342423447406 0 0 0
2489 1 2.0386733671390522 22.769246848325437 46.91692209987227 1 -1 0
2092 1 3.5723582828832536 20.740531505350155 46.807321359496996 0 0 0
2110 1 6.47448349638677 23.092500499745775 46.76426490953193 1 0 0
2305 1 4.1011065406649125 23.0068504837226 45.07984853306113 0 -1 0
2402 1 8.18444591285304 22.67051247013842 44.836971062835225 0 0 0
2297 1 10.506249963302878 22.928175822381576 46.88869985362456 0 0 0
2202 1 12.758378084576098 20.824069307091882 46.97176627993401 0 0 0
2274 1 12.537284670165583 22.861706016262175 44.93722595692493 0 0 0
2104 1 14.32705596411333 23.221219743889577 46.65997960961467 0 0 0
2220 1 16.374654866687003 22.80672110935292 44.729449133543994 0 0 0
1963 1 20.412083778984233 22.9682952188191 44.86858523001757 0 0 0
2517 1 17.945077955304086 23.363750091963276 46.998916915305294 1 0 0
2302 1 0.0008031894591888356 -0.2669974493348072 47.084345421129626 1 1 0
1893 1 4.009629983940644 1.9189527577403687 36.94386960436292 1 0 0
2375 1 1.547744443135629 2.1948701424971797 51.15326100252104 1 0 0
2287 1 2.3325124996412736 -0.2524802687272579 49.019075249617515 1 1 0
2171 1 -0.03144569851361745 2.157121323522238 49.14951357563888 1 0 0
2303 1 3.8622447655514422 2.057740537647125 49.41174621744024 1 1 0
2323 1 6.332510287981061 2.095379611064759 51.38459802543599 1 0 0
2442 1 4.2065336565782125 -0.29275548966616044 51.677690201795784 1 1 0
2112 1 6.18923341418483 0.5867884918556338 49.012701554697614 1 1 0
2729 1 23.001910187897494 22.81882899103511 59.586631499663355 0 0 0
2592 1 11.145910022382584 1.1603273616111824 48.76231866369029 1 1 0
2425 1 10.272925897806097 23.87906757167675 49.51030935857597 0 0 0
2025 1 12.52932114597432 3.0411908525001685 49.398656632144665 0 0 0
2221 1 12.340742552214245 0.3799588524146056 51.12503741128195 0 1 0
2311 1 14.678167363732367 2.3241177794161856 51.45836095773793 0 0 0
2269 1 14.254658173788162 0.6351694037489451 49.54859666300975 0 1 0
2214 1 16.85895951111641 2.340295375898375 48.84477671507087 0 1 0
2156 1 20.995616736753128 2.052731693845666 48.832839777779256 0 1 0
2454 1 18.33973677213895 2.372360686655736 51.30541317537207 0 0 0
2506 1 20.689634498662954 0.25666083838239906 50.8122704566274 0 1 0
2721 1 18.32639748347829 -0.22390360793778777 49.27409113683299 0 1 0
2319 1 0.3026589227161989 -0.009806613913902085 50.93389207231664 1 0 0
2588 1 23.269553617565066 -0.1286910012044924 48.99977268533112 0 1 0
2364 1 22.591396620360847 2.0846582374003635 50.932268442718716 0 1 0
1913 1 2.2460003415319467 4.195983703685366 49.427531802394775 1 0 0
1995 1 1.7959223246989224 6.43489034450165 51.194787207054155 0 1 0
2078 1 -0.27275737850334725 6.28650913800722 48.842152594435326 1 0 0
2057 1 3.8031344892968155 6.325693565787345 49.31522891754647 1 0 0
2243 1 6.160120248395745 3.9320209309321807 49.358227413437824 1 0 0
2328 1 3.9301021543606405 3.9344971448088852 51.23335139185376 1 0 0
2466 1 6.09638132512727 6.302614781143889 51.38168252275761 1 0 0
2173 1 9.990871456347385 4.546426693767123 49.03125887994174 0 0 0
2347 1 8.096382270263584 6.401721805542403 49.371282057179904 1 0 0
2017 1 10.269241449373038 6.404213788378772 51.54416345435134 0 0 0
2640 1 8.059156234381954 4.110646830426099 51.32373383745602 1 0 0
2286 1 11.854168404278154 6.2594451879104955 49.51360674050205 0 1 0
2019 1 11.82630121491569 4.40866389665963 51.48267774192127 0 0 0
2457 1 14.113925450104736 6.465141277428049 51.204129568304666 0 0 0
2148 1 14.691861616415224 4.337169222184489 49.32568203481948 0 1 0
2210 1 16.298762737269946 6.473924935766566 49.42207267874723 0 1 0
2166 1 16.67297830491784 4.199509529189506 51.16287676844367 0 0 0
2016 1 18.703287420137997 4.407834435264557 49.03750316691953 0 1 0
2153 1 20.583829969373014 6.1027308381455905 49.301118526737966 0 1 0
2546 1 20.79058414236426 4.004758004649774 51.36482848454211 0 1 0
2405 1 18.269940536042043 6.5118428368393575 51.24108236869207 0 1 0
1887 1 -0.2544645018650088 4.119653625158262 50.97319878561438 1 0 0
2126 1 22.763998484238904 4.317120717063694 48.901872720560135 0 1 0
2229 1 22.712077303654866 6.210713086090959 51.32349701627217 0 1 0
2389 1 1.8572045563279227 8.399620008039259 49.427951197164646 1 0 0
2870 1 24.441119575701528 8.401449665299513 51.407885802977596 0 1 0
2275 1 -0.10896381970356436 10.600803288586375 49.49875376074208 1 0 0
2034 1 4.0684805116472935 8.523401143304884 51.3043400394625 1 0 0
2020 1 5.887470700444477 8.592469461621674 49.1832100924841 0 0 0
2330 1 9.963755516960289 8.262848604240352 48.842839274421586 0 0 0
2308 1 7.903189817002353 8.51813894214521 51.28690418991023 0 0 0
2040 1 12.096187695123247 8.61894018760948 51.21805961160463 1 0 0
2300 1 14.431816919545753 8.58414811141576 49.30343976845183 0 1 0
2434 1 16.536319782322167 8.616490906782044 51.41302528245277 0 1 0
2162 1 14.444161341738647 10.631910049705596 51.40056839233169 0 0 0
2339 1 16.69801271124443 10.645323398686571 49.183661556287596 0 0 0
2315 1 18.26262472112205 8.427858327020948 49.421486767559905 0 0 0
2508 1 20.501779965933956 10.361965372415332 48.99958395142113 0 0 0
2288 1 20.30771209337985 8.31770139982319 51.06007561447692 0 1 0
2262 1 18.772700127405905 10.7002161622495 51.20757476973842 0 0 0
2230 1 22.600397599210936 8.548670888622604 49.23369847957067 0 1 0
2393 1 22.09751976909193 10.730597457213458 51.62069790588974 0 0 0
1936 1 2.017038300855773 10.470539104364077 51.21390301260243 1 0 0
1915 1 1.8269868991691518 12.478588041428685 49.19320367399634 1 0 0
2374 1 3.7768045837158315 10.069021998051879 49.03806396369207 1 0 0
2182 1 6.150859283634749 10.424670084716924 51.48550927174664 1 0 0
2267 1 6.0352691128960405 12.433393579417942 49.12857503050504 1 0 0
2358 1 4.100095505768093 12.15529693369627 51.112992512128216 0 0 0
2194 1 8.098026838220008 10.133250308196596 48.80405521759677 1 0 0
2249 1 9.983217744187616 10.073881067972902 50.991214422801946 0 0 0
2356 1 8.076498933736724 12.328392979014453 51.42591466029578 0 0 0
2383 1 10.32569833850899 12.327383653475168 49.44290167541379 0 0 0
2409 1 12.252165050455243 10.385930947853884 48.953302178312704 0 0 0
2333 1 12.088624991224233 12.79105341371286 51.524731886348626 0 0 0
2310 1 14.462378909916717 12.291792263196063 49.56571198022124 0 0 0
2525 1 16.63095774335345 12.626204569824532 51.24377371021233 0 0 0
2252 1 18.784218259989593 12.46357129954845 49.18366200248185 0 0 0
2803 1 20.34344525174418 12.664623687674746 51.409638500425245 0 0 0
2201 1 24.471275900069443 12.520916392647997 51.85102516911004 0 0 0
2100 1 22.217133859632973 12.408157703198036 49.43456339644083 0 0 0
2445 1 1.7341687443922753 16.569117896027848 48.96804768363864 1 0 0
2414 1 2.0066295857234864 14.522305371987358 51.357921765551424 1 0 0
2261 1 -0.12405296707872202 16.597579324563114 51.13513946305893 1 0 0
2195 1 24.50397333239556 14.323317339968959 49.45296780377284 0 0 0
2265 1 4.014171694553302 14.620502027286976 48.92559117960022 1 0 0
2654 1 5.885679071014518 14.282135987141205 50.978878799355726 1 0 0
2678 1 5.989680339606332 16.67257665104539 49.12681495796822 1 0 0
1992 1 4.207265186472312 16.32298712697918 51.32444740542806 1 0 0
2208 1 8.200402698628377 14.367100766193287 49.34031550542346 1 0 0
2349 1 10.012621788168975 16.47914152461 49.347003974806725 1 0 0
2423 1 8.049646365597221 16.385454529038242 51.17409644162813 1 0 0
2473 1 10.316962758318196 14.56439964726839 51.6160053021551 0 0 0
2023 1 12.362057651362148 14.66078839978828 49.14888875065283 0 0 0
2687 1 11.989003849519012 16.82458626699804 51.53184109540812 1 0 0
2478 1 14.138195376065628 16.869745491887947 49.22735472721002 0 0 0
2388 1 14.380286413155853 14.551415363240757 51.14750352072443 0 0 0
2119 1 16.31901828851725 14.4835912042602 49.07448679332025 0 0 0
2177 1 16.17681458295214 16.978134288350198 51.40964049789988 0 0 0
2260 1 20.26344400599126 14.694690122777795 49.271545330973844 0 0 0
2507 1 18.296067805935508 14.833240016464234 51.329871068916205 0 0 0
2526 1 18.12345724585355 16.56479270573176 49.37835110948529 0 0 0
2567 1 20.542058580286934 17.063948049282942 51.25279013141614 1 0 0
2513 1 22.26235633943859 14.84394826137879 51.15299350269713 0 0 0
2387 1 22.56416528076722 17.226513797156905 49.455334156439584 0 0 0
2044 1 1.8206266188309432 18.796519440145424 51.25237865097468 0 0 0
2443 1 0.020785051417144762 18.80971279865235 49.128251778306094 1 0 0
2299 1 -0.09765618957031391 20.750243419727653 50.94442302396689 1 0 0
1943 1 2.047929367580841 20.650882909112852 49.05150668464142 1 0 0
2270 1 4.071812530124346 18.848625724826583 49.43261756871375 0 0 0
2421 1 6.2191573533678035 20.98231558352404 49.64474122714705 1 0 0
2420 1 6.264416139402173 18.663415602852787 51.572546047260985 1 0 0
2730 1 4.0750607946286825 20.452267491460184 51.44982619013158 1 0 0
2396 1 8.273478259380886 18.693538829162414 49.36570260508932 1 0 0
2124 1 9.830738898346558 21.220700937546994 49.58822696732712 0 0 0
2524 1 8.257098792749716 20.40526917637463 51.8276535178506 0 0 0
2407 1 10.048000415895686 18.471220715702067 51.51811927469031 0 0 0
2354 1 12.182711669950967 18.893332719890928 49.27909000784446 0 0 0
2441 1 12.228457237384173 20.980050499041198 50.95236888566635 1 0 0
2642 1 14.3741703333638 20.380157564108366 49.449175281610124 0 0 0
2190 1 16.397272992102074 18.74686413723215 49.22727295075329 0 0 0
2709 1 14.454152964882095 18.946612690061315 51.473255230176335 1 0 0
2197 1 16.141834594975236 21.155889521604664 51.42060350868944 0 0 0
2529 1 18.255043296908802 20.93329440110665 49.07074541621353 0 0 0
2080 1 20.092418206853694 18.99942916014109 49.308934700069244 0 0 0
2737 1 18.191124074645778 19.102252960927885 51.086795210868566 0 -1 0
2569 1 20.417950426452073 21.55187134916975 51.381751645582405 0 0 0
2206 1 22.70014316806732 20.561610854347236 49.36815206876018 0 0 0
2289 1 22.960050577575117 18.810372051011846 51.58893941407386 0 0 0
2268 1 2.409142821985354 22.619218460807552 51.18174025883612 1 0 0
1920 1 0.41294657446431093 22.581078815865922 49.10995463763881 1 0 0
2307 1 8.597630409749824 1.8775162736079682 49.71253451404452 0 0 0
2380 1 6.1600894982089445 22.791630279431452 51.62505036594553 0 0 0
2611 1 8.250449485735867 24.56170117694589 51.51103547096998 1 -1 0
2281 1 7.760829394303686 23.09883576718262 49.361654145873274 0 0 0
2566 1 10.509919779426456 22.576961268659467 52.05832607871877 1 0 0
2591 1 12.658519179444806 23.151893450815265 48.94079152585474 1 0 0
2225 1 16.251125053502136 0.142235836955595 51.56118402367986 0 1 0
2309 1 14.203058008112931 23.374965390809223 51.45485895799052 0 -1 0
2226 1 16.056748374252173 22.63313687211666 49.00819875317798 0 0 0
2439 1 21.12914895204223 22.663184756429487 49.01021499116545 0 0 0
2455 1 18.484862193950626 23.291906247968548 51.34498360221536 0 -1 0
2379 1 22.882995303601646 22.913923843529616 50.81206827857263 0 0 0
2736 1 2.034794359373386 2.1994015682401784 55.82666272576557 1 1 0
2031 1 1.6198050638761168 -0.10784662789184701 52.965180364814294 1 0 0
2435 1 3.992439034177492 2.724489574376227 53.61215922669438 1 1 0
2534 1 5.63991751287884 2.5191436862418732 56.0568366505571 1 1 0
3017 1 3.441985155037414 0.1737746111488001 55.23051359150685 1 1 0
2336 1 8.364486984925671 1.772590169994022 53.44967860696417 0 0 0
2327 1 7.765488845103295 0.1123667224695245 55.85001040553984 1 0 0
2422 1 10.264817882581877 1.8530200110591286 55.6732545239344 1 1 0
2450 1 12.228187852448036 2.3347307887900954 53.588474623698076 0 0 0
2150 1 12.258812480232216 -0.05136099005363587 55.94097064999979 0 1 0
2342 1 10.499513824611181 2.2775124550658905 51.37581333021756 1 0 0
2610 1 14.473785793181595 2.58800538411202 55.36850401776789 1 0 0
2059 1 16.212805461309834 2.334295193775561 53.362698572193274 0 0 0
2461 1 16.62374299668724 0.16152710379993335 55.57539837654651 0 0 0
2577 1 20.79636568682229 2.0526972699890305 53.107250326598574 0 1 0
2224 1 18.336123137255903 2.02331113862814 55.372333339935466 0 1 0
2703 1 18.657357034120736 0.23837622721230378 53.39434399538628 0 1 0
2712 1 -0.03847529033308228 0.25584780370219906 55.489664187450515 1 1 0
2241 1 -0.11735239141856563 2.074005382824796 53.404464369513796 1 0 0
2277 1 22.562882682268544 2.078639378029418 55.17665012258886 0 1 0
2728 1 22.888118271703505 0.1908173042284952 52.76228938715597 0 1 0
2035 1 1.8054251089747053 4.315402376125716 53.11154450334339 1 0 0
2702 1 1.8392612984622287 6.361442613997071 55.233352904827875 1 1 0
2240 1 -0.07656296172001006 4.640442334329699 55.15378496677322 1 0 0
2652 1 4.237875206163974 5.993429690199896 53.243557807500636 1 0 0
2369 1 6.170648762833713 4.1003386694625 53.66591150025866 1 0 0
2487 1 3.9186488472834977 4.886637264713922 55.50416380653643 1 0 0
2370 1 6.014884519738935 6.490741248009409 55.751990993695784 1 0 0
2343 1 10.033661627960969 4.022059629852158 53.51649931391177 1 0 0
2490 1 8.046417918537497 4.407083337189356 55.649051792601 1 0 0
2661 1 10.157065213201964 6.304163901953418 55.683890317952645 1 0 0
2348 1 8.499424252153634 6.332158324529158 53.7784158320752 1 0 0
2234 1 12.375456662726549 6.731661041153468 53.424887059750056 0 0 0
2482 1 12.224200701188868 4.277042682866001 55.50132297974179 0 0 0
2494 1 14.287917846484184 4.680736895372734 53.019072715937185 1 0 0
2317 1 14.241946415847714 6.370504812430823 55.82255281407107 0 0 0
2236 1 16.41136752965881 6.382120530108381 53.379248689865285 0 0 0
2451 1 16.50480459867167 4.446448799534939 55.660650955178276 0 0 0
2238 1 18.467199472174563 4.190554535082098 53.39102254265203 0 0 0
2181 1 20.24901060383103 6.415040091607163 53.15843234434614 0 0 0
2483 1 18.393700372334045 6.437788954482679 55.21190867031386 0 0 0
2436 1 20.7737297563974 4.282721066236506 55.099863291473696 0 1 0
2459 1 24.42967432154783 6.588375631474575 53.509869838031875 0 0 0
2556 1 22.660413913551565 4.129238149975098 53.2935205925585 0 1 0
2345 1 22.483400117800777 6.432992200314134 55.52166583161559 0 0 0
2609 1 1.694989701523349 8.325814924500916 53.17180790430319 1 0 0
2079 1 24.1140735321734 8.788875849729072 55.56235459702323 0 0 0
2418 1 2.001319213299794 10.77317275617125 55.40934555574003 1 0 0
2367 1 -0.2710198523657055 10.516387974612392 53.55457858342308 1 0 0
2324 1 3.5157942542399 8.28307553810803 55.37128410524045 1 0 0
2945 1 6.202853264561943 8.151817289620967 53.755713491917305 1 0 0
2520 1 6.258166064326908 10.348908507490947 55.540566340814465 1 0 0
2893 1 7.800368665708813 8.340246264344168 55.72913098920901 1 0 0
2205 1 10.074827394287007 8.43968823862075 53.49324076098009 1 0 0
2172 1 11.878870379348143 8.29218290599035 56.02191091497417 1 0 0
2318 1 12.353678250436142 10.183668683806879 53.40604431341876 0 0 0
2334 1 14.45844661181771 8.468042150231653 53.31935493645972 0 0 0
2639 1 16.35174330021095 8.29353724946223 55.32968216570987 1 0 0
2365 1 14.220721124379429 10.137044555170116 55.84352486973847 0 0 0
2429 1 16.425380938033015 10.728705809558974 53.62394225463663 0 1 0
2296 1 18.383785647222354 8.749689354945795 53.396577072962394 0 1 0
2178 1 20.203236418635584 8.48560058291802 55.32107495306024 0 0 0
2368 1 20.333810218764235 10.803663177524685 53.76812577985261 0 0 0
2602 1 17.857251487700616 10.428891393102983 55.85464835141421 0 0 0
2322 1 22.466999478621588 8.600384717761838 53.254111374985506 0 0 0
2765 1 22.34378186048334 10.859170117788963 55.35954144175381 0 0 0
2279 1 1.945157532304667 12.674657897166497 53.377192907436125 1 0 0
2394 1 3.7337816594879936 10.413209611941806 53.4096360939748 1 0 0
2251 1 5.63104831229656 12.456638810262145 53.38358584372854 1 0 0
2673 1 3.918315710469469 12.61652862668539 55.76215869589262 1 0 0
2253 1 8.050069190139709 10.21408578131118 53.73248729348297 1 0 0
2476 1 10.13615256923671 10.17284846938874 55.504138222428786 0 0 0
2037 1 10.11511257305524 12.156595257626597 53.48964541071742 1 0 0
2519 1 7.992510774785552 12.430785801056468 55.27539797263646 1 0 0
2246 1 12.37271839968706 12.837733959553558 55.31925680106131 0 0 0
2338 1 14.328400759764559 12.550318905172205 53.2769487458849 0 0 0
2381 1 16.61484523093602 12.805041362928897 55.58651852059554 0 0 0
2213 1 18.537965793760456 12.620132967872367 53.46592240028568 0 0 0
2363 1 20.56191073221442 12.756511406095719 55.711670789679516 0 0 0
2410 1 22.416452440393293 12.838930115472667 53.31345072376782 0 0 0
2463 1 24.406091595133795 12.549418958086202 55.323222336737395 0 0 0
2198 1 1.7772536055811692 16.817298009711592 53.61898147074708 0 0 0
2802 1 1.5549910935879692 14.47199205903666 55.46982502543622 1 0 0
2799 1 0.10479346116548705 16.776373352075517 55.520106460162104 1 0 0
2191 1 24.392531202163887 14.833025832452659 53.12177680499009 0 0 0
2278 1 3.9563307767271896 14.76254560144032 53.267635450345395 1 0 0
2263 1 6.173186064583181 16.832794986115182 53.40760343509482 1 0 0
2088 1 4.019856697080313 16.871456048161726 55.27933462479321 1 0 0
2193 1 5.941147767888086 14.601892302597403 55.504194251423684 1 0 0
2710 1 8.135695583275037 14.470299665653439 53.693842480574304 1 0 0
2248 1 10.238835385175072 16.446309750945872 53.35551360509714 0 0 0
2708 1 8.021125825935307 16.66872620769888 55.2607518916515 1 0 0
2547 1 10.366318348991568 14.22579704380196 55.28534457121931 0 0 0
2474 1 12.566178357347429 14.474759660285734 53.34521544914767 0 0 0
2498 1 12.201232575524214 16.889212412308545 55.4313809168831 0 0 0
2359 1 14.168792759485976 14.83316577472852 55.25223551652132 0 0 0
2504 1 14.38266533077648 16.78638124426832 53.41633704082538 0 0 0
2254 1 16.55435770924292 14.515591335154225 53.44493058173502 0 0 0
2810 1 16.368811568384203 16.663721088446458 55.41417107771001 0 0 0
2646 1 20.219464290178053 14.637883229467317 53.20693576534792 0 0 0
2485 1 18.257525814818557 17.07179218884646 53.51319246732459 0 0 0
2653 1 20.284523967052365 17.18484793303817 55.33062660535385 0 0 0
2531 1 18.64243967840391 15.22148854424923 55.16906795800589 0 0 0
2549 1 22.62718013451068 14.611563804991402 55.14645566682755 0 0 0
2169 1 21.97021361719503 16.529933294147725 53.36232414603728 0 -1 0
2674 1 1.939794082611793 18.831888143102667 55.55796119621472 1 0 0
2532 1 -0.23741518469124076 20.42329484256709 55.602662658564334 1 0 0
2501 1 1.823883666788797 20.840117209283292 53.57108636979494 1 0 0
2266 1 3.818911216437896 18.416793855821886 53.1870500997003 1 0 0
2481 1 6.172931932748438 18.81449786637225 55.56676591594716 1 0 0
3089 1 3.7505630707314896 20.89387122626073 55.514178376148244 1 0 0
2568 1 6.128490036741505 20.88566672988396 53.602860702169146 1 0 0
2627 1 8.422677076677251 18.51753814844959 53.552698307004135 1 0 0
2304 1 9.790742503151234 20.54082247455254 53.79973432423501 1 0 0
2499 1 7.852876349001967 21.423504395795746 55.87497957253974 0 0 0
2668 1 10.479422908385754 18.556652638063568 55.471919356238494 0 0 0
2373 1 12.300949043931086 18.991449908755484 53.48383852314744 1 0 0
2449 1 12.155875749302037 21.057166335208045 55.80883239925266 0 -1 0
2670 1 14.350926072042371 19.14111807238354 55.53031807604817 0 0 0
2533 1 16.482809744672025 19.202962348089066 53.46233948197214 0 0 0
2554 1 16.55579259686653 21.202121282238963 55.65622336915378 0 0 0
2550 1 14.310958866608422 21.07451961201616 53.32966068620024 0 0 0
2203 1 20.702349992265283 19.288859418955 53.25389269243657 0 0 0
2580 1 18.332230746162637 19.02283042102581 55.538185817390925 0 1 0
2835 1 20.426559026842455 20.99256387829047 55.257036063520516 0 0 0
2571 1 18.513468490452034 20.82473311949485 53.24965908944824 0 0 0
2282 1 -0.1602310583947677 18.63958326394868 53.46533407251625 0 0 0
2581 1 22.818342533556276 20.84881093770985 53.31120979492906 0 0 0
2624 1 22.409868017330844 18.7678136996023 55.28930599476693 0 0 0
2082 1 1.6809280509614106 22.890829989559826 55.42591067331066 1 0 0
2292 1 -0.2354048381138781 23.041439929993494 53.15111988645432 1 0 0
2586 1 5.682259069486257 0.11037951229975101 53.72913337916573 1 1 0
2411 1 3.8864159412452617 23.175248945150194 53.57144460175732 1 0 0
2561 1 5.813144884755624 22.986870525169827 56.05848337344261 1 0 0
2558 1 10.721588849699296 0.11861243787832931 53.49133881382077 1 1 0
2444 1 7.911302654982501 23.01718921912692 53.83277553412728 1 0 0
2575 1 10.178750045829469 22.85969750137283 55.35925934645654 0 0 0
2690 1 12.547493402274657 23.12234650902804 53.765751038520854 0 0 0
2408 1 14.253719613332343 0.2510261674669486 53.55908652228431 0 1 0
2665 1 14.286332421272412 23.144702010671786 55.64819737919465 0 0 0
2427 1 16.54699224570433 22.710266614438048 53.6897964912097 0 0 0
2701 1 20.670898738889683 0.07876660557139348 55.26900543859589 0 1 0
2415 1 18.70311385748346 23.15659231239261 55.17968844786068 0 0 0
2722 1 20.756192870726338 23.72430625993872 52.88302458421278 0 0 0
2847 1 22.20949713157023 23.000853916492723 55.44291311885607 0 0 0
2734 1 1.7187764069238647 0.1460248904090376 57.66283296351115 1 1 0
2880 1 1.4474374405966282 2.3542174302206296 59.76294599703186 1 1 0
2462 1 24.462538630598367 2.6167869258392917 57.22416215344037 0 0 0
2314 1 24.419227354552376 0.2171505082168197 59.25779304982453 0 0 0
2866 1 5.723642921445379 0.25919201988063156 57.702487395317505 1 1 0
2706 1 3.570566719569484 2.1631066214556083 57.755573916465394 1 1 0
2628 1 5.689259801584601 2.3549844600892964 59.72787711277529 0 0 0
2372 1 3.844863071673995 0.21144339792692135 59.90739872681303 1 0 0
2505 1 7.646608237302616 2.46783774220359 57.76541144331271 0 0 0
2553 1 10.15023101403671 2.451222874106989 59.53689194858622 0 1 0
2570 1 8.199873415982363 0.4567353948675711 59.91512877711434 0 1 0
2237 1 12.449169227009355 1.8331589343159607 57.96752938402855 0 0 0
3022 1 12.410851855806085 0.009549619884768323 59.86730233106013 1 1 0
2660 1 10.104664638645026 0.03042448869940484 57.46285445502874 1 1 0
2582 1 14.143452901683322 0.010121008062854098 57.578713949622944 0 1 0
2335 1 16.28150760993846 1.9476680642522197 57.42975505958743 0 0 0
2470 1 14.402971616036734 2.4732138123582272 59.970338379558775 1 0 0
2472 1 16.37798933710699 0.07329985457387861 59.44203644724372 1 0 0
2607 1 20.544516771638875 2.5560468325994408 57.22544436975896 0 0 0
2750 1 18.880219752415684 1.8685965358334147 59.55917023860343 0 0 0
2873 1 18.927747995465516 0.03153689797114706 57.546716600192276 0 1 0
2030 1 22.505598688672748 2.1764219052994203 59.22439454343247 0 0 0
2726 1 22.26702299403901 0.2296351721040275 57.33235167260359 0 1 0
2993 1 1.8728853313881113 4.26396623380512 57.84241356983098 1 1 0
2456 1 1.6030922368471545 6.68466987412683 59.64090944720754 0 0 0
2344 1 24.340456874470263 4.326049554640855 59.6741216794125 0 0 0
2615 1 3.624835216030358 6.310162880021078 57.950571189498916 1 0 0
2464 1 5.705631236765385 6.487825744819947 59.825098606603774 1 0 0
3023 1 5.702288167469627 4.600689982419815 57.89815163372085 1 1 0
2927 1 3.8625202461410906 4.227316266903075 59.87406545213134 1 0 0
2733 1 7.95414824346129 4.231504354320637 59.640290727024215 1 1 0
2371 1 7.997902065234426 6.247204715762265 57.69747635399163 1 0 0
2637 1 10.45489226770741 6.213994982456753 59.49645322625144 1 0 0
2479 1 10.003562391295231 4.5188711542132465 57.64141292416477 0 0 0
2431 1 12.427739743351365 6.173124619871342 57.61917652451991 0 1 0
3003 1 12.24115239960913 4.360690668528309 59.51924550986349 0 1 0
2863 1 14.53099599844458 3.9246593008564403 57.53241286354019 0 1 0
2496 1 14.398590860524981 6.421506330241953 59.57068995465911 1 0 0
2613 1 16.265240472242645 6.229940877918102 57.39719083762023 1 0 0
2727 1 16.34017410759808 4.0805999786883405 59.58861497159826 0 1 0
2605 1 18.215629619517088 4.230745129291908 57.61447787369633 0 0 0
2815 1 18.6899401863081 6.3939977251183056 59.42392560918909 0 0 0
2320 1 20.499964862574743 6.544930680193998 57.22154714136433 0 0 0
2341 1 20.720853454417437 4.145326198137229 59.69509526663653 0 0 0
2509 1 24.50413494015455 6.178636295569544 57.186636259900915 0 0 0
2321 1 22.593367149571918 4.70491613442289 57.519273182568874 0 0 0
2468 1 22.47290004297023 6.449393663212262 59.637436637157336 0 0 0
2452 1 1.603112947809934 8.430046814126593 57.31437188379127 0 0 0
2399 1 1.1876302831341388 10.469503544827585 59.74716050434883 1 0 0
2290 1 4.1032999830684895 10.51143549121013 57.662181842897965 1 0 0
2428 1 5.640956546386284 8.488793298815201 57.596371204477954 0 1 0
2458 1 3.275067761760607 8.822472475041362 59.3630296512909 1 0 0
2572 1 9.747846873286157 8.26467214459923 57.4943200212496 0 1 0
2738 1 7.670054139856084 8.197768876417923 59.482022305915535 0 0 0
2718 1 7.913861740770166 10.38050823030062 57.70750878394094 0 1 0
2973 1 10.303815990925001 10.66423702718347 59.55377094489547 1 0 0
2594 1 12.107661286989444 8.363365206378324 59.580117054713746 0 0 0
2376 1 12.173502942631565 10.55766802785455 57.700954141560935 1 0 0
2484 1 16.19651159023544 8.303900040028505 59.88969103321762 0 0 0
3004 1 14.357638168206956 8.246572556215105 57.82593878269775 0 1 0
2735 1 14.314478013259242 10.371708741936677 59.56588642073137 1 1 0
2621 1 16.470536636610078 10.33997437014901 57.97363449119257 0 0 0
2361 1 18.18894140209982 8.16543304013185 57.612393534142306 0 0 0
2779 1 18.439810216760534 10.671975634472924 59.77913563608251 0 0 0
2511 1 20.469846365165587 8.724435519464786 59.47229753937994 0 0 0
2188 1 20.204980861014313 10.78076294733968 57.51102545081619 0 0 0
2471 1 -0.2676144523588545 10.703269286244758 57.31669125679072 1 0 0
2228 1 22.24106146625701 8.595940039276027 57.23729742438712 0 1 0
2944 1 22.474339019575545 10.404274221635076 59.52679962403107 0 0 0
2596 1 23.985055487162356 8.207619290332465 59.34546500158405 -1 0 0
2419 1 1.8440524809011931 12.553816978707777 57.581069602123506 1 0 0
2355 1 5.993185852948125 12.64113169994529 57.48905691346738 0 0 0
2480 1 3.7518412665694187 12.079746408085338 59.67553372361436 0 0 0
2510 1 5.7593954491372115 10.357762978765594 60.00119206670774 1 0 0
2204 1 10.163549660867705 12.792781279589306 57.21565466645226 1 0 0
2683 1 8.165650773326814 12.537603171303989 59.60774826604588 1 0 0
2776 1 12.269973916861039 12.272884859786632 59.49670941563192 0 0 0
2626 1 14.328391286358148 12.42961364212743 57.71773979439713 0 0 0
2331 1 16.378981349270028 12.939563505771538 59.70938049974815 0 0 0
2749 1 20.61270829130377 12.533012022934585 59.55908587772242 0 0 0
2176 1 18.37715661424255 12.580658869580517 57.68082411942838 0 0 0
2723 1 -0.24264725740506102 12.472680654792352 59.64861956636175 1 1 0
2060 1 22.47942306628216 12.561853994326407 57.53832116702809 0 0 0
2622 1 1.6140320076266854 16.825254923106087 57.54286532643469 1 0 0
2631 1 2.0531358485565905 14.450424234536733 59.42832208430899 1 0 0
2502 1 24.332427821446743 14.74702613846715 57.71466465399888 0 0 0
2488 1 3.8026540818195453 16.50585071064085 59.83519500387588 1 0 0
2543 1 4.203277433134916 14.519249315411896 57.62527451278928 1 0 0
2691 1 6.244497015116933 15.002785106569792 59.43620611279147 0 0 0
2879 1 6.07691161985039 16.918096264204713 57.361135288895966 1 0 0
2658 1 8.223444460415495 16.837020626632615 59.06661776207994 1 0 0
2936 1 8.173435393584308 14.621020900766013 57.562946435295466 0 0 0
2424 1 9.95198146390852 16.634974109455797 57.34667173547897 1 0 0
2346 1 10.139441616232352 14.729196755019114 59.44538761718226 1 0 0
2675 1 12.103843081612064 14.70369990914668 57.303449968452085 0 0 0
2527 1 12.306596325352835 16.861814666396363 59.444780135185006 0 0 0
2548 1 15.972876724884946 17.10921361918229 59.817178927223864 0 0 0
2432 1 14.061652706317386 16.766279913000922 57.427139927825294 0 1 0
2814 1 15.969505513810974 14.845932651216563 57.45761477522349 0 0 0
2807 1 14.250345030113799 14.624674618057586 59.81318537163034 0 0 0
2493 1 20.82268253845271 16.855821135194347 59.36887396229394 0 0 0
2816 1 20.67472859409755 14.568775943269024 57.732363279578685 0 0 0
2834 1 18.695473833971405 16.98703823137376 57.72762678217641 0 0 0
2948 1 18.330739839203694 14.888774013213622 59.30666915614511 0 0 0
2826 1 22.622070128281656 14.51535819521807 59.779965300267754 0 0 0
2276 1 22.75427397699869 16.858185965705786 56.9643819588402 0 0 0
2612 1 -0.04566969394054218 16.417420258494218 59.55381853236298 1 0 0
2685 1 1.94168779368749 18.761890643008577 59.80426901539917 1 0 0
2585 1 1.8201649694135456 20.837484072588282 57.649332788911074 1 0 0
2705 1 -0.08478152823475352 21.146501983551552 59.73124674644207 1 0 0
2725 1 24.51752103154479 18.606632609638375 57.54851710186336 0 0 0
2699 1 4.028849060838564 18.634584894721662 57.94829302560411 1 0 0
2514 1 5.744461108310871 20.44913226062352 57.50893258588262 1 0 0
2200 1 3.8932924439167413 21.219232691881444 59.706881697731546 0 0 0
2856 1 6.672884121114915 18.738706203612516 59.51489019290333 1 0 0
2565 1 9.914085444662113 18.996502500945425 59.18951969304692 1 0 0
2516 1 8.04084221619514 19.02801557159892 57.37925375415165 1 0 0
2469 1 9.953509252242094 21.29141759370772 57.53285561215638 1 -1 0
2682 1 7.969119487968522 21.01670880386707 59.521165441289064 1 0 0
2426 1 12.449023589685273 20.880879875206304 59.70074493853359 0 0 0
2573 1 12.011662180559327 19.03308302018455 57.540553533305165 0 0 0
2412 1 14.226010970111705 20.948697058348024 57.69435531823951 0 0 0
2552 1 16.36667824128785 18.67360395779786 57.568141499175766 0 0 0
2648 1 13.983252508277639 18.840553542003263 59.680988903513516 0 0 0
2295 1 16.28786895583928 21.168752368944716 59.76861598029913 0 0 0
2791 1 18.169089212915793 19.20716670741971 59.75147940502836 0 0 0
2681 1 20.572587924009362 18.937778793803822 57.43327173016543 0 0 0
2852 1 20.361978530005786 20.84387997611796 60.06853751783782 0 0 0
2384 1 18.540043026393306 20.79966341452451 57.5557917991103 0 0 0
2666 1 22.63357992606153 19.378491366725342 59.429129241095566 0 0 0
2943 1 22.531312112665006 20.783985026154028 57.395680025045934 0 -1 0
2851 1 1.7523069293638533 23.280208090309813 59.62513416212728 1 0 0
2769 1 24.477371176403565 22.79746844902798 57.2839815815482 0 -1 0
2633 1 6.026951698080652 23.530913568003328 59.8097597155969 1 -1 0
2465 1 3.935543660142727 22.93193416440006 57.58381240284371 1 -1 0
2564 1 7.9677901110119205 23.224701917243962 57.91822943059648 1 0 0
2590 1 10.305067360500397 23.250067303905418 59.704462900547604 1 0 0
2576 1 12.134666965964987 23.004767869660732 57.798085572600165 0 0 0
2583 1 14.4356762364825 22.84558911160888 59.7481657285767 0 0 0
2538 1 16.335824372602133 22.88601701610351 57.79718602380744 0 0 0
2759 1 20.950854811793825 -0.28232886332547347 59.86565149334673 1 0 0
2698 1 20.704629573411815 22.91507718986876 57.84536715123618 0 0 0
2560 1 18.69666993883464 22.765986784074606 59.473056347181554 0 0 0
2589 1 4.486748645630849 23.00809463534872 48.908335452872926 1 0 0
2541 1 2.0397092411855673 0.2433326787843223 61.59772252447492 1 1 0
2970 1 2.325458913044552 2.098119004234 63.90881980935709 1 1 0
3010 1 -0.004245206550742453 2.537736729656624 62.16057963406768 1 1 0
3013 1 -0.16135121689191045 0.4467854378322458 63.854542807211566 1 1 0
2587 1 5.944415332099935 0.09644102268973587 61.960279511181994 1 1 0
2861 1 6.02178914200309 1.904706947954247 63.73591762474194 0 1 0
2395 1 3.6030482936775288 2.389027219878494 61.658499902686636 1 0 0
2833 1 7.841952147511542 2.2111393196113487 61.79495277923779 0 1 0
2593 1 10.117280177709786 2.12186015640705 63.854265435664466 0 0 0
2686 1 7.937194612494547 24.47658821779332 63.985375491314166 1 0 0
2669 1 10.150000050827092 0.14103654722384146 61.8623872262153 0 1 0
2839 1 11.997813390498546 2.0811196986528175 61.51324895055713 0 1 0
2984 1 12.238368087609414 0.12369753612488704 63.88199270921735 0 1 0
2739 1 14.637659354679984 1.9640581417348395 63.61705918241953 0 0 0
2597 1 16.572733720189696 2.0949210649849523 61.28004364642045 0 0 0
2676 1 14.313702375404155 0.24066076795902536 61.37956740258432 0 1 0
2899 1 20.524948563756837 2.12770350318732 61.530371680060064 0 0 0
2695 1 18.691422677969832 2.690242633769362 63.65005053937036 0 1 0
3012 1 18.510707354119532 -0.26622477005634004 61.41956398349051 0 1 0
2704 1 20.5336781329094 0.6134651232474526 63.93004223481717 0 1 0
2515 1 22.847868699695532 2.595661590410437 63.66568724854452 0 0 0
2742 1 22.791468577517577 0.27642986448141427 61.67859709360424 0 0 0
2758 1 1.6830318730250005 4.423057601548924 61.92596583412694 1 0 0
2167 1 -0.24007583975195798 6.5657135027151545 61.72852091063665 1 0 0
2656 1 24.294532659045842 4.7380940888520815 63.881545572508834 0 0 0
2544 1 6.0599563034698525 4.121568366332805 61.56760704451947 1 0 0
3024 1 4.028145874639044 4.512972688241666 63.96586806866082 1 1 0
2781 1 6.113107124141784 6.223086170500133 63.61294548055057 1 0 0
2780 1 3.827270633839963 6.623684354774342 61.66014931288891 1 0 0
2430 1 10.037645103057814 4.088666145648423 61.7186170638039 0 1 0
2357 1 7.920022823852518 6.000510546398594 61.80645255710039 0 0 0
2491 1 9.951926354457063 6.183216272832138 63.63463687214638 1 0 0
3005 1 7.951345128844659 4.031179483731083 63.6889593056516 0 1 0
2713 1 12.023467152627305 6.27120400150003 61.62739264079715 0 1 0
2985 1 12.399865049644754 4.155971513577615 63.795223833468334 0 1 0
2982 1 14.21009984981076 4.351470326651906 61.66907941107043 0 1 0
2745 1 16.66515944450319 6.207710255075396 61.74186892674618 0 0 0
2536 1 16.348734225438058 4.286743214270975 63.49683554014948 0 1 0
2867 1 13.97971308072951 6.375500779282755 63.8437176602062 0 1 0
2990 1 18.32173827717036 4.333440660604448 61.47539376407164 0 1 0
2598 1 20.34381615735628 6.541447496095246 61.80336865307013 0 0 0
2898 1 20.886934957891185 4.566249558963671 63.79698240668561 0 0 0
3037 1 18.49524246626312 6.421119720012416 63.92368935768483 0 0 0
2875 1 22.486288814587603 4.193425906898554 61.51437097850961 0 1 0
2846 1 22.585360443838695 6.411306057454812 63.592632814703755 0 1 0
2697 1 1.8414984280886046 6.752082278664667 64.00312359937362 1 1 0
2874 1 1.9888891725777627 8.493402726948185 61.81931825750837 1 1 0
3253 1 -0.1639432143180769 8.35675992773573 64.09035278315972 1 0 0
2632 1 24.423729040432768 10.207398532119274 61.90182618717184 0 0 0
2877 1 4.134377780107993 8.66122246828731 63.81507292855117 1 1 0
2614 1 6.1792464380460865 8.311608225722862 61.72330247094946 1 0 0
2606 1 6.329681581597704 10.556973226742167 63.90775304754791 1 0 0
2801 1 8.223911448775185 8.322415896025106 63.57322986201164 1 0 0
2500 1 7.947671429032004 10.44843771961945 61.93977092436769 0 0 0
2644 1 10.42392804071541 10.44956146025905 63.36837489903767 0 0 0
2636 1 10.019028542277894 8.269751993502341 61.543002665056484 1 0 0
2777 1 12.102818626148771 8.350740876099524 63.52098605370585 1 0 0
2618 1 12.242927237673232 10.904796424693917 61.60630163440156 0 0 0
2885 1 14.302717088320195 8.158830169966576 61.732094449771616 0 0 0
2919 1 15.918568542508629 8.343522137714169 64.24436653130496 0 0 0
2477 1 18.530556881095407 8.401749805652713 61.37594063936762 0 0 0
2667 1 20.424777697064194 8.525602342407614 64.02214849953839 0 0 0
2760 1 22.187629937923937 8.436431193161058 61.599627715919496 0 0 0
2340 1 1.9834916226846935 10.420055123831846 63.59217318716309 0 0 0
3073 1 1.7132134146322222 12.466885107388682 61.85719501624032 0 0 0
2647 1 -0.07671168992024816 12.375477552850837 63.3921540205184 1 0 0
2707 1 3.961264798981313 10.320625270842221 61.69876920684768 1 0 0
2475 1 4.145642776488855 12.755933655457635 63.35686648420536 0 0 0
2741 1 14.075459977035699 12.988792125622654 61.70911424746428 0 0 0
2634 1 8.555294313259171 12.862644880167839 64.11497437387848 1 0 0
2495 1 9.835358510626886 12.655178293456782 61.67707263990326 1 0 0
2783 1 12.031420447051708 12.992596866479955 63.63540918897828 1 0 0
2360 1 16.34587768285308 10.823557750427408 61.6997483184413 0 0 0
2773 1 14.128268834723762 10.841237615685388 63.353994348324015 0 0 0
2969 1 22.33361398588476 22.808049035224236 71.74097897627422 0 0 0
2503 1 16.25273777694172 12.702950740928193 63.71853872150776 0 0 0
2603 1 20.46207317994171 10.704832274206234 62.212496142444564 0 0 0
2766 1 18.190711861957503 10.197422957748469 63.78945113851045 0 0 0
2672 1 18.518618884534547 12.729365016816683 61.61853552965044 0 0 0
3090 1 20.127533609334264 12.629025532194706 64.01210372375124 0 0 0
2574 1 22.555747609692304 10.300444361264772 63.789951825354386 0 1 0
2391 1 22.567306765351425 12.096689198782672 61.59351599052406 0 0 0
2467 1 1.73710615284732 16.52633846085415 61.80646274537069 1 -1 0
2966 1 1.8472181291234184 14.26273805144495 63.77804174034069 1 0 0
2756 1 24.371222274057033 14.423271746931356 61.75568457762516 0 0 0
2680 1 24.521723611983838 16.404216322065842 63.571875237429815 0 0 0
2497 1 4.056332109320206 14.484895012554212 61.448712143739996 0 0 0
2604 1 5.888376841175909 16.800389986133 61.461888008999466 0 0 0
2724 1 6.258297471359879 14.98664701300119 63.874182956828484 0 1 0
2792 1 4.052486245262828 16.22138707443993 63.59652016421173 0 0 0
2813 1 7.909319059928711 14.780774422375055 61.639149115739734 0 0 0
2854 1 10.16354454937817 16.697702385175482 61.51985889530721 1 0 0
2926 1 10.411868771075211 15.008156431764377 63.705475511362515 1 0 0
2786 1 7.87157177316711 16.849441328615725 63.2550014144664 0 0 0
2836 1 12.30448085469052 15.03261387929132 61.59337234378878 0 0 0
2720 1 12.236096980051268 17.096810566155575 63.88047277956914 0 0 0
2453 1 14.09615853315937 17.040433500456032 61.794434284303584 0 0 0
2559 1 16.328622824006594 14.69736246850194 62.03279451559813 0 1 0
2518 1 14.089127530631886 15.190211892963454 63.7608283251303 1 0 0
2793 1 16.385813362189246 16.756963771705927 63.63755035266012 0 0 0
2684 1 18.155945005072553 17.070257046540164 61.554854356057014 0 0 0
2797 1 20.57387965122075 14.610555072356807 61.42229366593085 0 0 0
2689 1 18.234623353366253 14.755986769403819 63.88181648272714 0 0 0
2896 1 20.49329103373646 16.715313967631403 63.52245538115056 0 0 0
2922 1 22.709180617926762 17.056552781506568 61.81418205248263 0 0 0
3067 1 22.604929894541137 14.538197517472128 63.647459011828424 0 0 0
2914 1 1.6870753793566584 18.3985162068832 63.97956970221943 1 0 0
2986 1 0.2866373459599343 20.539169182829816 63.573964345517474 1 0 0
3011 1 -0.2676526861768214 18.6205512050956 61.45532147714996 1 0 0
2906 1 2.1136916024517363 20.76139921507773 61.65225339265951 0 0 0
2928 1 3.6464253807563476 18.802564367464356 61.98984025977825 1 0 0
3076 1 5.967578805009355 18.647454808049957 63.57687629785651 0 0 0
2930 1 3.3524823859024866 20.886836192795357 63.81704409407373 0 0 0
2711 1 5.980652608217229 20.81385974200603 61.42505012081189 1 0 0
2649 1 8.054086856371521 18.905530913840337 61.73500372858936 1 0 0
2522 1 10.107514857522224 20.98387557602181 61.59832037687119 0 0 0
2855 1 9.919691481399697 18.921178178384295 63.71848161168571 1 0 0
3285 1 8.324181056107316 21.20035673828999 63.533500090078086 1 0 0
3083 1 11.962231536459672 18.80517316864423 61.50659527411547 0 0 0
3007 1 12.205081726890079 21.18900873722403 63.491614044712925 0 0 0
2643 1 14.076701735147706 20.770946872881765 61.77389182001991 0 0 0
2641 1 13.955580619076985 19.139031993750564 63.96032008722448 0 0 0
2732 1 16.25334345444324 18.92890525303622 61.57538420807068 0 0 0
2563 1 16.34994455113172 21.091745198841288 63.64393832699307 1 0 0
2417 1 20.833367784631093 18.846802320067376 61.62332767252576 0 0 0
2818 1 18.589487290711226 18.973176566081534 63.849100754607 0 0 0
2983 1 18.34575057325342 21.21381396718406 61.826339280479004 0 0 0
2650 1 22.883732976899402 21.310859957012546 62.03527926307381 0 -1 0
2625 1 22.52774680723641 18.711654641057606 63.894623750656045 0 0 0
2790 1 20.65768098351146 21.219844519720247 63.65321121827859 0 0 0
2981 1 1.7010600024529248 23.213893601275394 63.98122295973193 1 0 0
2657 1 0.026587528993652354 23.099871204323854 61.51236442508436 1 0 0
3000 1 4.064922231433737 0.10729300598599201 63.86454379404916 1 1 0
2537 1 4.047929210912825 22.74217585262916 61.81393315274646 1 0 0
2827 1 5.7775720681611595 22.714734887699187 63.932240817123834 1 0 0
2655 1 7.8868970642345335 23.086435861621688 61.63408578858889 1 0 0
2960 1 10.15929814642128 22.94181616833017 63.98490739548162 0 0 0
2692 1 12.328993643101128 23.143575943921917 61.739470859489906 0 0 0
2595 1 16.749444408384335 0.3166113143285536 63.33359368106412 0 0 0
2486 1 16.292502728674364 23.006851024513665 61.718071223594244 0 -1 0
2535 1 14.293819907449087 23.0844754860696 63.69385583445891 0 0 0
2555 1 20.595311385005438 23.19418154794922 61.84864819101586 0 0 0
2599 1 18.625952304914733 22.928225565523093 63.826615382342005 0 -1 0
2679 1 22.90766664332847 23.18840286964317 64.00003818165158 0 0 0
3014 1 1.7711264585375428 0.2565399120733898 65.9630731649988 1 1 0
2731 1 1.8469512429170831 2.3349693545808496 67.75714071409078 1 1 0
2998 1 24.273875110212934 0.36425309055435307 67.77077452325608 0 1 0
2975 1 -0.17223929316868614 2.358188187350343 65.90257754707557 1 1 0
2601 1 4.228123034952974 2.1393710954647274 65.54361706196781 0 0 0
2849 1 5.793009861101443 2.0797475082714927 67.72259218089008 1 1 0
2757 1 5.897079969688317 -0.20653786211983122 65.9271391222969 1 0 0
2946 1 3.8488511129086813 -0.2804387889371354 68.01229763542972 1 1 0
2716 1 8.005692302677824 2.24251819732962 66.09814141996227 0 1 0
2694 1 10.274535284230907 0.2970346402098011 65.91469364619371 0 1 0
2805 1 8.050088125012595 0.1856766203020609 68.048822810811 1 1 0
3270 1 9.97574216690825 2.7360868463856516 68.14608739707774 0 1 0
2829 1 12.062760806414087 2.402704317253593 66.46470901991358 1 1 0
2717 1 12.203831290887116 -0.17936994021574587 68.09243011718405 0 1 0
2831 1 14.315779256451753 0.22619304171991406 66.2851817484549 1 1 0
2579 1 14.348244197565345 2.1452502823782282 68.28854033081262 0 1 0
2638 1 16.448891310076043 2.096706199255642 65.68190229171759 1 0 0
2889 1 16.282796859049057 0.20729579196239056 68.08880272834014 0 0 0
2719 1 18.539660074648246 2.20907824896698 67.75568931416208 0 1 0
3133 1 20.414754042596257 2.3578658171200133 66.0599893732865 0 1 0
2578 1 18.59669751343411 0.09359334277626374 65.70559488490431 0 1 0
2671 1 20.201487980429313 0.21012428123444682 68.20383521274476 0 1 0
2800 1 22.119012016838937 2.317614847006853 68.04185780933247 0 0 0
2540 1 22.37738955481285 0.5773524331274219 65.71586793991173 0 1 0
2804 1 1.8222469188572985 4.348137180653891 65.79038376555229 1 0 0
2916 1 1.8297779891666526 6.43991389874093 67.76609613005976 1 0 0
3070 1 -0.18312093849072805 6.640547104060706 65.98335192865659 1 0 0
3020 1 -0.20655519075556672 4.722886056696377 68.03707686237149 1 1 0
2740 1 5.883521792109227 4.144082368367757 66.10668927641805 0 0 0
2751 1 6.189996903148265 6.108364927261963 68.29824164798069 1 0 0
2512 1 4.074234052433637 6.550856001290825 65.98761933396116 1 0 0
3026 1 3.7358232457268876 4.162688063837726 68.01689507185168 0 0 0
2859 1 10.231419350970882 4.175887691900737 65.48107675024022 0 1 0
2860 1 7.809424177276126 4.193100454863168 68.2814571956593 0 1 0
2887 1 10.013240785039304 6.000026065720497 67.8734139106688 0 0 0
2761 1 12.102055398587328 5.953813368162828 65.76604148608641 0 0 0
2858 1 12.326154647303424 4.379013608830951 68.40600230754075 0 1 0
3124 1 14.764436430654913 5.806628605401267 68.29730420794576 0 1 0
2696 1 14.124101747156095 4.061689507141616 65.96757431106954 0 1 0
2620 1 16.50545726830611 6.200431337380852 65.67715330577334 0 0 0
2862 1 16.56322520105195 3.863786349763968 68.12875048164673 0 1 0
2747 1 18.400351021471778 4.26142221936907 65.82641188185201 0 0 0
3042 1 20.40991380949731 6.523994859835227 66.10386622622653 0 0 0
3064 1 20.282995322038637 4.304784360035257 68.055408486694 0 0 0
2754 1 18.51167115281995 6.444963722300395 68.13081579848372 0 0 0
2617 1 22.680552937027308 4.17622377196475 66.20017652937025 -1 0 0
3072 1 22.493512108995247 6.577575246141455 67.88672190456293 0 0 0
2971 1 2.061511135775494 8.693269690136615 65.87346777066685 1 1 0
2925 1 24.510660081507197 8.528476086283062 67.88692737169265 0 0 0
2789 1 6.072963333319009 8.639230653307179 65.73279307317932 0 0 0
2956 1 4.162221270516487 8.580602920708074 67.82819063818482 0 0 0
2700 1 8.37360620119961 6.257428380328561 65.72340219717114 0 1 0
2521 1 8.193345236446964 8.113910668399356 68.09215897355898 0 0 0
2788 1 8.1585541378255 10.672134906416794 65.70931765454779 0 0 0
2584 1 10.148289807162154 8.151707323061343 65.62390442749862 0 1 0
3018 1 11.918836755969563 8.762015410256657 67.79871767991636 1 1 0
2623 1 13.750496902988985 9.454275591936957 65.34247201775565 0 0 0
2840 1 16.09495846336604 10.796122259755606 65.86063194252495 0 1 0
2915 1 16.297559120377898 9.008516322063647 67.98811259162267 0 0 0
2744 1 14.021951667791813 10.569821241777563 67.9564729161925 0 0 0
2619 1 18.470280150428813 8.404657731224967 66.00232516614781 0 0 0
3041 1 20.32287494377468 8.646761257603261 67.82066264712378 0 0 0
2629 1 22.41751822507863 8.471914672113378 65.85379324319553 0 0 0
2523 1 2.0690823544058503 10.38492065132412 67.99434598621431 1 0 0
2659 1 -0.21019847276176334 10.69623337260894 65.6658445965364 1 0 0
2663 1 2.3701980165991867 12.384449404293047 65.98846816536872 1 0 0
3192 1 -0.1726861767216406 12.389503941041946 67.67664214251289 1 0 0
2921 1 4.248021572595117 10.450445095258507 65.94509806568382 1 0 0
2881 1 6.451275478387728 10.660468150557842 67.80483983374981 0 0 0
2918 1 6.03725676835008 12.671104729891544 65.44770172850406 1 0 0
2920 1 4.500330530370332 12.82007932498807 67.88988207049027 1 0 0
2809 1 9.994385946483538 10.817926659281628 68.17699243663475 0 0 0
2664 1 9.984464696561789 12.741399318030854 66.07849898065157 1 0 0
2782 1 8.115756246615616 13.027048766849923 67.6461670287836 1 0 0
2932 1 12.025679943857298 11.129968736388339 65.83559481287821 0 0 0
2600 1 11.938586872054065 12.619170232387754 67.81837517022569 0 0 0
2891 1 14.16278139341248 12.87902251684902 65.92926046423014 0 0 0
2645 1 16.08330935341487 12.483809972565883 67.92171212975526 0 0 0
2753 1 20.015108230011172 10.525510800467421 66.15803470925727 0 0 0
3182 1 18.339389236253005 10.773057797037936 67.81223272330439 0 0 0
3031 1 18.293018648926967 12.922135718114056 65.80130221636941 0 0 0
2869 1 20.599373396431076 12.806141107574167 68.16660764464189 0 1 0
3093 1 22.81250251487092 10.695847195073402 67.7289071204296 0 0 0
2635 1 22.244857762416345 12.551722099706723 65.95443687887496 0 0 0
2392 1 1.9214001455605412 14.376476900019965 68.00615209185028 1 0 0
2953 1 2.0108131691440967 16.55782419235681 66.02792368296906 0 0 0
2775 1 24.222471401333387 16.673896080201708 67.93482566355982 0 0 0
3210 1 6.171924776315814 14.936307957045381 67.74360806057277 1 0 0
2908 1 4.027438623032414 14.701624246119442 65.8554138255418 0 0 0
3105 1 6.097736799570368 16.85432503724671 65.70409191761374 0 0 0
2808 1 4.085826036297615 16.874095375395825 67.86928402865985 1 0 0
2878 1 8.252655844390532 15.1266940935612 65.77084932323342 1 0 0
3075 1 8.113304168994548 17.0362857897343 67.84010402710078 0 0 0
2949 1 10.10012633506305 17.037794688440158 65.84356465503052 1 0 0
3240 1 10.20676214762344 14.87320845266535 67.97315678207136 1 0 0
2819 1 12.20047583063547 14.803524436530402 66.09955058701928 0 0 0
2980 1 12.055804433063864 17.045117299253306 67.81331072580417 0 0 0
3095 1 14.289039389286462 15.222121144136327 68.00384519714964 1 0 0
3147 1 16.21315440125059 14.678683881804469 66.15787595270928 0 0 0
2492 1 14.258402880347822 17.039744455614773 65.78961212227674 1 0 0
3122 1 16.51851616355348 16.87909409844368 68.02244091165355 0 0 0
3129 1 19.040435565362387 14.9415601757452 67.65737662653024 0 0 0
2608 1 20.555161793130253 14.937936504361765 65.39112204380979 0 0 0
2794 1 18.476758405284528 16.748629340999038 65.87242377788587 0 0 0
2838 1 20.67555160683471 16.92125799661092 67.85151079993605 0 0 0
2823 1 24.496311231574857 14.701449311507002 65.84894841130782 0 0 0
2910 1 22.382608275539653 16.93944583459954 65.85739620920103 0 0 0
2795 1 22.256082285992314 14.76348688639646 67.83545923616566 0 0 0
2853 1 1.7198713617854007 20.841666026689637 65.98778312409036 1 0 0
2996 1 1.7452362173463838 18.992040560521765 67.65871509632836 1 0 0
2822 1 -0.27023555292552803 18.814186520317456 65.8273175983455 1 0 0
2952 1 -0.2101456003447737 20.87451946033761 67.67369544105034 1 0 0
2974 1 3.733127536227663 18.881305596812858 66.13567662112808 1 0 0
2903 1 5.939792975304462 20.803410972561743 65.85546035923184 1 -1 0
2991 1 3.709558978679455 21.087722155458707 68.0377066238209 1 0 0
3145 1 6.162216968276461 18.805913573690553 67.77776040112997 0 0 0
2693 1 8.107859042003026 18.900834325914417 65.90337160559312 0 0 0
3266 1 10.177204492510327 21.198534632555976 65.84741904898692 0 0 0
2806 1 9.958291739174479 18.953757469763374 67.89767013279584 1 0 0
2830 1 7.95189773296096 21.163462561432866 68.0917962431337 1 0 0
2837 1 11.999577538767921 20.84814104459631 68.18727920465034 0 0 0
2812 1 11.984479705580283 19.137816976370644 65.91944858591228 0 0 0
2977 1 14.246583660456531 19.03959777728059 67.83074563610705 0 0 0
2715 1 14.546112716108814 21.06398950772678 65.96894535191416 0 0 0
2770 1 16.566340739985435 18.824328091239863 65.64122621527116 0 0 0
2923 1 16.332484174788142 20.84752629822559 67.95240763883359 0 0 0
2865 1 18.412447942452232 18.836792814171886 67.72550796573086 0 0 0
3114 1 20.360500088324756 19.19563103912168 65.98347252233637 1 0 0
2934 1 18.485770357712745 20.923231568436478 65.69814589724893 0 0 0
3128 1 20.39587842361408 21.02427150270806 67.86072410309336 0 0 0
3062 1 22.48657873636325 19.17358770226444 67.43317946188344 0 0 0
2845 1 22.32404688984898 21.095532036727064 65.81334323713352 0 0 0
2616 1 1.8105529499320223 23.097170113894627 68.31502648273042 1 -1 0
2917 1 24.531546574527802 23.09594215721699 66.09912874512949 0 -1 0
2677 1 3.786640387886534 22.90637945539398 65.78217087787073 1 0 0
2562 1 6.072071240000392 23.09115365881172 68.05462940254844 1 0 0
2997 1 7.96361817616007 23.008532390680386 66.07425561983564 1 0 0
3098 1 10.129924409759493 22.9168985808326 68.19531479709363 0 0 0
3001 1 12.499566531379612 22.873284042908743 65.92155044217472 0 0 0
2857 1 14.589006406051231 23.010836412006498 68.14337701399458 0 0 0
2530 1 16.695295650135357 23.138860147952762 65.62650903226637 0 0 0
2843 1 18.156050994451753 22.973924635061557 67.99446736993718 0 0 0
2841 1 20.655026719133346 23.402903648951536 66.02983856708482 0 0 0
2864 1 22.570647108154212 22.99466926157789 67.9837589591105 0 0 0
2828 1 1.743171834646446 0.41137585601284166 69.80086343808625 1 1 0
3211 1 1.4805631970980968 1.9201153980297683 71.78560162376112 1 0 0
3158 1 24.310756642967156 2.3959974645677744 69.7705120671099 0 1 0
2798 1 24.400629483730192 24.5682916521463 72.41820967005575 0 0 0
3292 1 3.5339964526698693 2.0662597934187197 70.10510299705004 0 1 0
3281 1 5.5926916947162795 2.339035263505295 71.9391219521647 1 1 0
2688 1 5.572800359394694 0.36690690930197833 70.1442513567682 1 1 0
2894 1 3.528474115835542 0.13047347406841064 72.80724054578201 1 0 0
3048 1 7.9857563307077015 1.6393832733801246 70.55051465003231 1 0 0
3311 1 7.9149090562557625 24.544667232540284 72.34005686754062 1 0 0
3021 1 9.984388972708377 2.2985112381662383 72.14358736909108 1 1 0
2933 1 12.289293290990784 2.1076078418301156 70.11626976251216 0 0 0
3069 1 12.073247443274516 0.05907870535977705 71.9471165122165 1 0 0
3271 1 13.923034062322543 0.26696364486492163 70.13959274098227 0 1 0
2999 1 16.136125957208492 1.8648573710168708 70.44525663232278 1 1 0
2988 1 14.174155334121371 2.347780872805402 72.18063521632018 0 1 0
2886 1 16.223702284378795 -0.038682995172366286 72.75139051568468 0 0 0
2848 1 20.54809451390043 2.1073545866162378 69.96255026810732 0 1 0
3009 1 20.1834561499361 -0.1760829719921885 72.03514576861932 0 1 0
3173 1 18.182264536230875 2.0124484356981016 71.9677888259707 0 0 0
2968 1 18.133739582690474 0.3591799252091491 69.83227541885452 0 1 0
3044 1 22.94303022421549 0.1604439909783682 70.41360601171306 0 0 0
2844 1 22.62683904565926 2.1781284251162587 72.09083122284716 0 1 0
2994 1 1.6443988208081415 4.408683267842158 69.81798450897861 1 1 0
3039 1 2.291518908499271 6.271731046752849 71.83524648386916 1 0 0
3164 1 -0.17416757431930546 3.887097027642638 71.9560426735994 1 1 0
3043 1 -0.2352583186012901 6.369768250472805 70.47749574099214 1 0 0
2842 1 5.543582580784431 3.539225976610761 69.79588065982296 1 1 0
3077 1 3.8365602633336593 6.328760225581838 69.76948468785918 0 0 0
3162 1 5.902339595587407 6.263797149507308 71.8096124217488 1 1 0
2884 1 3.8171939784093833 4.072766352552532 71.75488927782683 0 0 0
3146 1 10.204631784798723 4.699341856625438 70.16350609242016 0 1 0
2901 1 8.357618458700149 6.349874960227509 70.4881595185218 1 0 0
3307 1 7.900405530184193 4.333615550802913 71.93299639493046 1 1 0
2905 1 10.627557265250445 6.355586207124604 72.31123124516614 0 0 0
3180 1 12.230489384615778 6.494996635493805 69.98301365891481 0 0 0
2772 1 12.119746173819756 4.04184466020456 72.02851621246074 0 0 0
2460 1 14.637820521881926 4.310615676206939 70.44594272250424 0 0 0
2820 1 16.540430235982086 4.184385409672142 72.24413141622585 0 1 0
3016 1 16.244424266017262 6.502013456417172 70.26336064241059 0 1 0
2785 1 14.282309945016879 6.051548187075265 72.3745274665711 0 0 0
2871 1 18.09834639139231 4.346167146092472 70.11611905848582 0 1 0
3154 1 20.523083229505822 6.4004967128043475 70.28571120464503 0 1 0
2748 1 18.39467100231103 6.002839468206541 72.06557291151043 0 0 0
3106 1 20.341865336388913 4.053532849798056 71.84764902533212 0 1 0
2902 1 22.685671468195196 4.214503931568135 70.12507277540655 0 0 0
3305 1 22.526519215853675 6.21418418439016 72.106281330277 0 1 0
3047 1 1.614608285499241 8.416780541710864 69.97855579245737 1 0 0
2752 1 24.325012892918636 8.33132464232531 72.14336168293761 0 0 0
3312 1 3.9213648235947263 8.662675100819696 72.3868681423537 1 1 0
3046 1 6.185413248737262 8.405050915292298 69.72576345820582 1 0 0
3276 1 7.660104428332399 8.263523097875833 72.02647776582225 0 1 0
3045 1 10.15772045775846 8.216018213496117 70.39116910316815 1 0 0
3245 1 12.596850885392493 8.759060722674404 71.66657490747767 0 0 0
2912 1 13.963398779912955 7.281760238743392 66.50411607996668 0 0 0
2937 1 13.9869121587461 8.376763278801608 69.33595889034109 0 0 0
3300 1 15.89340125539922 8.879430599989913 72.18628214475606 0 1 0
2771 1 20.388995460491678 8.538271319374644 72.04249209518844 0 0 0
3033 1 18.274932175472067 8.583892620293128 70.03205995360679 0 0 0
2941 1 22.321022953583487 8.51337907430632 69.99555212853645 0 0 0
3203 1 1.7486490394880683 10.304304772948154 71.96014903570256 1 0 0
2967 1 1.934180938703336 12.646121897131989 70.10340789431544 1 0 0
3034 1 -0.17291294932678122 12.58159861874128 72.28054052489836 1 0 0
3071 1 6.069638605263388 10.352174020963586 72.35413829173638 1 0 0
2950 1 3.6639930008541683 10.353448715378525 70.0319750903177 1 0 0
2882 1 3.79672829187946 12.578113165929521 72.28737233495491 0 0 0
3190 1 5.658764873680293 12.167728920602947 70.04272665824979 1 0 0
2907 1 8.110532214828178 10.652016107807233 70.20562220395024 0 0 0
3051 1 10.687584356270289 10.365941870653904 72.43572837031093 0 0 0
2630 1 9.88909694013711 12.819181527519262 70.0449372296863 1 0 0
2763 1 7.682484252668549 12.376270975416764 72.22853101528258 0 0 0
2940 1 12.375202380752933 10.84615718553884 70.09625022945522 0 0 0
2762 1 12.041386234305358 12.541979353336764 71.89492021469638 0 0 0
3137 1 16.131738625166406 10.683693101970968 70.03498353408756 0 1 0
2817 1 14.142505189469766 10.902953787739973 72.0284140254933 0 0 0
2787 1 13.966186695314029 12.760810561365506 69.80014630066114 0 0 0
3232 1 16.447854518328214 12.47942251528337 72.00570229572239 0 0 0
2895 1 18.275792307292264 10.342198429577861 71.72123427531886 0 0 0
2651 1 20.47897201637192 10.28945251554077 69.87335940444243 0 0 0
3217 1 20.18329581421534 12.241321520469203 71.77612302216895 -1 0 0
2746 1 18.304254654590267 12.965516410496837 69.86265409092667 0 0 0
3040 1 22.42501364889859 10.807025382925602 72.23112408021618 0 0 0
2774 1 24.33632602089512 10.596123389470286 70.27783376957984 0 0 0
2892 1 22.56760565733972 12.68632701807351 70.00980332788095 0 0 0
2947 1 1.8736730125417886 16.74722777350366 69.65280394227574 1 0 0
3206 1 1.9923589708423979 14.664478194777091 72.13135335853764 1 0 0
3066 1 -0.14557513704662348 14.409793577912458 69.41376848850857 1 0 0
2900 1 -0.20679816001367612 16.69742535782479 72.25623505899136 1 0 0
2958 1 3.995483033255904 14.80884571911795 70.00551519178174 0 0 0
2951 1 3.7388522911283797 16.99281705125926 71.8518951289744 1 0 0
3237 1 5.965945019597286 16.58652480761139 70.26413826003056 1 0 0
3060 1 5.770426326630852 14.724416897335134 72.03083169140109 0 0 0
3142 1 8.067067647298071 14.679407976888653 70.01877658192541 1 0 0
2957 1 9.9196086133773 16.73935724837728 69.83765440037163 0 0 0
3101 1 8.268503939127589 16.76470080815217 72.51998742984048 0 0 0
2904 1 10.003077954729573 14.605109228017279 72.08656953752288 1 0 0
2768 1 12.259059602054382 16.436038190655495 71.89155341710713 0 0 0
3176 1 11.830961197221251 14.629843582251919 69.98960180922288 0 0 0
3257 1 14.025518656221566 14.542935133028545 72.06914802970675 0 0 0
3255 1 16.35037498677343 14.308701580610801 70.28257723993275 0 0 0
3103 1 14.633357854169763 16.47836034146453 70.26045288954842 0 0 0
3097 1 16.492904504644798 17.069476444953395 72.44840325195406 0 0 0
2824 1 20.751240401459192 16.98974328602707 72.14293959867305 0 0 0
2959 1 20.471981390214502 14.586521161323017 70.21796127774334 0 0 0
2931 1 18.594580253209024 17.13029541261296 70.03364321208173 0 0 0
3397 1 18.361666286117085 15.207507307430578 72.13386027201662 0 0 0
3061 1 22.579113844237767 14.376549692535056 72.68723988398895 0 0 0
2539 1 22.443368067348686 16.946375959070366 70.08306486748779 0 0 0
3086 1 1.7372184435894238 18.91419112512928 71.86403248295252 1 0 0
2784 1 1.7863818901935336 20.911204792240156 69.78432520106927 1 0 0
3261 1 3.9360023284305488 18.90577620996953 69.84952081027913 1 0 0
2876 1 5.905852826901224 20.730645442273207 69.74695738546305 1 0 0
3053 1 6.22052465604774 18.88630352403205 71.92603089675691 0 0 0
2964 1 3.931561568303958 21.063132628114495 71.66774705960847 0 0 0
2662 1 7.932184825707992 20.946100022496488 72.18403907684987 1 0 0
3094 1 10.194752610526415 20.697582878847044 70.09673394460867 1 0 0
2935 1 8.261023837359811 18.932312018951173 70.24060772464378 0 0 0
3121 1 10.551507100865784 18.592135471685445 72.0201525293983 0 0 0
3006 1 12.244103161328097 20.818227423098087 71.99601426820811 0 0 0
2954 1 12.3286267206649 18.442775060547554 69.95890071699063 0 0 0
3019 1 14.152681792516566 20.895856242499995 69.88907393504496 0 0 0
3243 1 14.287393509421715 18.853663298102227 71.96949678096158 0 0 0
3227 1 16.4093119073894 18.73345107807797 70.07546602420484 0 0 0
2743 1 16.337797986577115 21.145921374840746 72.70840306924578 0 -1 0
3278 1 18.499391930478026 18.848987353216778 72.34983185397155 0 0 0
3135 1 20.414409364195222 19.056603588049455 70.13621225173037 0 0 0
3104 1 20.132087351922102 21.165925834136516 71.96826967643796 0 0 0
2962 1 18.182966093725888 20.878298975810814 70.00131854174015 0 0 0
2778 1 24.54496332085655 18.908505357465422 69.7574129070814 0 0 0
3115 1 22.382406365042257 19.029470481678956 72.06582569269906 0 0 0
2825 1 22.043512938581742 21.100015613165155 70.11464899336329 0 0 0
3134 1 -0.18207655229640818 22.864113332613677 70.2668700763659 1 0 0
3085 1 -0.04090284305601566 20.814435572520686 72.00536387368223 1 0 0
2992 1 1.8341617434530466 22.749720401915468 72.06246785428215 1 0 0
3099 1 3.9699747135819035 22.94549442893765 70.06410652535723 0 0 0
2979 1 5.680675461933152 22.99538522800433 72.05453248159083 0 0 0
3166 1 10.344518803445384 22.655842106765533 71.99722409578328 1 0 0
3167 1 7.9759785531734355 23.006351053935326 70.25600129832893 1 0 0
2965 1 10.137409105669077 0.027171087603619803 70.24400947848792 1 1 0
2883 1 12.012518099459065 23.009370040552554 70.04757366469372 0 -1 0
3157 1 14.342555365533979 23.261882967292806 72.70739116705928 0 0 0
3008 1 16.24902005849767 22.60082843224088 70.45619475189125 0 0 0
3088 1 18.22188800472466 22.92233318194836 72.33097003948606 0 0 0
3068 1 19.999516950980343 23.221959351347934 69.77471558406282 0 0 0
2400 1 6.349733100180995 12.506150604609932 61.644578753957795 1 0 0
3452 1 2.0999087952057414 2.1226134957284573 76.24958327611822 1 1 0
3155 1 1.6216049231110101 0.1897454825581284 74.49258205552778 1 1 0
2850 1 24.457741078484204 2.3582203160202178 74.28188664221707 0 1 0
3280 1 24.537485121635953 0.14557067657332795 76.4579860106241 0 1 0
3282 1 3.7697444597641034 2.2227756254902413 74.1343348388622 1 1 0
3289 1 5.901686154555515 2.736342262030695 76.26335556035687 0 1 0
2995 1 5.787215294682618 0.2059118626619616 74.1519791486941 1 1 0
3252 1 3.9908724020638395 0.38572515993716405 76.61395658929854 0 1 0
3426 1 7.890136360614678 2.090012956996815 74.07173628722964 1 1 0
3127 1 9.837780195373384 0.1220460707935358 74.43629637708833 0 1 0
3456 1 8.032432651265381 0.13301912963955048 76.35508229883595 1 1 0
3151 1 9.878815944186751 2.5099902152470404 76.66682185969614 0 1 0
3415 1 11.543955395441902 2.534290884148528 74.40483118748892 0 1 0
3293 1 11.88532823103711 0.3406755791551743 76.27806965265094 0 1 0
3141 1 13.31780176344167 0.5519207520541907 74.03179680839631 1 1 0
3125 1 16.23464531094075 2.2813528548994 74.27811433905583 0 1 0
3275 1 16.241710381027552 0.23767793610795396 76.44658776798505 0 1 0
2767 1 14.09472958036964 1.8816214562929066 76.4245325579154 0 0 0
3181 1 20.33488773575231 2.2995214416131375 74.11052203985221 0 0 0
3002 1 18.194567655521517 1.8782233650688207 76.31606742647458 0 1 0
3080 1 20.680004236786097 0.15712035354737008 76.12972595057786 0 1 0
3149 1 18.654075560638113 0.33136122745884644 74.3524261348542 0 1 0
2963 1 22.358042970637854 0.1867767864407187 74.19426150816776 0 1 0
3116 1 22.51167451148534 2.4090213355725636 76.1749681396625 0 1 0
3186 1 1.8674644087101502 4.071173894926216 74.12895902386455 1 0 0
3443 1 1.9455692149972141 6.534354525789325 75.92878775312411 1 1 0
2897 1 0.02827699886653573 6.1441902271936675 73.82080901416566 1 0 0
3160 1 0.11270727816193271 4.354924202126601 76.33849761155986 1 1 0
2714 1 3.8698622978316344 6.532910335983218 73.95206828264816 0 1 0
3337 1 5.949586419518987 4.582498274300746 74.02104830406356 0 0 0
3132 1 4.139080265760968 4.691346028787206 75.77125689970387 1 1 0
3027 1 6.135154726080402 6.942317681199648 76.08678538711058 0 0 0
3298 1 7.901989714583257 6.464389110118664 74.01342273454037 1 1 0
3333 1 7.936605352347902 4.512455221890185 76.19216730765876 1 0 0
3294 1 9.826825452196655 6.65834142659541 76.23880996053535 0 1 0
2911 1 9.807532666830419 4.634288908632764 73.99851794586067 0 0 0
2978 1 12.155478231432998 6.018526290978792 74.42235566134627 0 1 0
3412 1 12.367854904569105 4.111996454266836 76.45833516765919 0 1 0
2868 1 14.00076900774803 3.925565775246202 74.43331497360742 0 1 0
3038 1 14.508308593815688 5.886422797922296 76.24843500615626 0 0 0
3440 1 16.418413264943915 6.5364408381020915 73.91472354302326 0 1 0
3110 1 16.28995803815937 4.011170749860733 76.37172916237026 0 1 0
3030 1 18.377679097337293 4.452433847215111 74.31499840377276 0 0 0
3161 1 20.14962106162718 6.686016421574722 74.02719319466738 0 1 0
3299 1 20.623223725266428 4.447195355128246 76.06613521955092 0 1 0
3177 1 18.570580308083642 6.360071822536075 76.14494111117557 0 0 0
3304 1 22.57612571978799 4.323424305598571 74.06650482724257 0 1 0
3447 1 22.575529023471113 6.260628356631275 75.9446104655132 0 1 0
3185 1 1.6532276335750256 8.489421067039375 73.92068819708425 1 0 0
2961 1 -0.24357279741957252 10.43622897253164 74.22732164032976 1 0 0
3308 1 -0.18230540860259364 8.319236793343714 75.98231215865513 1 1 0
2755 1 5.951325740278262 8.597231193324284 74.26936508027953 1 0 0
3057 1 3.9749078035020027 8.501286473299725 76.02130562789023 0 0 0
3148 1 9.980778734770315 8.17801937137293 74.37502082211967 0 1 0
3059 1 8.150426565203945 8.720735920031503 76.00741439610476 0 0 0
3193 1 12.048758789115885 8.730101211527401 76.22109562773608 0 0 0
3025 1 14.418336059117154 10.675949421267449 76.28449347647626 0 0 0
3109 1 14.410578184184432 8.124726998482924 74.52785620768904 0 0 0
3175 1 16.546769559478975 8.444697641987528 76.24749700644927 0 0 0
2872 1 18.14788964917539 8.481546804916936 73.9032166647747 0 1 0
3184 1 20.803635021843263 8.166721695344107 76.35549867245902 0 0 0
3225 1 22.28596454188508 8.43801584777326 74.13416688918952 0 0 0
3179 1 22.832989101717985 10.449352426884252 76.19085895101111 0 0 0
3065 1 1.6845173891229435 10.551341199631645 76.41385533187048 1 0 0
3359 1 2.053091892491927 12.818747954060463 74.40835705856705 1 0 0
3214 1 -0.1148532343821268 12.676958179195971 76.58270161849259 1 0 0
3213 1 3.735769012522818 10.543387477514976 74.30691979816436 1 0 0
3314 1 5.960134958549233 10.605086752122224 76.65551992781766 0 0 0
3056 1 5.837467960083315 12.56412277436917 74.46989114489185 0 0 0
3260 1 4.286430646998736 12.827504021303117 76.47892946538738 1 0 0
2811 1 8.225313376622593 10.664429679159106 73.84868991972067 0 0 0
3136 1 9.92015781511324 10.811938944183257 75.74617385073967 1 1 0
3306 1 9.830712591820324 12.68860165878784 73.88156460689439 1 1 0
3194 1 8.074018478371704 12.533469308454606 76.69466041976355 0 0 0
3189 1 12.55741047438593 10.692486522677518 74.25568058951094 1 0 0
3055 1 12.378773889757847 12.76239642860602 76.14686481859198 0 0 0
2913 1 16.97631330153807 10.89524167375723 74.19579562822736 0 0 0
3371 1 14.82863055475517 12.825113764274372 74.16895030608646 0 0 0
2796 1 16.50993258540369 12.349657800511974 76.21609595268177 0 0 0
2890 1 18.610972418048704 10.205177931151121 76.2780453835937 0 0 0
3082 1 20.367465577644815 10.508637320719481 73.87316205992232 0 0 0
3326 1 18.596992170930527 13.074169108999332 73.66757432557719 0 0 0
3229 1 20.43251356554451 12.278298236454251 76.2241615705999 0 0 0
2938 1 22.601383428439043 12.456724451630873 74.65082503907715 0 0 0
2764 1 2.0929852392681942 17.086334347686076 74.23550998417008 0 0 0
3244 1 2.215616527417349 14.702963810692381 76.3057534945012 0 0 0
3188 1 0.36841651750970894 14.701640357045061 74.15481344109006 1 0 0
3236 1 24.429510932282454 17.06557007746425 76.36650451713933 0 0 0
3028 1 4.04552864222522 15.185256821005767 74.28708673857213 0 0 0
3074 1 5.961664026373295 16.838220519464315 74.29515004251493 0 0 0
3100 1 3.7529889912857213 17.0744998407989 76.29885738178507 0 0 0
3219 1 6.119962047073112 14.990603632208492 76.57168526228665 0 0 0
3385 1 7.6490658369542 14.574030296311841 73.9543459155692 0 0 0
3381 1 10.255743098717565 16.57893219777909 74.22566817105763 1 0 0
3248 1 8.1562301671119 16.54902847728649 76.16534796292058 0 0 0
3318 1 10.163117744235882 14.399585242165317 76.19459856611593 0 0 0
3079 1 12.10058044466243 14.697424387788496 74.03027381940075 0 0 0
3222 1 12.247334040712081 16.591643320947355 75.93214341374181 0 0 0
3126 1 14.38428617683186 14.674222858985315 76.26972621134456 0 0 0
3150 1 14.331304602425577 16.531930467937194 74.18851668375066 0 0 0
3054 1 16.641360231549974 14.81613637879855 74.16721595190623 0 0 0
3395 1 16.582896874757708 16.503302841267292 75.93667613290799 0 0 0
2942 1 20.741481075615482 14.68597823906039 74.41604091816467 0 0 0
3108 1 18.598449569751025 16.787730299100424 74.29677767929644 0 0 0
3107 1 18.615545966683136 14.382090838763153 76.21275846112641 0 0 0
3374 1 20.712920365110747 16.590454583214182 76.14011901573014 0 0 0
3233 1 22.893595836061856 16.446894439140934 74.29356924170946 0 0 0
3212 1 22.868360487696734 14.400272658724402 76.47186008088025 0 0 0
3139 1 1.9759864463579828 20.94737095623742 74.18216924486276 1 0 0
3283 1 1.667543489071183 18.6898134733948 76.39792227929169 1 0 0
2924 1 3.336934306613637e-05 18.913302695488383 74.11226405285217 1 0 0
3259 1 -0.1383655326778826 20.892088534728074 76.15813655909423 1 0 0
3238 1 3.8896787818957916 19.022658526038505 74.06816730126152 1 0 0
3050 1 3.9076100100802336 21.183226555621374 76.17953458278208 0 0 0
3143 1 6.341078366289896 19.03024666668665 76.24584310570171 1 0 0
3118 1 5.873495458169974 20.793906761241146 73.71645569278414 1 0 0
3223 1 7.933772221107512 18.93314275360933 74.05999117413816 0 0 0
3290 1 9.899630047643589 18.42225798640311 76.34357783132396 0 0 0
3096 1 8.365446673134413 21.047287438694 76.39250854371161 1 0 0
3078 1 10.071309200825507 20.826949725201153 74.50393859968909 0 0 0
2929 1 12.261826722125003 18.63833511849773 73.68278424261283 0 0 0
3228 1 14.301270897659775 18.82215668092389 76.18188774096058 0 0 0
3221 1 16.22801151988117 18.70275885965124 74.43831515195404 0 0 0
3102 1 16.464021408157606 20.630466701796664 76.71096226310468 0 0 0
3152 1 14.127168275522422 20.779732646230457 74.16116075987014 0 0 0
2989 1 18.556296883811193 20.715274898744234 74.92560960117513 0 0 0
3084 1 20.55386466120455 19.15734414807271 73.97887182360122 0 0 0
3368 1 18.599713255714796 18.401155110375285 76.46228169702471 0 0 0
2821 1 22.70636376341868 21.161258727074717 73.95992269292014 0 0 0
3377 1 22.84214524444434 18.801235085704434 75.73082354823967 0 0 0
3256 1 2.0306198016540846 22.999931101279927 76.50891035163758 1 0 0
2972 1 0.0548880384281647 22.89388022500387 74.51442522822938 1 0 0
3159 1 3.9073587283673303 22.973182987591095 74.42042535185942 1 0 0
3265 1 5.965519827176016 23.639186258243228 76.24551157762355 0 0 0
2832 1 8.102096296357951 22.868195885344427 74.60301514497817 1 0 0
3120 1 10.051728823889663 22.973515978493033 76.47922851874188 1 0 0
3123 1 11.884990403287167 20.670989264373 76.40444811046962 0 0 0
3117 1 12.248775194983477 23.29128380364812 74.45615098340772 1 0 0
3286 1 14.373201492790143 23.29611869816455 75.9444765522731 1 0 0
2909 1 16.513776431731188 22.735025936366974 74.77229430905956 0 -1 0
3373 1 21.17168546959644 20.710367134289363 76.18262132820607 0 0 0
3113 1 20.44128922348034 22.932080580855562 73.97892983897083 0 0 0
3081 1 18.316564207750858 23.104242159910967 76.5629670949474 0 0 0
3015 1 22.818251610271382 23.217724927490323 76.21767040114682 0 0 0
3313 1 1.9746754381922438 2.499380631677302 80.35878858369082 0 0 0
3226 1 24.54170113346084 2.1897334293812882 78.34629619925329 0 1 0
3092 1 1.7656701917545226 0.21828694120221703 78.70332988052013 1 1 0
3455 1 24.40193829975339 0.28218729153955635 80.5395577302547 0 1 0
3430 1 4.237639204356597 2.4256516890586917 78.54474383726242 1 1 0
3316 1 6.029936253355851 1.9023318223745096 80.57096093146339 0 0 0
3309 1 5.942749798438028 0.4024671696059755 78.22267816578554 1 1 0
3428 1 3.9823456547257017 -0.027809723021307187 80.28257739933926 1 1 0
3144 1 7.867156596348348 2.4343322253600848 78.2894242088883 1 1 0
3433 1 10.088637127524526 2.1920919381266626 80.56417510603697 0 1 0
3390 1 7.957086732727314 0.13307487302091697 80.43847191438701 0 1 0
3171 1 10.223033489240107 0.15723614984449347 78.60944578574217 0 0 0
3174 1 11.981380086252477 2.2482787580287726 78.41897356414927 0 0 0
3414 1 12.210125311066857 0.2642653750697448 80.77288884130141 0 1 0
2888 1 16.487066184799467 2.0374032639435464 78.32238810128607 0 0 0
129 1 14.375794742989694 2.1739228116618357 80.47439007085663 0 1 -1
2987 1 14.38668699350858 -0.021234907782317736 78.40028012473661 0 1 0
3131 1 16.339539327104248 0.19620478713398815 80.73912741715861 0 1 0
3394 1 20.444255489938016 2.024684480466687 78.35864606695236 0 1 0
3274 1 18.501525060768998 2.6161823149421926 80.34659459404216 0 1 0
110 1 20.39774730604813 24.559174969791577 80.8974921727116 0 0 -1
3273 1 18.311540881427646 -0.23513717382346305 78.54329631269832 0 1 0
137 1 22.13334950644225 2.0718011752442167 80.37565484255117 0 1 -1
3384 1 22.609679083572267 0.17393507161655597 78.54261715001897 0 1 0
3446 1 2.2921561207801697 4.332655953128449 78.41816848984905 1 1 0
3453 1 1.8743868158182506 6.520123658833005 80.04683372414848 1 1 0
3287 1 -0.07728222112294525 6.201878476792845 78.31382661762905 1 1 0
3329 1 -0.13926537489612628 4.586930521614124 80.39156972067104 1 0 0
3334 1 4.087067537350376 6.386733083330024 78.23041308164801 1 0 0
3049 1 4.197039291976562 4.341786998062808 80.38219697075579 0 0 0
3191 1 5.94832696521242 4.533320807140691 78.01762959021494 1 0 0
3169 1 5.818571622714371 6.361018418723808 80.31977034580336 0 0 0
3269 1 10.16212226255739 4.415257361674226 78.44953725420135 0 1 0
3058 1 8.264131273139588 6.508787535011167 78.92403472469715 0 0 0
3170 1 7.695645618093578 4.433740124332023 80.43751375096906 0 0 0
3197 1 10.423090714508602 6.585129123455213 80.32529215127195 0 0 0
3215 1 12.148161741062975 6.58781128728756 78.27617762467264 1 0 0
3317 1 12.22341375190913 4.4347562072593565 80.22147759054138 0 0 0
3130 1 14.489772020904532 4.046879467570168 78.49689619031454 0 1 0
3199 1 14.318641696857998 6.697236751535295 80.34247689168762 0 0 0
3417 1 16.232982482793027 6.10208672732279 78.14572226842381 0 1 0
3418 1 16.207624092395257 4.536858143450519 80.12240907853197 0 1 0
3153 1 18.819570923730616 4.1345756936972835 78.06774311243274 0 1 0
3325 1 20.9687611950692 6.308734303678099 78.3069922068423 0 0 0
3036 1 18.629967632132335 6.1243399374492755 80.23358624408678 0 0 0
3035 1 20.83710070457746 4.3331329454719905 80.36328614930179 0 0 0
3279 1 22.697092361804934 4.088505888018493 78.22764776601932 0 1 0
3295 1 22.69848577600809 6.39968559042582 80.40984125637368 0 1 0
3445 1 1.8703249829986697 8.68984665504772 78.06903210642648 1 1 0
3449 1 -0.09519889830470885 8.242855237118635 80.14046500851424 1 1 0
3357 1 -0.25330278829431585 10.579929321528185 78.36442603307282 1 0 0
22 1 4.189336111770239 8.40362499381945 80.20090482203912 1 0 -1
3032 1 6.37888616603982 8.180314043541399 78.27699382503269 0 0 0
3239 1 8.55903388960661 8.76123626054167 80.45392646441204 1 0 0
3323 1 10.752043363333286 10.677468376697679 80.53220021253767 0 0 0
3029 1 10.261768788753262 8.39886243387358 78.45989384742646 0 0 0
3438 1 12.50735299027984 8.563896610143503 80.41803974328917 0 1 0
3345 1 14.81341926849272 8.41395675210708 78.21674300336619 0 0 0
3347 1 16.815392735046714 8.287071610122432 80.02267647741797 0 0 0
3063 1 18.617861692032967 8.09407778838266 78.13946114038586 0 0 0
3202 1 18.90819245237273 10.446112735553212 80.49620897406504 0 0 0
3442 1 20.490200124131782 8.385062816194393 80.41186038299463 0 1 0
3168 1 22.832096557187988 8.37581881929683 78.1378373808856 0 1 0
3331 1 22.84573429921079 10.683180459930233 80.52712001421182 0 0 0
3361 1 2.050641291585509 10.50376289943002 80.49103578233363 0 0 0
3209 1 1.947270630127444 13.022583166613751 78.39407661977117 1 0 0
3353 1 0.11359852557404493 12.666214719940694 80.72295148348977 1 0 0
3342 1 6.326021364615545 10.601458800513905 80.35334125348388 0 0 0
3341 1 3.954857275878555 10.614827617333304 78.47066345253631 0 0 0
3362 1 6.131156074074477 12.763493489846695 78.76774687419132 0 0 0
3218 1 3.9312671441667124 12.946320749404098 80.41332994600262 0 0 0
3241 1 8.162583865484441 10.110891123428575 78.25409566742945 0 0 0
3338 1 10.677681603164435 12.53930628200649 78.19772144856398 0 0 0
3434 1 8.574588192669186 12.421428630533773 80.45418606612168 0 1 0
3343 1 12.360174872441382 10.342902945785449 78.47293028983171 0 0 0
3201 1 12.478774260561606 12.70467810823011 80.05682234145635 0 0 0
3224 1 14.3651914130704 10.341873269391618 80.31468355728296 0 0 0
3322 1 16.67438834118836 10.695706084128041 78.34216150812833 0 0 0
3156 1 14.652101386957959 12.491702876622666 78.3207901095509 0 1 0
2939 1 16.24604653829377 12.881512441157417 80.37846031457653 0 0 0
3321 1 20.664494234196525 10.903988729190154 78.2868020008093 0 0 0
3205 1 18.598895256925168 12.441326667260618 78.17925944839746 0 0 0
3198 1 20.294990253876236 12.68266080613504 80.22170758302184 0 0 0
3450 1 22.533126665537694 12.357365813271603 78.25000546259164 0 1 0
3052 1 2.0407873501871454 16.85748170148701 78.48710521470548 0 0 0
3196 1 2.0260230441456146 14.953968869865347 80.3562691740157 0 0 0
3360 1 0.14066291685385607 14.854235972048965 78.26129322333006 1 0 0
3403 1 24.449417193370394 16.641382886596006 80.36671484056967 0 0 0
3365 1 4.126035498705865 14.798823630070041 78.16165431533508 0 0 0
3406 1 6.162454326855998 16.737305602698846 78.86599772867308 1 0 0
3340 1 6.415441429379857 14.693140360293658 80.78228706066412 0 0 0
3382 1 4.039385051052668 16.983263877141255 80.37044178333755 1 0 0
3364 1 8.088216695154998 14.55022827572171 78.41908205981179 0 0 0
3204 1 9.944266315305162 14.66960300529734 80.23710140276003 0 0 0
3370 1 10.18760343629583 16.719133007460833 78.29913563672966 0 0 0
3263 1 8.278743469834678 16.711925011902274 80.2138277822115 1 0 0
3391 1 12.211972493484252 14.941435816897364 78.2020547121898 0 0 0
2976 1 11.935249692408199 16.762423483082344 79.94275923629155 1 0 0
3441 1 14.23667367523696 16.995042493596245 78.10333266732644 0 0 0
3254 1 16.173232608164163 14.630625123966327 78.4383202883869 0 0 0
3405 1 16.40689195280509 16.823549917922747 80.18788283060795 0 0 0
3354 1 20.819939093997142 14.636471622974765 78.25889053837088 0 0 0
3111 1 18.514197237975175 16.586267866194675 78.30992511408417 0 0 0
3207 1 18.27667790295277 14.665938123794472 80.33631511322207 0 0 0
3350 1 20.54293270517237 16.605840241300385 80.3061484120471 0 0 0
3087 1 22.77346118873843 16.878195412609784 78.44598188569054 0 0 0
3231 1 22.527627459428082 14.344926147249904 80.5514565847067 0 0 0
3407 1 1.918077761848954 18.882917467801732 80.55097655653739 1 0 0
3235 1 -0.04873531167918038 18.81104513438015 78.48814709804472 1 0 0
3264 1 -0.0723553604048397 20.746846933501125 80.70031380970866 1 0 0
3220 1 4.1647046748652645 18.751601425014925 78.26380599189011 0 0 0
3388 1 5.95725594649158 20.77631771798795 78.07089094990502 0 0 0
3436 1 6.471232907865981 18.87110465446962 80.51590154421689 0 0 0
3262 1 8.023555769857218 18.85010671784456 78.17634813987897 1 0 0
3389 1 10.027409950561616 20.848457050180997 78.47206432417389 0 0 0
3366 1 10.050566813384656 19.008348784929368 80.5487676165911 0 0 0
3386 1 11.763929367011588 21.25083416568954 80.6413251186909 0 0 0
2955 1 12.407057267275986 18.660592791560077 78.06884073840052 0 0 0
3398 1 14.196284878019835 19.512985019537 79.98830025453833 0 0 0
3454 1 14.103794804785888 21.323367392848844 77.84076540116843 1 0 0
3200 1 17.016069125774642 20.825020841132066 79.48747375492496 0 0 0
3251 1 16.349206809679266 18.33160539015691 78.18715879023296 0 0 0
3112 1 19.128142127676462 20.916737301228444 78.031899888547 0 0 0
3230 1 20.916121977822783 21.090800462388856 80.46128530338922 0 0 0
3208 1 20.31373000151342 18.50873260959269 78.47124865058314 0 0 0
3119 1 18.25322076817205 19.06492874707744 80.13004193520274 0 0 0
3163 1 22.720662535116304 21.16387046374173 78.34932463858405 0 0 0
3091 1 22.450388203903003 18.817042077442707 80.16655896650644 0 0 0
3431 1 2.3529647014051345 20.859042202714953 78.22173967059325 1 0 0
3302 1 2.1488866779301294 23.129099174272554 80.81906364074243 1 0 0
3258 1 3.997546214002379 20.946358672349277 80.44075173144336 1 0 0
3284 1 4.122149131478882 22.91881431870363 78.127616324858 1 0 0
3165 1 5.867369194906143 23.026493562443186 80.39488026341203 1 0 0
3268 1 8.130314572056223 21.058992550368046 80.24955815980482 0 0 0
3409 1 9.682924803277986 23.120905878618622 80.61074129061822 0 0 0
3297 1 7.517254987615695 23.202756164286782 78.31548569220556 0 0 0
3393 1 12.010088470126991 23.07808364457373 78.30978676139941 0 0 0
3396 1 14.054399256627702 22.70820049585609 80.28069580280786 0 0 0
3400 1 16.30738600374179 22.86918183829716 78.33338731154109 0 0 0
3250 1 20.57793072439187 23.24753751512747 78.26837791507424 0 0 0
3246 1 18.54696158842966 22.8079643966583 80.39394191162094 0 0 0
3277 1 22.598400614797683 23.059553918729975 80.33068491290663 0 0 0
3425 1 0.08222996236545121 23.353822207584017 78.28459742177421 1 0 0
3291 1 1.7393473059847522 0.4543505751463126 82.54203185956848 0 1 0
118 1 1.8484463373379176 2.2536859871405586 84.62868088818269 1 1 -1
3422 1 -0.0054470368120225765 0.47976243883702796 84.36463508931612 1 1 0
141 1 3.6976875306108075 2.1395731047600224 82.77595397879071 1 1 -1
121 1 6.381878402577498 2.304968427761869 84.66218909973838 0 1 -1
3411 1 6.232893445939649 0.1885096527907847 82.64602968748551 0 1 0
117 1 4.395066945111953 0.13979179911559642 84.71769174533898 1 1 -1
3242 1 10.133814573752574 0.22387815380938714 82.6192693022902 0 1 0
3319 1 8.426470956262921 2.4043323771147684 82.53195301650356 0 0 0
98 1 8.328409819063273 0.5535601575863587 84.67535672433621 0 1 -1
125 1 10.632307733677282 2.259250297987899 84.53664783468153 0 1 -1
3437 1 12.338890552244715 2.153689689954069 82.41063312047808 0 1 0
3410 1 12.350630521270363 0.46226047799131187 84.91888589864982 0 1 0
3420 1 14.444826668434038 0.3293898202914888 82.74508016487093 0 1 0
3444 1 16.596887674079895 2.53778978204648 82.44133110088245 0 1 0
102 1 14.247807251408371 2.3061356645258666 84.17901235026142 0 1 -1
106 1 16.663954145577947 -0.05828851703382465 84.56216852873243 0 1 -1
3423 1 20.530538075900388 2.6896499363009054 82.99421655225328 0 1 0
133 1 18.597717266656787 2.1139706990601854 84.41603132481359 0 1 -1
109 1 20.63641988377939 0.30964009394913616 84.66888383409295 0 1 -1
3421 1 18.618565821430202 0.400381979740866 82.40523007323822 0 1 0
3187 1 24.425839698294794 2.2820633104674553 82.11037367449865 0 0 0
113 1 22.720553211046244 2.3320061422061835 84.39187242944865 0 1 -1
3138 1 22.772091814394877 0.24566300677275565 82.68159669980275 0 1 0
114 1 2.2200298977892112 4.466445192795683 82.50127172661803 1 1 -1
21 1 1.6878847428699604 6.504701244729342 84.48742598786109 1 0 -1
3332 1 0.006382856758111788 6.4509199475870735 82.39199767108857 1 0 0
138 1 -0.0005233990997958182 4.307415997968438 84.1925152852873 1 1 -1
1 1 6.460249820451489 6.468931586028465 84.37491958259628 0 0 -1
142 1 4.3063579840872475 4.437831676490258 84.570701159545 1 1 -1
3335 1 3.843361428471108 6.533966585530589 82.30741584851202 1 0 0
3435 1 5.980203374773091 4.5150445722552615 82.62286661134337 0 1 0
122 1 8.319740582320398 4.273519204750451 84.25208258541784 0 1 -1
3272 1 8.122126194861291 6.31353452254123 82.11490462030713 0 1 0
5 1 10.34559075571724 6.351678553153662 84.54155179301438 0 0 -1
3413 1 10.32890638878719 4.477035752944165 82.41881941897452 0 1 0
126 1 12.486115995832742 4.397444330846172 84.46388213506972 0 1 -1
3320 1 12.516791390083075 6.366367620128474 82.5449125492066 0 0 0
9 1 14.797333162748986 6.456172456542624 84.5255598963382 0 0 -1
130 1 16.762273985691557 4.461748719566709 84.49320933857956 0 1 -1
3296 1 14.568289012501117 4.635771647836927 82.38988816087755 0 1 0
3324 1 16.736696387184452 6.407228646890342 82.31282465462183 0 0 0
3439 1 18.866533083170836 4.454955958333618 82.52232395835921 0 1 0
3183 1 20.246646096017884 6.518369915354528 82.32098745773297 0 0 0
13 1 18.740803351580517 6.470766050343256 84.52334920822233 0 0 -1
134 1 20.621087911355716 4.66028342823627 84.7053719483122 0 1 -1
17 1 22.714933726192882 6.4569486275560255 84.41934528237636 0 0 -1
3451 1 22.332089043672305 4.616881544636511 82.71439749270425 0 1 0
3310 1 1.803513323571749 8.652108781469233 82.27074824499192 1 1 0
18 1 0.2346291761772643 8.622594432040318 84.64787720284926 1 0 -1
3315 1 6.29052626413795 8.397122916501875 82.55675824928954 0 0 0
3336 1 3.6891461512649815 8.33268791967754 84.54882552406181 1 0 0
3195 1 10.424557096739196 8.285028938446223 82.31039267380285 0 0 0
2 1 8.545217484724683 8.444813372427763 84.51505214654432 0 0 -1
6 1 12.495379122515864 8.13742670642182 84.36506347689416 0 0 -1
3349 1 14.95325694778568 8.789737459039959 82.37453175976347 0 0 0
10 1 16.7075754528503 8.44841417187795 84.76702228813258 0 0 -1
3375 1 16.87476854380146 10.542466844009281 81.79262725274532 0 0 0
14 1 20.834586574646927 8.588401454018134 84.72419307588262 0 0 -1
3328 1 18.725422070518235 8.57624619620037 82.4943105922406 0 0 0
3352 1 20.71507131738793 10.68544112389724 82.65484765055635 0 0 0
3327 1 22.477039141367904 8.754754034305671 82.52573351329755 0 0 0
3330 1 2.1330999152485854 10.937627282635278 84.8071580540942 1 0 0
3351 1 0.026857671307261577 10.613341272400874 82.51894341572387 1 0 0
3378 1 2.427889307495417 12.468577411704391 82.70650037123144 1 0 0
3356 1 -0.26849796822738 12.651023093285112 84.68608604039068 1 0 0
25 1 6.48858273150329 10.259054879968375 84.55388968337817 0 0 -1
45 1 4.3359768379075145 10.304501671985346 82.335320546952 1 0 -1
49 1 5.92223147312069 12.117168177668274 82.49920445372325 0 0 -1
46 1 4.120910099014106 13.163043463628327 84.64041250425475 1 0 -1
3339 1 8.698144089955832 10.514213463322418 82.36098654186131 0 0 0
26 1 8.405578042478165 12.329692114239254 84.67774805666426 0 0 -1
29 1 10.431645486205142 10.567880441297559 84.88705452528694 0 0 -1
3358 1 12.246461075679992 10.318548278453408 82.90559178470153 1 0 0
3369 1 10.627147607777777 12.679665828689794 82.3450824336532 0 0 0
30 1 12.337248531437423 12.559322340924425 84.68583172800933 0 0 -1
33 1 14.500136522670578 10.203286805061158 84.53742014333488 0 0 -1
3367 1 14.259403680736371 12.081393063023187 82.32264212837111 0 0 0
34 1 16.313944638625912 12.535156600606173 84.49023271351265 0 0 -1
37 1 18.58889187013223 10.330022346659538 84.60892584254461 0 0 -1
38 1 20.536914774196816 12.610592276018261 84.43118853999641 0 0 -1
3448 1 18.493778090260825 12.585446808212913 82.31766737541889 0 1 0
41 1 22.7593470605727 10.372493153285408 84.59113653648745 0 0 -1
3346 1 22.607068421524374 12.441348444514329 82.35634193051217 0 0 0
3355 1 2.173108390007551 14.881885963961553 84.62549928752955 1 0 0
3408 1 1.926602813261352 16.690348056071635 82.35365291303134 1 0 0
3379 1 -0.012341096239858684 14.631211639934465 82.22715408239387 1 0 0
3383 1 6.153604959691542 15.052873823371845 84.58857758734928 1 0 0
70 1 3.9258334496911163 17.38420808451518 84.45755809618024 1 0 -1
3216 1 3.967812099991761 14.939124947565942 82.44274974864277 1 0 0
3288 1 5.807861557739164 16.634568357733635 82.38263170955281 1 0 0
50 1 8.221246304914033 16.713076537100775 84.91294180640017 0 0 -1
3363 1 7.909279880316021 14.268739938602904 82.74242977322322 0 0 0
3249 1 10.03604693055729 16.45981667310226 82.47395822045087 0 0 0
53 1 9.88750976593047 14.86098708114332 84.60680441399509 0 0 -1
57 1 12.477506733777345 16.55361053366586 84.15319927600717 0 0 -1
3344 1 12.762408251553877 15.05189984792994 81.61601144818553 0 0 0
3348 1 14.188692662534073 14.621484295180897 84.01779368242254 0 0 0
3178 1 14.472584734224556 16.99741785372011 82.27179802717205 0 0 0
3372 1 15.62380702343472 14.87180254494626 81.69539215871484 0 0 0
58 1 16.21716787068918 16.36220827908801 84.10510481582045 0 0 -1
61 1 18.29313356649103 14.521350475825157 84.45841401537473 0 0 -1
62 1 20.224885618851268 16.575680324930538 84.47005483946094 0 0 -1
69 1 18.26181159150306 17.041925684438795 82.4646289394125 0 0 -1
65 1 20.181680755427585 14.833086825806605 82.27738257133237 0 0 -1
66 1 -0.11068558900322287 16.545106795784577 84.60216148198091 1 0 -1
42 1 22.397243185080264 14.650895008811524 84.67448275093201 0 0 -1
3399 1 22.754574721889895 16.571051921003715 82.30142096251669 0 0 0
93 1 1.4789931694039569 18.881513423382827 84.56588575382787 1 0 -1
3402 1 1.97202369414063 20.653917682712944 82.71663488805092 1 0 0
73 1 6.444623212035012 18.72542784932552 84.78415696304228 0 0 -1
94 1 3.8140542564185678 20.957012310458914 84.41940171417187 1 0 -1
3301 1 4.257145529781619 18.918668350233517 82.33795866744293 1 0 0
3432 1 6.105473530091098 20.914179354164304 82.57604063781866 1 0 0
74 1 8.326099258059125 21.000665904793344 84.84257749920263 0 0 -1
77 1 9.948107417631457 18.65037294193541 84.73996009242433 0 0 -1
3387 1 8.041849553333465 18.522580679229527 82.64964086403907 0 0 0
3392 1 9.967779534694824 21.172408818788902 82.69097020005808 0 0 0
3247 1 12.159618259208152 18.783427336569538 82.72998982378888 0 0 0
81 1 14.240184093886105 18.754400532973406 84.39851375258996 0 0 -1
82 1 16.668104325523487 20.73882505416814 84.3593452162898 0 0 -1
3267 1 16.277147973669152 19.098992625912146 82.18823502627518 0 0 0
3376 1 14.26885489945789 21.125857843733485 82.44270008396023 0 0 0
86 1 20.727835153002538 20.53401681320257 84.35566701343171 0 0 -1
3401 1 18.741050073353875 21.075826753061264 82.25041420373304 0 0 0
3380 1 20.71768567734435 18.560007606209687 82.27361386734444 0 0 0
85 1 18.755810661220252 19.084450669172945 84.09486985803841 0 0 -1
3140 1 -0.0005403412947109776 18.45788163948867 82.31968639950418 1 0 0
89 1 22.47033207581253 18.294264876613838 84.47055671708083 0 0 -1
3303 1 22.78124794588679 20.186061415282467 82.21346381719852 0 0 0
90 1 24.248432204086242 20.95452398568603 84.68750522935406 0 0 -1
3234 1 -0.15606717477015408 22.733273240074325 82.8461729659071 1 0 0
3427 1 1.8603771344010949 23.36963848549965 84.25594505362449 1 0 0
3429 1 4.046459179479927 22.879963861308113 82.53742975607736 1 0 0
97 1 6.125662324284269 22.63755601140388 84.86546370620573 0 0 -1
101 1 10.23812880553095 23.34815104236582 84.88242570627392 0 0 -1
3172 1 7.997422520840024 23.397917893709938 82.92788728892964 0 -1 0
78 1 12.002446906856836 20.866344995086827 84.73859605102263 0 0 -1
54 1 12.50012332508047 23.0959055143187 82.77073748825725 0 0 -1
3416 1 16.487152828809663 23.009019046390023 82.42599499563437 0 0 0
105 1 14.493216369703523 23.29706892517021 84.83017829097346 0 0 -1
3419 1 19.08487620725505 22.99122738929359 84.65666628366918 0 0 0
3424 1 20.889431341178735 22.631612585907924 82.53343103643442 0 0 0
3404 1 22.494364340873126 22.7764281675613 84.59274003682825 0 0 0
285 1 2.1877844255383625 2.3050866062097453 87.98888172209098 1 1 -1
120 1 1.8596394288326135 0.25722739280039797 86.56006564089353 1 1 -1
139 1 -0.1966556417962461 2.589624951366255 86.63332567416623 1 1 -1
143 1 4.555200525828919 2.2971524671140706 86.91270711863595 1 1 -1
100 1 6.285115610856398 0.2696593901290616 86.69597108471996 0 1 -1
265 1 6.479500990766221 2.403881378515027 88.59869851202765 0 1 -1
262 1 4.252528618753155 0.2694759520662382 88.66287787889385 1 1 -1
123 1 8.472018458054729 2.432514875969323 86.59932703768123 0 1 -1
242 1 8.309912927503369 0.3073300648707322 88.7040387033301 0 1 -1
269 1 10.392815546778357 2.4233692477172375 88.80810741577349 0 1 -1
104 1 10.773814159942493 0.18656587238940248 86.93979837221985 0 1 -1
127 1 12.749232316313934 2.761079360468576 86.55804223679166 0 1 -1
246 1 12.611627915322819 0.29707954087540134 88.69414149464623 0 1 -1
273 1 14.71001083964823 2.515402404494368 88.58730567314672 0 1 -1
131 1 16.600499276369924 2.258037638234453 86.46356674105124 0 1 -1
108 1 14.90553846599032 0.2682890938790323 86.71068116611875 0 1 -1
250 1 16.676432110897935 0.1889698388061667 88.72338137459764 0 1 -1
135 1 20.720788268573855 2.5549076757621725 86.72642793814836 0 1 -1
277 1 18.654537710310905 1.8934289694650719 88.80372976630426 0 1 -1
112 1 18.602878062708157 0.19472037434574607 86.38676390164935 0 1 -1
254 1 20.56165073628538 0.14367643972688715 88.48787596750441 0 1 -1
281 1 22.721200697464567 2.0661365907396996 88.67271363583666 0 1 -1
116 1 22.940776116841228 -0.018694319952311633 86.58374642912321 0 1 -1
165 1 2.0012852437441637 6.309703405045202 88.65397741730061 1 0 -1
282 1 -0.09252416796136947 4.243420236389807 88.72432792501559 1 1 -1
19 1 24.447587291965704 6.7269454467714604 87.1140562257186 0 0 -1
144 1 1.7779218869587363 4.377623677570518 86.2362312931482 1 1 -1
124 1 6.564728507984461 4.39336692729319 86.29986837814658 0 1 -1
23 1 3.7941530149436113 6.026863018636265 86.58216500872516 1 0 -1
145 1 6.381063970959645 6.419815394606108 88.34041474126909 0 0 -1
286 1 4.227818795802881 4.494314028364466 88.61673378390213 1 1 -1
3 1 8.149429720126783 6.363762508423637 86.34127329746724 0 0 -1
128 1 10.619207805899652 4.364435458776412 86.80168107811986 0 1 -1
266 1 8.235611247441053 4.463725914426847 88.47354216203786 0 1 -1
149 1 10.47006420450005 6.6036595628395345 88.71594077011267 0 0 -1
7 1 12.35822819965484 6.314017238442662 86.77922613276496 0 0 -1
270 1 12.862255942697473 4.311265260702754 88.64795167785948 0 1 -1
132 1 14.747626368628303 4.254963514089988 86.51116893208774 0 1 -1
11 1 16.778686127764125 6.526865748637738 86.54665537146539 0 0 -1
153 1 14.752017270362328 6.412464270365946 88.80622634131763 0 0 -1
274 1 16.9093922726599 4.362735552020791 88.6709300306008 0 1 -1
136 1 18.421479468940838 4.30685506619707 86.67593577673222 0 1 -1
15 1 20.5751302146922 6.37354278391494 86.5250713231697 0 0 -1
278 1 20.471158921366786 4.2276538008931 88.60470975006666 0 1 -1
157 1 18.566489997488105 6.570042656559747 88.52405523124492 0 0 -1
140 1 22.745994802274943 4.35023007868813 86.2921795649998 0 1 -1
161 1 22.08933279557416 6.861766724206346 88.84889051126027 0 0 -1
24 1 2.0362945838325697 8.547334301002994 86.88031258215906 1 0 -1
162 1 0.0744636363144911 9.076004699918162 88.74357350826622 1 0 -1
4 1 6.1379754135752975 8.368061841971143 86.50325494760165 0 0 -1
166 1 4.32945091034079 8.518815341083762 88.48378664120503 1 0 -1
8 1 10.339112447878009 8.640718225348463 86.57285133950356 0 0 -1
146 1 8.31255999521451 8.36040881326122 88.87099267937327 0 0 -1
150 1 12.696910413702916 8.431042933874139 88.44430431962039 0 0 -1
12 1 14.414186459069308 8.306571276752411 86.32853228235984 0 0 -1
154 1 16.57147193474959 8.69750934812189 88.76360559321878 0 0 -1
35 1 16.58001397098461 10.637487114267678 86.40984924070716 0 0 -1
16 1 18.676224853680935 8.75293679549519 86.71292497226884 0 0 -1
158 1 20.470276528566366 8.81661099515022 88.93979314394554 0 0 -1
181 1 18.574542483876037 10.66287546287577 88.51908316706411 0 0 -1
20 1 22.753392403450846 8.550290361774017 86.64199927360514 0 0 -1
189 1 2.3590111785992276 10.865325604408257 88.31592989348067 1 0 -1
43 1 0.1921786011720638 10.357901279770145 86.47540563148024 1 0 -1
48 1 1.8556391481438173 12.897910260645599 86.50010471534733 1 0 -1
47 1 4.251089763408765 10.584590062552332 86.61957776887965 1 0 -1
169 1 6.421965624422392 10.36855867675217 88.92089068647493 0 0 -1
28 1 6.198167291141856 12.68654188766966 86.5411557627504 0 0 -1
190 1 4.103181769691553 12.664052391230985 88.58645887373206 1 0 -1
27 1 8.187808715566637 10.363563929824107 86.65964161339238 0 0 -1
173 1 10.201953995045413 10.486369800922454 88.49534001250024 0 0 -1
32 1 10.247003202212598 12.580967072339535 86.72938651904576 0 0 -1
170 1 8.132232080958051 12.628338526848802 88.92496997455035 0 0 -1
31 1 12.44585992488743 10.27868783092679 86.52858582657805 0 0 -1
174 1 12.327542895788294 12.570584269876106 88.64378413126539 0 0 -1
177 1 14.335955537629884 10.542654858036533 88.70594484972011 0 0 -1
36 1 14.29118996240799 12.393214656969613 86.4598684724165 0 0 -1
178 1 16.315879301687083 12.673991330754196 88.80085083307199 0 0 -1
39 1 20.58460540582307 10.817707691730881 86.47614828981784 0 0 -1
40 1 18.450579291796515 12.843027443465733 86.27973260244931 0 0 -1
182 1 20.40382079393855 12.69125108393327 88.46584800577665 0 0 -1
185 1 22.48507101138148 10.540143846775143 88.70072024914106 0 0 -1
186 1 -0.08176115414809493 12.572636405810053 88.19892080608685 1 0 -1
44 1 22.591668922790774 12.851260021447395 86.43019699931719 0 0 -1
72 1 1.7636003597494039 16.704121687408637 86.66527493404504 1 0 -1
213 1 2.0500348366194823 14.535024160949039 88.75591013963887 1 0 -1
210 1 -0.06261318705176536 16.590368164002378 88.62758972532623 1 0 -1
67 1 -0.05526171808818217 14.686161046005855 86.65293960443336 1 0 -1
71 1 3.9460671514291725 14.96985732382813 86.46733114612033 1 0 -1
52 1 5.8970368717160895 16.946368396749634 87.0267364016361 0 0 -1
193 1 5.877304696069297 14.897414764618999 88.78615126040921 0 0 -1
214 1 3.9427051300725777 17.08023135623042 88.69887114906206 1 0 -1
51 1 7.935412487650092 14.620005228641388 86.75621769712703 0 0 -1
194 1 8.361029417643243 16.62898585332048 88.80056004736858 0 0 -1
197 1 10.179062636148625 14.572895946974304 88.69651852028636 0 0 -1
56 1 10.884474324214203 16.7052982893466 86.5829726459398 0 0 -1
55 1 11.936966126118289 14.617684590399291 86.92037008723906 0 0 -1
198 1 12.266977684853618 16.621564569046527 89.0166261945717 0 0 -1
201 1 14.507888903984625 14.63848501633805 88.24879214957733 0 0 -1
59 1 16.314153563031326 14.255409402985354 86.39586390605291 0 0 -1
60 1 14.577983984676445 16.711617940573383 86.52178806443675 0 0 -1
202 1 16.66838995461653 16.634039955922468 88.29294798094068 0 0 -1
63 1 20.448363108885793 14.799210351087844 86.62590012313206 0 0 -1
64 1 18.25389776531756 16.894264582575296 86.28456551673318 0 0 -1
205 1 18.64326097598942 14.611240398373813 88.3888360524482 0 0 -1
206 1 20.65045232516573 16.46924524731032 88.75527288089691 0 0 -1
209 1 22.890887237233756 14.45451306889597 88.70146934347477 0 0 -1
68 1 22.550013593317466 16.708723013780222 86.79655262359435 0 0 -1
96 1 2.1943580009721892 21.209250363718297 86.37917574340352 1 0 -1
237 1 2.0190509609249814 18.502941312745307 88.75663466640836 1 0 -1
91 1 24.506460542539102 18.682191099337125 86.66324858031206 0 0 -1
95 1 3.831854380867065 19.088100423053625 86.70280054012164 1 0 -1
76 1 5.896626607994756 20.973207626481603 86.62322056521501 0 0 -1
217 1 6.307738752484947 18.830075295493813 88.90263616641067 0 0 -1
75 1 8.347467166737275 18.904273356668995 86.9196494954364 0 0 -1
80 1 10.532529001099943 21.11092936006756 86.80381896113119 0 0 -1
218 1 8.271558718968377 20.86378387947905 88.76633805326799 0 0 -1
221 1 10.546037606865948 18.68750366670249 88.68049200091781 0 0 -1
79 1 12.57518118352253 18.88997351191729 86.14908040407312 0 0 -1
222 1 12.536637241137793 21.13148504413553 88.90988707124893 0 0 -1
225 1 14.32471193649911 18.4563509154855 88.54415440837471 0 0 -1
84 1 14.410730570314739 21.092726003862282 86.29284705891206 0 0 -1
83 1 16.20343616344477 18.86325133646622 86.48328568613431 0 0 -1
226 1 16.25001516342998 20.897094443899782 88.31776683468652 0 0 -1
87 1 20.509103404418134 18.83383589444623 86.42401746378303 0 0 -1
229 1 18.270038462556684 19.147702425456067 88.39599724082291 0 0 -1
92 1 22.727217953636213 20.76901153168472 86.53499170593545 0 0 -1
233 1 22.455625773099605 18.554397886826507 88.91623512307422 0 0 -1
258 1 0.13310687306532065 0.6466416284472104 88.57103737110847 1 1 -1
261 1 1.9574164201739435 23.153395547705706 88.43564911231451 1 0 -1
238 1 4.004887361811203 21.262452071393014 88.51964144909195 1 0 -1
119 1 4.1591527091561025 23.260488875814936 86.82321405401962 1 0 -1
241 1 6.105104186913274 22.62470841110263 88.42958682734198 0 0 -1
99 1 8.171477816820058 22.93626532620212 86.92112261713888 0 0 -1
245 1 10.260466824454097 22.988535416372315 88.80580426244526 0 0 -1
103 1 12.356647255127532 23.119195448674596 86.79754917185443 0 0 -1
107 1 16.511611494556426 23.000857906313556 86.61435255535253 0 0 -1
249 1 14.341593436133952 22.91055146429572 88.58911819895499 0 0 -1
88 1 18.508133675157687 20.814408507599126 86.4094063083318 0 0 -1
230 1 20.544872428947315 20.84118028871196 88.72593832547614 0 0 -1
111 1 20.865442385687103 22.927765852997474 86.52576323524232 0 0 -1
253 1 18.554180424262263 22.95872010413747 88.45412791038572 0 0 -1
234 1 -0.22385032887440814 20.731762144605014 88.94485329667384 1 0 -1
115 1 0.006129462716886747 23.066886402095356 86.29650074553669 1 0 -1
257 1 22.599045760312507 23.39362957041147 88.81447642588626 0 0 -1
429 1 2.204233455311518 2.5183906748909495 92.74913251620097 1 1 -1
283 1 0.09227548741545016 2.6449713566901525 91.04153416785408 1 1 -1
264 1 2.446695485265307 0.5830165674501472 90.44942537334978 1 1 -1
287 1 4.682151746087773 2.472403955276022 90.27770472290638 1 1 -1
409 1 6.221491150051457 1.990125706358691 92.42290669269406 0 1 -1
406 1 4.055244117655094 0.19019639085751405 92.58399072048519 1 1 -1
244 1 6.446373976132645 0.1201594282990901 90.4951414995987 0 1 -1
267 1 8.310101361986009 2.3771935736437424 90.71964434940111 0 1 -1
413 1 10.62296537894528 2.3654313344278526 92.7862130626495 0 1 -1
386 1 8.5129370261932 -0.06371879473396536 92.78785283719543 0 1 -1
248 1 9.996893978883035 0.3759187354063679 90.67993049428986 0 1 -1
271 1 12.693077836539302 2.4899373965297187 90.70648929926668 0 1 -1
390 1 12.41221370237007 0.13264113478180634 92.50087616856794 0 1 -1
252 1 14.581153901524807 0.6221554283590777 90.73439697506879 0 1 -1
417 1 14.404254294918399 2.069900836434125 92.99858973313292 0 1 -1
275 1 16.535308588378122 2.343139685434599 90.48945078488217 0 1 -1
394 1 16.648098220434534 0.145116623698815 92.46278728515748 0 1 -1
421 1 18.66687646700965 2.2336525389681348 92.47159906423161 0 1 -1
279 1 20.782911703791555 2.0605600196202647 90.67119049573904 0 1 -1
256 1 18.628340266204404 0.15128159535075753 90.59157173869318 0 1 -1
398 1 20.45027556664644 0.15494753075852924 92.72889707606589 0 1 -1
402 1 0.08828452416186483 0.5898834245012735 92.95838582696047 1 1 -1
425 1 22.604500226622655 2.384890635328048 92.67145420733797 0 1 -1
260 1 23.064863312731497 0.3521174272805735 90.96640658659516 0 1 -1
288 1 2.2343264544062125 4.2511311954361926 90.53527442505683 1 1 -1
309 1 2.064122812491719 6.1155380890360025 92.12297819986793 1 0 -1
163 1 -0.15744231178412957 6.623981246445265 90.21777973955167 1 0 -1
430 1 4.196774127383631 4.4188068416502295 92.40473559927156 1 1 -1
268 1 6.326390489986036 4.341211970449672 90.54679300344023 0 1 -1
289 1 6.579381609889162 6.126772837487105 92.84411033043219 0 0 -1
410 1 8.381459462289815 4.124496683603938 92.60050967974811 0 1 -1
293 1 10.527004129072575 6.064681928916727 92.58945271769963 0 0 -1
272 1 10.542648664934989 4.3524069386126705 90.56341486774704 0 1 -1
151 1 12.494931400508024 6.4739781836832755 90.79356184116355 0 0 -1
414 1 12.622018894867136 4.467489152889092 92.73562696735448 0 1 -1
297 1 14.208713775094258 6.507089004869473 92.92179432052762 0 0 -1
276 1 14.798304277297749 4.113972253894061 90.91112933785047 0 1 -1
155 1 16.659657583775186 6.334050304096136 90.683576760508 0 0 -1
418 1 16.86532444909985 4.600304978187312 92.75525083754724 0 1 -1
280 1 18.676188795299637 4.599706120838739 90.5810125731071 0 1 -1
422 1 20.30938189363733 4.500454698229004 92.69248683320691 0 1 -1
301 1 18.73014908756634 6.621989855783196 92.88570064971645 0 0 -1
426 1 0.16778213030533234 4.566953900163951 92.8593863015254 1 1 -1
159 1 20.48928503676712 6.369989177706807 90.8780674611717 0 0 -1
284 1 22.682776126367514 4.413564045661655 90.28486796607157 0 1 -1
305 1 22.464808968584244 6.06429865740748 92.31226574891826 0 0 -1
168 1 2.1177833529475283 8.351876313924313 90.42755751964924 1 0 -1
306 1 -0.049154128883376336 8.791351717201524 92.94958340717494 1 0 -1
167 1 4.447933406795812 6.5260545042364955 90.24028471279442 1 0 -1
148 1 6.336220324810203 8.096012824525198 90.9196544191278 0 0 -1
310 1 4.283936302275865 8.32551741679807 92.85191623430413 1 0 -1
147 1 8.432609222345675 5.966297790519658 90.75483265341666 0 0 -1
152 1 10.268383427343744 8.213699828381088 90.93879275693999 0 0 -1
290 1 8.401829845357263 8.514883905531581 93.02448293636948 0 0 -1
294 1 12.213973970286613 8.472313947325047 92.50714430895476 0 0 -1
175 1 12.386156762870035 10.586344161168368 90.44297071328816 0 0 -1
156 1 14.46895317585586 8.551603816907628 90.5884389025031 0 0 -1
298 1 16.662425991896114 8.481217648222385 92.35671033118984 0 0 -1
160 1 18.409443030658103 8.807781373762479 90.77612735989993 0 0 -1
302 1 21.061518206348197 8.310828405668776 92.8610853078464 0 0 -1
164 1 22.999240506886927 8.58436515768858 90.64720554762238 0 0 -1
329 1 22.85682411292835 10.443890540142489 92.87929585074585 0 0 -1
333 1 2.4423666942235758 10.39929043352444 92.49849615251435 1 0 -1
187 1 0.073511891856891 10.68031892434959 90.90934741482201 1 0 -1
192 1 1.8740291569292684 12.556444631194182 90.41939379953521 1 0 -1
330 1 0.3354439853704212 12.393549791925983 93.0588323626306 1 0 -1
191 1 4.1181422599981055 10.525500462666633 90.53878819591785 1 0 -1
313 1 6.400481686738897 10.303038444548104 92.71101946808835 0 0 -1
334 1 3.882589648719196 12.666774235080384 92.59113116187896 1 0 -1
172 1 6.1470297397951095 12.516083141586638 90.78191730024551 0 0 -1
171 1 8.562996218741423 10.42294345626817 90.78547685830597 0 0 -1
317 1 10.038106257561601 10.590810721220791 92.68356016028639 0 0 -1
314 1 8.350119406136008 12.280903809938795 92.66526926398583 0 0 -1
176 1 10.742798969735592 12.775153052443772 90.5479849328886 0 0 -1
318 1 12.61940660892967 12.230789139451911 92.96548118796562 0 0 -1
321 1 14.169032408425021 10.011008332344767 92.67928800659456 0 0 -1
179 1 16.219714489467755 10.764631809081118 90.65304937459968 0 0 -1
180 1 14.460591775115876 12.59621284651448 90.82439932241203 0 0 -1
322 1 16.4414836117408 12.808276368274235 92.83445532923017 0 0 -1
325 1 18.439780785257945 10.934977750320071 92.91042597432016 0 0 -1
183 1 20.75077186096553 10.577223122006988 90.81118592132557 0 0 -1
184 1 18.447837307941036 12.818525494257475 90.83374928080698 0 0 -1
326 1 20.59851016373664 12.588273620265566 92.7966858433164 0 0 -1
188 1 22.61823393467352 12.743338100686715 90.81392255604499 0 0 -1
211 1 0.11354495870358994 14.335362271514335 90.62632465134263 1 0 -1
216 1 2.224185588513054 16.470216787086628 90.8285194531988 1 0 -1
357 1 1.9165500473596322 14.56478125957861 92.81129641692377 1 0 -1
354 1 0.16338921159565878 16.807171081719453 92.78103839581584 1 0 -1
358 1 4.03207733477462 16.86692248793716 93.01176500023601 1 0 -1
215 1 4.234019164814028 14.53819939760218 90.75657960806276 1 0 -1
196 1 6.170258035558726 17.010218853968773 90.76027361957071 0 0 -1
337 1 6.154312072319829 14.569547309796649 92.9152532795861 0 0 -1
195 1 8.144991601225572 14.852896601311697 90.70399861903871 0 0 -1
200 1 10.248935615888099 16.728109657577278 91.06631934107429 0 0 -1
341 1 10.146687933542008 14.700290574426866 92.7845520473619 0 0 -1
338 1 8.181091884005976 17.030233367686087 92.74691191774875 0 0 -1
199 1 12.316431465835208 14.672618605396414 90.96781969126178 0 0 -1
342 1 12.200681691509795 16.7294208665869 92.90988885072306 0 0 -1
203 1 16.285240587531447 14.988936195339535 90.30736173187174 0 0 -1
204 1 14.1831966492849 17.007604533590182 91.0163879229487 0 0 -1
346 1 16.418020780892817 16.775864277767162 92.14871485647453 0 0 -1
345 1 14.59998798490596 14.739024638783812 93.11303369074932 0 0 -1
349 1 18.681594060916453 14.881254902647955 92.6112404898133 0 0 -1
207 1 20.754847315882323 14.573833420381066 90.64386427812943 0 0 -1
208 1 18.398659062716277 16.85166720449157 90.3405416663526 0 0 -1
350 1 20.477196032305528 16.673645990376208 92.96698788243162 0 0 -1
212 1 22.88720982957107 16.362579588747728 90.97783778556442 0 0 -1
353 1 22.78681399652242 14.488340865761483 92.79738587949566 0 0 -1
240 1 2.1006024118429334 21.14237270257997 90.30889236629719 1 0 -1
381 1 2.0705131969327124 18.760121985155898 92.81846571964778 1 0 -1
239 1 3.9979432975484874 18.78558689007272 90.90043830493067 1 0 -1
220 1 5.840462834446122 20.926168129623896 90.6847381848927 0 0 -1
361 1 6.028195274077345 18.930817231670666 92.70958475371475 0 0 -1
219 1 8.585511931732041 18.867619048702373 90.54531715880557 0 0 -1
224 1 10.46433512364214 20.769792876752426 90.55364458785371 0 0 -1
365 1 10.29538108439516 18.93036801751856 93.07325131837473 0 0 -1
223 1 12.58931726759891 19.03372706241803 90.73475182669421 0 0 -1
369 1 14.657380195905247 19.02157763692192 92.75669859237985 0 0 -1
227 1 16.488564384581238 18.963939841254906 90.42770856586154 0 0 -1
370 1 16.711387341528166 20.806302075668178 92.52394034004448 0 0 -1
232 1 18.566730203429074 20.89594933667577 90.65448129613719 0 0 -1
231 1 20.122489525732696 18.911581613226105 90.56583705595361 0 0 -1
373 1 18.606956116345167 19.038512218409387 92.92179685969498 0 0 -1
374 1 20.92296918916236 20.815428994051373 92.68426363186913 0 0 -1
378 1 0.10291997665856484 21.005593584930324 92.48860501094785 1 0 -1
235 1 0.16336533172736567 18.939430323481965 90.95417769637154 1 0 -1
377 1 22.61544483893777 18.611053255429646 92.84000775378553 0 0 -1
405 1 2.0491159183149246 23.242210799330465 92.62806508822754 1 0 -1
382 1 4.040148956730744 20.97713112824966 92.39372695459704 1 0 -1
263 1 4.163306658345922 22.884360900396963 90.7522802118423 1 0 -1
385 1 6.163616213846122 23.226196635937768 92.69889256161113 0 0 -1
362 1 8.026121951905973 20.68550042564599 92.36465063365935 0 0 -1
243 1 8.396524584780838 23.011484449038214 90.79293393601762 0 0 -1
389 1 10.650246056129612 23.35116346419035 92.44578948566226 0 0 -1
366 1 12.01289467478749 21.02935233363071 92.74812982856724 0 0 -1
247 1 12.360925932707262 22.978984349315986 90.58309997953268 0 0 -1
228 1 14.636901287848008 21.04509442817971 90.6199964956991 0 0 -1
393 1 14.395657911545722 22.620073112646367 92.82937280388958 0 0 -1
251 1 16.404963508384633 23.11440264449061 90.59867073129314 0 0 -1
397 1 18.364278904850565 22.85731974526813 92.70000959408907 0 0 -1
255 1 20.747700917427466 22.903676317430246 90.6886276534137 0 0 -1
236 1 22.475938150130553 20.820579157987005 90.99354099398113 0 0 -1
259 1 0.28561381154960963 23.412861315004506 90.69753591837139 1 0 -1
401 1 22.89545076974509 22.864580124343576 93.0536427374042 0 0 -1
573 1 2.2415182485228993 2.3113763305685224 96.54638747689046 1 1 -1
427 1 -0.04034905647356918 2.517940580666103 94.7099766879025 1 1 -1
408 1 2.3668727129751206 0.05460854588195563 94.56174680850492 1 1 -1
546 1 0.08993658963147111 0.4016610606996356 96.66333697248885 1 1 -1
431 1 4.219988156917726 2.138952510898765 94.57767499083374 1 1 -1
553 1 6.585847306491862 2.3169603894544544 96.73876855934233 0 1 -1
550 1 4.595768423239701 0.006383696427740837 96.70301267268451 1 1 -1
388 1 6.621876802982259 -0.07847325789803694 94.68429197653546 0 1 -1
557 1 10.688243973488046 2.2767904030569905 96.39294569704106 0 1 -1
530 1 8.822992388589695 0.013339797648561913 96.85495863348888 0 1 -1
411 1 8.247222454189846 2.1224104121655536 94.57419969304448 0 1 -1
392 1 10.617262376430785 0.0806909745495265 94.39553738971173 0 1 -1
415 1 12.66188678561268 2.106985452784695 94.59700713537163 0 1 -1
534 1 12.423057520040816 0.08687143637203654 96.7831494396635 0 1 -1
561 1 14.503004059045047 1.7729068603517963 96.72806398734744 0 1 -1
419 1 16.313112702724034 1.680615349905617 94.61293600585984 0 1 -1
396 1 14.428574632700586 24.482085014336946 94.7178866034607 0 0 -1
538 1 16.85914090480405 0.14187495188614335 96.68066749557232 0 1 -1
423 1 20.429539049874705 2.1238843055231857 94.33158513568083 0 1 -1
565 1 18.40020826263364 2.601341967775795 96.73526127650214 0 1 -1
400 1 18.492995511052577 0.0721344568112604 94.74747364288072 0 1 -1
542 1 20.647587185676606 0.6964949920135071 96.52700550888346 0 1 -1
404 1 22.813333723242202 0.4739633462919953 94.99353691232196 0 1 -1
569 1 22.87654782290886 2.4364456092843594 96.9181506432698 0 1 -1
432 1 2.1153573157729735 4.269907992461169 94.65565690528024 1 1 -1
453 1 2.1391022770251946 6.392827657285964 96.6153029454149 1 0 -1
311 1 4.2334920464803805 6.519220238460546 94.84301611497978 1 0 -1
412 1 6.287032253654015 4.039961341806202 94.4772086506548 0 1 -1
574 1 4.3897534574900625 4.440317039724772 96.58091984246462 1 1 -1
416 1 10.144920648484993 4.6429125795124895 94.57359502163897 0 1 -1
291 1 8.404020726630096 6.728902990089048 94.6286376094896 0 0 -1
554 1 8.19794995272224 4.448051934998889 96.43519701613315 0 1 -1
437 1 10.312877413310902 6.7146348409052825 96.73455661599766 0 0 -1
295 1 12.187845041100822 6.492357305995207 94.90519505715406 0 0 -1
558 1 12.900218712269947 4.060262494530233 96.61735619764414 0 1 -1
420 1 14.991994603105052 3.813924716391166 94.68240783318694 0 1 -1
441 1 14.643714425089104 6.040006730542449 96.3723532850575 0 0 -1
562 1 16.503640322582655 4.266319358634101 97.10861056062947 0 1 -1
299 1 16.558962785275043 6.44152469179226 94.69689526993645 0 0 -1
566 1 20.824238660803715 4.376571974523005 96.99042692452508 0 1 -1
424 1 18.679195885800958 4.461973526771177 95.03060836026677 0 1 -1
303 1 21.11811134579991 6.603992546657013 94.75760508158885 0 0 -1
445 1 18.915583953478972 6.459316900121301 97.01328098518132 0 0 -1
570 1 0.3793559159029445 4.408062436807722 96.744996242627 1 1 -1
307 1 -0.17437445354373157 6.938227675360308 94.8383529282022 1 0 -1
428 1 23.10126160803226 4.379787840217617 95.06212051603293 0 1 -1
449 1 22.65144626240521 6.661725728927476 96.95342653581591 0 0 -1
312 1 2.176781872396965 8.562675098393344 94.57216747777119 1 0 -1
450 1 0.015448884651613759 8.658968842241087 97.03809187917074 1 0 -1
433 1 6.368927872723717 6.27664414273291 96.78862015073955 0 0 -1
292 1 6.211205413314631 8.582931489114953 94.8770844266796 0 0 -1
454 1 4.272623923981693 8.52172498652632 96.65391346293205 1 0 -1
434 1 8.303854279859651 8.743545584604776 97.10773422183067 0 0 -1
296 1 10.431328825526673 8.491308023869829 94.70490959883358 0 0 -1
438 1 12.32467232725385 8.641328928353673 96.91838463317046 0 0 -1
300 1 14.373916523239252 8.472778950054073 94.78846818924055 0 0 -1
442 1 16.647446485401737 8.608953560516966 96.78351998120579 0 0 -1
304 1 18.75792978230924 8.441241091971143 95.01547775485125 0 0 -1
327 1 20.696882051749093 10.466017884045359 95.23129506060243 0 0 -1
446 1 20.574917549954854 8.717634913708844 97.04269896410977 0 0 -1
331 1 -0.01841579325531323 10.432555314714815 95.1423805611876 1 0 -1
473 1 22.710572645241605 11.006091844398815 96.91371552921638 0 0 -1
308 1 22.76030141468393 8.967442553433404 95.17365258843063 0 0 -1
477 1 2.285914009866327 10.760980247704495 97.12318507590604 1 0 -1
336 1 1.924349306259158 12.563624724748198 94.82050257840166 1 0 -1
457 1 6.058472870513884 10.849720332443054 96.6471523067261 0 0 -1
335 1 4.024516998100177 10.577650425385468 94.90660518462565 1 0 -1
316 1 6.085159619366902 12.131050444801692 94.22811527067489 0 0 -1
478 1 4.286865800647658 12.732396633657324 96.84308574890599 1 0 -1
315 1 8.13736331324321 10.679692250930643 94.80148014391318 0 0 -1
461 1 10.226496911052761 10.781334677024809 96.97380394533306 0 0 -1
458 1 8.164964981348696 12.907432337730668 97.14669730490343 0 0 -1
320 1 10.402963333318263 12.560671582575566 94.65426280154085 0 0 -1
319 1 12.24319539934585 10.654523883707753 94.86148020817615 0 0 -1
462 1 12.474235455124793 12.554381703921486 96.84041145725743 0 0 -1
465 1 14.593965970518946 10.262613858749397 97.05357804356899 0 0 -1
323 1 16.523986705492206 10.479314080717735 94.82010699616674 0 0 -1
466 1 16.55521492019006 12.37907917653353 96.48367619876853 0 0 -1
324 1 14.485529723855747 12.630852901377864 95.01151174540271 0 0 -1
469 1 18.712318478458606 10.54520927065645 97.05919702998946 0 0 -1
470 1 20.467216961687356 12.755510845228818 96.63936429823366 0 0 -1
328 1 18.644685135564067 13.10443020490691 94.76353386804365 0 0 -1
474 1 0.2637621625881311 12.733624018199121 96.922175062978 1 0 -1
332 1 23.07178632458426 12.575632675353262 94.66112426323969 0 0 -1
360 1 2.160650173889494 16.94397014774809 95.01099563498352 1 0 -1
498 1 -0.11155733323680697 16.762787136754703 96.80117403831443 1 0 -1
501 1 2.260428423157453 14.94955090494935 96.78299249715695 1 0 -1
355 1 0.02517405453449706 14.895309395873495 94.77767198751542 1 0 -1
359 1 4.123496820395472 14.377007675029146 94.87923951164746 1 0 -1
340 1 6.452804863946137 16.49056106054244 94.80471274325976 0 0 -1
481 1 6.311959016698403 15.039047699822074 97.20530984878823 0 0 -1
502 1 4.1625830212037895 16.888935577334834 96.80794416973495 1 0 -1
482 1 8.34651792636914 16.551065720763674 96.9633594836771 0 0 -1
339 1 8.21635596766737 14.230169466126833 94.44203065822697 0 0 -1
344 1 10.247293842177198 16.701197685759773 94.78987388975429 0 0 -1
485 1 10.228495209654627 14.486710446889981 96.69956377682533 0 0 -1
486 1 12.557173307459347 16.761984896243597 97.02462614819191 0 0 -1
343 1 12.36503415478877 14.511511958153976 94.77545120394552 0 0 -1
348 1 14.516081913240738 17.26045997370295 94.46249182449597 0 0 -1
489 1 14.123458758995897 14.469559314704913 97.06651729651949 0 0 -1
490 1 16.30072817548416 16.786004101762792 97.0777988805728 0 0 -1
347 1 16.52017805314722 14.57488146588472 95.12459912271828 0 0 -1
351 1 20.438560260074134 14.839593338455279 94.93454432571482 0 0 -1
352 1 18.573890634617776 16.87000125890078 94.99142575259117 0 0 -1
494 1 20.47455535135701 17.02452793729418 96.9752492404221 0 0 -1
493 1 18.703635421054166 14.876972911482367 97.32079679431195 0 0 -1
497 1 22.399755188178155 14.377884458158231 96.45468742648879 0 0 -1
356 1 22.59500582116584 16.70953718853402 94.84038138605422 0 0 -1
525 1 2.2900101016137735 19.12093872876531 96.76113280707156 1 0 -1
384 1 2.0515878043761857 21.064128905748184 94.69011794781 1 0 -1
379 1 0.001187299844761458 18.55662536224868 94.65361391743733 1 0 -1
364 1 6.266164296466236 21.088926427491224 94.65890860732998 0 0 -1
383 1 4.488967216632838 19.0894612447579 94.989087420435 1 0 -1
505 1 6.368228951473371 18.84116697452957 96.81535156752881 0 0 -1
506 1 8.21517178222964 21.03696246424272 97.07493590574353 0 0 -1
509 1 10.291955411824857 18.757519163420298 96.46370324505148 0 0 -1
363 1 8.440007832998054 18.841700877979605 94.94396119952836 0 0 -1
510 1 12.420326066241923 20.993695609445716 96.9773172230372 0 0 -1
367 1 12.391981821010019 19.031261713408384 94.8241999596232 0 0 -1
513 1 14.439763689923577 19.110618264559058 96.79373594468802 0 0 -1
372 1 14.25691351097184 20.589680306624295 94.89371948434959 0 0 -1
371 1 16.705332378272864 19.004054426716294 94.93119168186081 0 0 -1
514 1 16.384221154916105 20.96975847972074 96.80535315595384 0 0 -1
517 1 18.5217791475754 19.06320474650203 96.9940937618367 0 0 -1
376 1 18.654106277872827 20.906828899821882 94.8780160042702 0 0 -1
375 1 20.96612068388955 18.762997606607733 94.7595319882501 0 0 -1
518 1 20.693641468469124 20.972567290091767 97.10365775743398 0 0 -1
522 1 0.22352560882839057 20.949840392818608 96.63055821105368 1 0 -1
521 1 22.77574613953025 18.7620896734556 97.20153784028241 0 0 -1
380 1 23.04728037310919 20.76386278028557 94.85724054145638 0 0 -1
403 1 0.08525588308791221 23.566362137936203 94.96030499828996 1 0 -1
549 1 2.3867804865530085 23.457082149113013 96.5190345905209 1 0 -1
526 1 4.414349713545987 20.924254010045892 96.680405108873 1 0 -1
529 1 6.295312116802113 22.924344700072993 96.69187787238113 0 0 -1
407 1 3.9761157416072965 23.10376208618422 94.8217778146836 1 0 -1
368 1 10.270307650293596 20.899560826749067 94.87466606699846 0 0 -1
533 1 10.469400649925236 23.015584157110162 97.01308344223375 0 0 -1
387 1 8.535454978786436 22.766567583102827 94.53509018394973 0 0 -1
391 1 12.443971261329876 22.64577010381015 94.90289190591685 0 0 -1
537 1 14.45519484345499 22.56780993514981 96.84437039387151 0 0 -1
395 1 16.6757495398331 22.67234741669273 94.8822245901523 0 0 -1
399 1 20.82783551098401 23.189824976100184 94.92591392614051 0 0 -1
541 1 18.73200457014223 23.15375654374794 96.81339586136397 0 0 -1
545 1 22.689785566875493 22.70631103121132 96.40429139189251 0 0 -1

Velocities

717 4.227343373910999 0.13608286293227403 -3.7380530062085757
552 1.9938210379692474 -1.3030399088935183 2.2321453062764345
690 2.66856139350416 5.137868164617935 -3.559386943014541
575 -0.9733225351056031 1.4741576553150764 -5.956683471366542
532 -0.8351236346083484 -9.769203335460276 3.63148508250678
697 -0.5625741843976562 -2.2121113546937656 -7.584885900204517
694 -6.0690405715782285 -6.235004471020681 -2.301916359707086
555 -0.22144651237924573 -4.649481896075246 -8.702866876056955
701 -9.599425967752982 -0.12452852882537171 4.882287680993996
536 0.7781569902160351 5.611547998764914 -1.4731126202498275
674 0.6471107075334406 4.75525124982261 1.8761607022376412
559 -3.4483859216329784 -2.698694881622216 7.9256438899644
678 -3.3611856096985457 6.916695737898306 0.9021812445398183
705 -0.6429599211174792 2.1232030425107062 4.357706994175072
563 -2.951113926310471 -0.5496926416961967 -7.122684439347123
540 7.387817860580067 5.39768645106811 1.8100133720391207
682 3.304510954208367 4.621218168653546 -3.478256657494071
567 -4.939766531740205 -1.818265748053798 -2.5625109341748398
709 8.403645836179606 -5.372480770392569 2.577371526822836
686 3.50322499874045 -5.80463773756635 -0.6838851934168582
544 5.137584819971293 5.269455706467043 -4.232059922288934
571 -4.24046083725811 -4.2199024178470745 1.8715354727156657
713 -0.5792351835739686 -4.8165569019425005 4.66933857534931
548 -0.610322636204497 4.130332006816261 6.8371804032571335
576 2.5493776281947262 4.025788283239323 -9.447658771937549
597 -2.7674711354148114 -5.868249725093584 5.734949791131555
451 -1.0481765348057426 7.482877828504033 -3.322156686087705
714 2.9728073322903903 1.2828953265089313 5.358033749786661
556 -7.394712005757383 -8.266295009424903 -3.8267393548491047
455 -7.460119609048789 -4.962476003040338 1.6969355156426673
718 4.383947241872837 -4.765120975511736 -0.2257126842355095
577 -6.879770371699737 1.3435381123438777 9.632721751611113
560 -5.866565144468117 5.979082037150392 7.381794259644817
435 -0.2313249581559214 -4.272132371880333 6.247669246535628
698 -3.364494200406541 1.8746194339715423 6.471347902702181
439 6.115720286557513 -5.987008724020814 -5.57794795712235
702 -0.4048623878904936 -4.217516526904243 2.618880547743642
564 4.1429074411641365 4.817702231282256 -3.862242622773744
443 -1.6538195114151544 -5.582891216268833 0.13451444954844222
585 5.535408692519773 -4.783578923961233 5.662256097213266
706 2.203279334150855 -4.796112943610305 -3.856090634716205
568 -5.112802080470667 -1.7971674509978781 -1.750593138386263
447 -10.31878089706811 4.9192829393413895 -1.7499194036557588
589 6.530936593860394 1.6318979180632145 -1.7490912195667323
710 -7.478034343204003 -4.756208807819983 -0.9274496804609841
572 3.3870602720821488 9.65309517968183 3.2433633723155686
593 -8.20802950274596 -1.3192294877218032 5.755979425684692
456 -5.257653263345548 0.726614311934305 -8.90598382216416
594 10.547553860146847 5.147429841999556 5.765121211529025
436 2.1973146598972715 1.9800673504942723 7.253901940250809
598 -7.412786373179489 4.6332042152946755 -3.635600811275802
581 -1.7123003078336883 5.198215300869551 -2.580370751139791
440 14.593324761036033 -0.38497266249237944 -5.829807619945836
578 5.790010019640753 -2.9650879912439145 -5.229641871662611
582 -1.8373990893502292 2.7524127505041767 3.838741538752366
444 -1.8337046183520378 -1.9884838880897493 4.728296337553263
467 6.656612290069065 4.836301593686532 5.358678275041924
586 -0.47002309354390337 -5.52750493990572 -5.666269674453049
448 -0.0620820536067096 -5.491641694585152 -2.180456204834917
590 -7.736386765891043 4.292269780846489 2.314042681641541
613 1.3920924464380013 -0.37523594809776845 -2.1651848204956816
452 7.098215847854459 -9.138760111824787 1.581239297955968
621 -4.647216765325789 -1.7775300619658974 -2.380584059560122
475 -2.308612054384849 -0.8041587384594393 -0.6248862919221764
480 4.88108478344061 -2.4160118382295757 3.0255349295363607
618 -1.5311445306069045 -0.3599880295530904 5.051617470707352
479 -15.23883338192621 2.978794381090411 -3.727094829848182
601 11.845449882184075 5.912733000595317 3.825538688766409
460 0.15888122671920932 4.18108222952246 -3.5482905378493115
622 -0.560980705514462 -2.90248525070961 -4.53708732433994
459 -4.780109405874931 -4.619906330070204 4.05019590746039
605 2.5279180541720705 1.1831529691194742 6.783683759105168
602 -1.8685360305827383 0.32656032363347054 -1.7805598583555424
463 -0.1282966910612619 -0.16587505515464643 -4.492581661661719
464 -2.771236986454169 -0.7936989837942843 8.392901837359787
606 7.4307488590675606 0.501302100631324 -0.2878018858659058
609 2.6741536538485424 2.926832960276438 -0.33575660753205255
468 -10.151850316578834 -2.2239824388186475 -5.507202813481409
610 -0.24531037430365632 -1.9561241443092467 1.7821066577415565
471 3.5071946377722396 3.786642558827385 -3.7807071978985776
472 2.51499295733783 -9.66611012776373 3.183537262675898
614 5.206809824900165 -4.805392265960824 1.8974588326074948
617 -9.467968389502367 7.787516857642385 -0.6894743061409652
476 -3.433874384683529 8.950316461940483 -1.807599247757676
645 -2.909746215399674 3.2890302135465643 -12.948320286650453
504 2.2638547179021145 -5.693630754654454 -3.3388096489733754
499 -7.417206525013574 -4.516651472578161 0.5356660185901984
642 -4.507134312171919 -0.11807710284061732 3.31410509087351
503 0.6669010606625179 -4.738785768185138 2.329449065696689
646 0.051615392993888315 -2.5787280856776507 2.8768932255955106
484 -1.2867665733266462 -6.623494939460115 7.890530603333886
625 -1.1786812457254965 -4.849747285550264 -0.47133070799261517
483 -2.708597424778318 0.7886558088490702 -4.861811190985083
488 -3.6566421487432987 4.990119045964053 -1.0088244921719878
629 12.92958061391844 -1.4603999694414938 3.375334884545324
626 -5.040748321025462 9.829559867177979 7.813609255456921
487 5.070132199871395 1.6382531918513532 3.9557527426171912
630 3.0928254953690657 -4.616726319654692 7.426664572414947
633 0.14058715534659877 -7.057941307210293 -8.055878078505472
492 -1.9548018753448508 -5.433846408952017 -6.560546582672978
491 5.207349992960582 -4.9056105260549945 2.1131115484072844
634 -1.7930832993880583 3.9491171593707004 3.811773855104606
495 -0.3096938628585314 -4.833628580144525 -0.8507448971253664
496 0.1867219537180192 5.173091133381871 4.643656933176264
638 5.509151982340884 -9.411372648793028 -5.609034980530307
637 7.803866718277862 2.0284625075236784 -0.28233738183978796
641 11.845111377917183 7.1112031785118885 1.6969873161789473
500 0.5460666721258935 6.578208306687106 7.2236041760094745
528 4.398585371495906 -6.5296517418886175 2.0811583427267055
669 8.86862685052246 5.2784610173447835 2.2744194244729994
523 2.889625085137503 -0.6969211742923128 -7.497045530652077
527 4.931788641268666 -6.179438918422114 -0.27476152217547656
670 -1.934562478592038 -5.401602354645631 -3.2292095771200207
649 -4.628998444276863 8.065746716862828 3.2287285483147667
507 7.403072991567727 -7.3617743874814945 2.572140784584172
653 -0.29644415477038655 -0.2306760741898638 -6.094863855725042
650 5.023578049951272 3.125627771855378 -0.9270153532980262
512 -4.3758118705469755 0.11426846256699993 -1.3621154606590795
511 -2.8740335812637703 -6.09794581806151 -2.4591040035101335
654 11.2384007193871 11.564743211455164 3.399663433218733
516 -1.7940897956987556 -2.0607576401116945 -2.1907139651081526
657 -7.136363543053164 5.152661898811922 2.9031976365714405
515 8.877706825926808 -0.017873978518133375 -10.039706894317714
519 4.216010657056214 -3.4932812202782726 -3.47124538479934
520 -6.989081811858968 -9.320073543943995 -7.353144455506831
661 4.90156008712516 2.2504864048159225 -2.280759844512417
662 -9.22745025617743 6.316002578441623 -1.5300863751073153
666 -2.7568534291706706 -4.88440197153772 -5.402738105649711
524 6.5698173118109695 0.2915669601755527 2.8736831479971436
665 -2.822520156628615 2.8886996780361263 -4.948412932434105
693 -7.212207820022744 5.944988847560145 6.637231416446099
508 -1.385055933052663 -6.293965993923105 5.666915208294232
551 4.510132580654711 6.760454918750159 4.033935678801997
673 -3.264338334046842 -0.31714959705531975 -5.432348348608373
531 5.774335433693465 0.2172871223911197 -4.897128344922622
677 -3.078294619362842 2.8246121889722207 -6.6992382104943795
535 5.609112828292724 -1.971515852241258 -5.300923120821958
658 -5.650176625056775 -12.429167112927141 6.112139117939775
681 -2.8551675842107382 8.41306201409045 2.4452512192563343
539 5.563272890478467 -2.290284162507023 3.039338533386074
543 4.349959579875742 -9.24325275871047 4.052651946220498
685 -1.2587721458620493 -0.9867037477198018 -2.151694593398766
547 -2.8923036420238004 -1.864092657488821 4.090818600422936
689 -3.766533775204545 6.01816359276937 -1.9938947138758176
861 0.5182697038373787 8.277545585736414 -9.102563517625084
715 2.593024427667962 1.211063920634425 -5.795269270760905
834 -12.902792077794077 1.8286895106634933 3.1479809197303674
719 9.241802473254182 2.0575533855701953 -5.702878592717062
676 -1.0442029905339365 0.002948209202826199 7.8769423873183575
841 -7.513209744081728 0.26948998856655454 5.680535899447105
838 3.6674734261458566 0.8128932283387745 -1.7617220652585959
699 2.4903847429840194 -6.778376213709852 2.981677605717774
845 4.219164830616687 5.0203721312579175 -4.972528955708415
818 6.706483789611014 -2.371891896290733 -1.3424727775256937
680 2.9881167327982685 3.477000201666677 -2.6198320307085545
703 4.4613493644606015 -4.58175295470216 6.122527247070985
822 -1.7264642670939176 -2.7071752812687153 -0.6663830586425508
849 2.4536194073363777 -3.355848409522351 12.087696303559705
707 3.734205907418962 2.449972417798785 -4.1884190993671755
826 -1.003134469246568 -4.952194815069338 3.172754634482087
684 6.2341617293984095 0.7637584901966288 -4.465946886600539
711 4.6443195415372776 -5.644257980326257 0.6104209992750826
853 1.507198250819466 -5.828302819668229 4.572640512255243
688 4.897413806464367 0.5054240978888458 -5.1316398627226825
692 -3.3619812733770242 2.9611335788538797 5.534116079007852
857 -4.649449889940472 0.5397728475046358 6.582233401721406
830 -3.5863096699496655 -11.060202569138472 10.282270784271912
720 1.7590745793963063 -1.003177781845802 -5.866241768396938
741 -3.5503567718968063 -7.780639796878739 -0.28525365596980645
858 5.138536590279679 0.41548713055212216 -11.863892301623633
595 -3.4446138156452264 6.161156404537609 1.6759408263121565
700 -2.5805045571860763 -3.5051056861948076 -4.728725549085706
599 8.727608459821601 -1.5653840886905455 -0.24158139235174153
721 2.248710962197791 -1.5932697600806753 10.125711033377657
862 6.4086036772564885 7.160414010298806 0.5521046325863636
579 2.4293196272671325 -4.934206488182588 1.7682146803789096
725 -6.522927462158971 -1.2339250402709216 3.944515531453521
842 -0.21357686375664428 3.7737847587068862 -4.265141140236762
704 5.571063718235434 -9.42872672037451 -15.909338080686268
583 8.578847643430791 -5.046828097584455 -11.02891610785245
846 3.5059979407203445 7.320350007150065 5.60860828655627
708 -3.371284939721327 4.328414582628524 1.0766360833722814
587 0.6774398096769509 3.7230030838289085 -6.331238385341835
729 -5.2083329640896325 1.9845703215417982 1.8799787381321613
850 8.106190986731066 -1.2036501459573776 -0.5452068765244318
712 -6.699108713219369 -7.7805248240009925 -13.26676986547767
591 1.9952578571843576 -0.2699999340489512 4.146031289304392
733 2.1283031794958447 -3.4422610266277998 -0.10021704949016563
854 -3.275072518491466 -1.274040293278968 7.436751177597484
716 -5.16299455496639 1.9064969859788392 -0.6045160289764389
737 -4.32832875097154 5.256276475937921 7.4956738619021035
600 -5.674063026653102 8.108536821822092 9.100885181456988
738 7.705947108368326 -4.502161972797612 5.059520753928822
742 4.361344050152321 -5.064540170364846 0.930427134222916
580 -2.494341711361488 -6.949795005583659 -1.1604399884718821
722 11.863089794181779 0.7101536625275406 -6.187450199528974
584 -7.7069971659229415 6.066528630412076 -3.4836662937337417
726 -5.5358177788838905 -12.787992422139196 6.167775652445279
588 1.8157878347829917 0.5389799587966508 -3.827482399461322
611 -6.968055575713871 -0.2701007357374258 19.418842320978435
730 4.435763308411962 8.566583619623142 2.425657144458762
592 -3.6313942529897147 -2.9742295010044204 2.708806968605336
734 -6.942041800796438 9.337342091008502 4.983898602877751
596 -1.3059996027382808 -2.343448027546569 -6.38498364703802
765 -1.0837091845990754 2.7898747865347504 9.488786691833006
619 1.6757624438073684 -1.4375871982646231 5.888051249787364
624 -2.994426216599518 0.22688270016301482 2.6502350342451737
762 4.674168351501131 -0.8840368610927569 -1.536310424941234
623 -2.2415382022585315 -7.546558933267674 8.905737184670215
745 4.29973904904133 7.5937114093683356 1.7524997455738938
604 -0.16949484958039088 -3.1485745659846316 2.652005023741114
766 8.179142296856414 4.918437604833434 3.7940045467050463
603 -1.6745586577630753 0.26740318243489086 0.8415109645316358
749 -7.707171344342036 -8.684184427208098 5.347922680104741
608 -4.437485481723834 4.2776770761212815 -8.244764392693213
746 -3.088694610474804 0.9881001581980208 -9.586861158778294
607 8.703106438264392 -9.727543416009715 4.641577816507807
750 -5.096346046819589 -1.446762533475154 -0.901351305507924
753 -4.448382208557274 11.91973163715989 -0.14380138587768534
612 -5.978393837061048 6.932361481651853 5.202757773173744
754 -5.519314358633766 -6.677488969416387 1.309355492563043
615 -3.0559045435743326 -0.8376752893943611 5.9464182760475595
757 -7.089620915215958 7.2900634682259335 -7.149082588173201
616 3.9746453698650708 -8.29031722410389 1.1575449526308437
758 -7.895719698616369 10.886867102409578 -9.444882462457462
761 -7.47174025194111 6.907735196220811 -2.5866450945906343
620 0.13678992723598732 -5.52088775618226 1.2321189009736537
648 -0.3491585131686169 2.0436181561839617 2.1266128342109263
789 -2.8381778925279026 2.105402144464655 -1.2141039903992024
643 14.93129760381769 -1.4556318477422592 -2.621495791337922
786 5.639257723541652 -3.0551399556433894 0.7172339299089036
790 5.900730058792703 8.492803099233832 6.183086259164283
647 5.9600837157625435 3.6908832393352875 -8.789547604564422
628 6.903622536526353 3.3353781803653684 2.46909847868644
769 2.5980485709252377 1.9445893382118657 1.0361481087197628
627 7.308546185575546 11.161775626293997 16.987552982937686
632 -5.16610359190916 -6.146286088717095 -3.299941866093233
770 5.460639339556229 -13.325507519504274 1.5498437333170558
773 -12.35865277898473 8.341001176466005 -2.878068329075024
631 9.247146926600404 -4.610828074919393 7.018835762097573
774 9.443423417813912 0.8810541655487286 -13.771220192178976
636 -9.68094532640832 -6.467089560265973 2.135558220334832
777 0.5595085171238074 4.552451842043717 -2.167801982034755
635 -5.449352207470803 1.3922588999194174 -0.1129631457101142
778 3.4746291503323 5.4712680691049735 -13.995142590793117
639 8.374766230091247 -9.805922476002934 -0.43544678317679913
640 3.2442783658335492 -0.6316944673365491 -10.024104107099923
781 -1.9891672612955122 0.19251855922063144 -3.7165776607042713
782 1.304433659409447 -6.14540848314661 -4.951716737941109
644 9.745518151860178 9.446445105086484 2.3506544962117633
785 7.4518213789488295 -4.364275735303252 -11.899509394697363
672 -11.944386602222558 -3.4432989490956367 -7.624611510079577
813 9.375858560242948 11.987421364118543 -8.662020114358016
671 -6.393751735877878 12.331955964242528 0.7626723742170043
793 -0.7125068084317949 2.5065197134604955 4.7344968361695425
651 6.352033003049907 6.383380531536538 3.246422610353525
797 4.407666871672895 3.159088092047797 0.8853869001199077
655 -1.7746898155806825 -6.665152132389833 -3.217010573820666
798 -1.011647958468067 -4.737663547817022 -2.921736995019626
801 1.1232237466470618 -7.141238243289914 -0.8634987127371491
660 -0.7298474971884557 -8.004715149409105 -8.323718767592204
659 11.712722027440833 2.124144709170667 -2.2153676569836724
802 1.2423932593857074 3.9523738353700346 2.6855397468853583
664 18.45961034530704 8.68540553968151 8.460842073286209
663 -5.854809738181632 3.6449394682596608 3.484026473415399
806 0.7602995922633575 4.151285227511113 -0.8831335800553586
805 -1.4833566370448947 7.772067607101082 -5.283102183979915
810 1.3720901276240722 1.7720184340256806 -6.419137453002597
667 4.707644874456207 2.3249544605548924 -4.985093494035622
668 2.8971519962494456 10.937223128377747 -8.013992830082488
809 1.465802200527922 3.1786176787462845 -3.2034246395816695
696 -5.803117959542699 -1.7761151043610381 -5.292631296624855
837 9.474255159712428 6.850243124712195 -0.10251975603556238
691 -6.3720425163163 4.661427147123962 3.422788513226721
814 2.755135096663766 -0.2961720154500096 -3.8222221555661444
652 -3.644126245416086 -0.772919508635852 -6.052451360673673
695 -1.7540320460463217 -6.086300518803026 -3.4589372862295464
817 -7.381067599278876 -11.506273961822822 -4.304065381362242
794 1.3108791308010153 -2.6756921725844567 -9.632021536487095
656 -0.49202811228911303 -2.5927983396314804 1.7669794748122107
675 2.452372214028062 4.844268391354099 -2.3563038848387325
821 -1.3294084774089725 -4.665940476593761 4.3104243475623
679 -1.1754533313783773 3.4325848487835984 -7.583377314644774
825 6.081516772516419 3.3595208415277305 -0.897822731368405
683 -7.382667744005565 -1.1365896811495775 0.254847126948971
829 1.3814884052437613 -13.66456267538181 -2.1102666965254624
687 1.132572767835326 -4.614440608887939 -1.62415066020302
833 0.19357925741932075 8.509566434356957 0.8618045160640837
840 4.276424298333419 -0.8590936928792142 -10.081915834810522
1005 -2.0355072202724034 -9.918646085340626 4.533234239267161
859 -7.533318169831438 -2.6623306560667634 5.78388274229964
863 -0.12113812476984637 -2.528652019834884 -5.548829952405597
820 1.4599852288962123 -3.5047460749311337 -4.096247915849441
985 -6.605794606355774 -3.6803856971325546 -1.9431255244249264
982 0.029877061021157704 -5.357074494561316 3.30781742795144
843 0.18108900547605306 -5.186279619539427 1.7615462971155955
962 -2.239051866479339 1.01663479157265 4.074664414795292
989 -1.104755446173263 -0.09677551491831807 -6.308399877306402
824 4.410318762302293 5.885992507573979 -12.495026054238094
847 0.8143704340419843 -3.7490580838523635 -9.3740785454184
966 -4.419007797961236 4.0369454959992295 0.8922177254764578
828 -8.85450892102396 -3.9088587494198634 -2.9725865148601773
851 9.6925596632306 3.8169970980161234 0.3995916387024728
993 4.58170226331582 -1.8114105595151178 -6.846282472142108
970 10.796102292344164 8.136605476795483 3.2655048928922588
855 -8.571291742095747 -9.533884165042645 0.8473640021574459
997 -0.5793732308286388 2.464166394771019 -2.3627581842938215
832 9.149755971556845 7.14621035970858 2.4257260625104027
974 -1.4409212260957012 -0.05053268077569403 -1.8626253848100207
836 0.5206170712803835 3.990395200138278 -3.7291773442189955
978 -3.312965275192189 5.849238504042133 12.898977554423551
1001 4.76265911178505 10.607955912168471 -2.855641070057965
864 -3.412857001265469 -0.6431760808972127 -2.1685971326060747
885 1.4289711116538022 6.767107322856504 -1.3828710910372868
1002 -2.6358198919112605 0.8046150743424334 9.099978029016626
739 4.998349874061592 1.1358136869174476 4.960787536701113
844 -7.32544181072988 -0.39510903194545544 -1.0239166150821064
743 5.057228756573996 2.2741468730798466 5.614276261281669
865 -1.371904909896073 1.5016608183980944 -1.3730274196206387
1006 -4.536972441180004 9.913569671608997 -0.2642973909991033
723 -6.6242827855477735 -5.740172526492768 -4.681685817330617
986 -6.767750676652136 8.889633647210854 -6.337936082001802
848 2.1484597105649534 6.756347652181258 -4.743274764672186
869 5.039826198051007 -14.287935624296537 -1.4009144449262572
727 9.332809486173366 9.239508561732576 -2.512993529975808
990 3.737685615450801 -4.4837444510685165 3.2026871073013434
852 -5.277851405478315 6.190174593166381 10.538702307864346
994 -12.714316579072124 10.050480069441617 8.475780321645843
731 4.2720529761638915 -2.5628904482687562 -3.4295994550134794
873 2.909573911453263 -1.8583936304805968 -9.11768835349899
998 5.820186265108621 3.0380893329212895 4.23770802414083
877 9.034820947242421 -1.1072883767215544 6.512888025194535
856 4.254524287610357 2.4287574708276067 -4.477229091858246
735 -6.270075279033212 -3.0630202379241536 0.8404303860467264
860 -8.07336910466521 8.184787146871095 -1.6554961285773584
881 3.9801234151501705 8.06465164075948 -4.033501504283506
744 1.434954440305688 3.893115457261204 0.7385153300522392
724 2.1939649512052 -1.8504470175466399 2.0690015086932796
886 5.745766231591009 0.8706009946395333 -6.603691525279704
767 -9.826163214398921 8.592555335131438 0.3245726584999882
866 -7.5159529860977905 4.534072485329171 1.5092721220594845
747 3.555809275961486 6.541903190519486 2.828754183890445
728 -8.442812156385939 0.2179030810579724 5.754954593991959
893 2.153418699111396 1.1908005715423997 -5.335756093618043
751 -3.67974542474015 -9.153755909953544 2.040430975697883
870 -2.836146161477228 5.390792370239417 7.125574391224603
732 7.3136477974709235 6.039222868604325 4.636545832926247
897 2.6395416907240317 -5.108753135598674 -4.8330605736212044
874 -1.1407775272675278 1.18808072655264 3.405853696379844
878 9.641719130213348 -2.9159396042947194 -2.8613858805178634
736 7.654898086864873 5.160326012666321 -0.4515670128939154
759 7.976133123139979 -4.769062859890883 -4.239193908152502
901 -3.0279112836349373 4.5035096852872805 -7.272291655206414
882 -10.330400960948882 -6.357144558294668 8.08855790706152
740 -2.920847689007724 3.5645950706551592 1.7800072470944799
763 -9.688788524178443 2.423983066719998 6.769111949848832
909 3.5623676700961857 -0.6397848003539787 0.8928903998422352
768 -6.367195129484055 -15.661108208721686 -11.338071226104201
906 10.536051607073544 0.02878570055298714 -1.392729959581017
889 -0.7117469612119899 -4.611187543864102 1.1615648547902193
748 0.6447811402005776 5.573545353515577 8.00416194272796
910 -10.353207334069275 1.225803828147029 -5.232864478495221
890 -0.513720801055909 -6.0298233340419545 9.16639970976829
752 7.0722354651819925 -6.195569428239687 10.860086860389744
894 11.619569264309025 5.8599190819593385 -4.33176709879974
755 -1.3625861025170294 0.6157359229322625 -0.06682587586709805
756 2.524358094596641 -5.746593125199766 6.518032385650701
898 5.538235398619013 -0.47474919795438686 1.5976604903086857
902 3.2766138298077365 -0.47315663576538175 7.410187021681756
760 9.137674880525726 -3.5157102028639935 -3.611046493568658
905 8.31188267283306 3.893555814688972 -4.58953332561225
764 -4.837614058555735 -3.1637826417566814 3.571319893347482
792 -11.500257427646824 7.045145957084329 6.531284682807993
933 -8.208608342938682 0.7300462779555921 -3.6090202723770792
787 5.6023202814309485 -2.9637568266562644 -7.238454385619718
934 4.383563039529143 -0.7664135005652296 5.519810130825876
791 4.365882191483929 -3.188312488641875 -6.630574836892852
772 2.670253418379754 -2.6082572263444654 -6.487395477640205
913 -4.271584565960522 4.989017674913365 -5.407860413133612
771 0.04373960995718325 -4.463523695372141 -0.2932613894640992
776 -1.1783211436598768 -2.9707697580946615 -1.5135254689363282
914 -8.783230429720563 4.510289340838991 -0.5268934949481596
917 1.1176863767647771 0.1481222485459472 -5.039797868123868
775 2.3059494044410034 4.580800386524416 -3.1872129699307727
918 3.6730877143065226 1.4790510318514403 -1.2964532280905907
921 -0.7768459631244542 3.0598108408836704 -4.962627152531905
922 5.891184125278274 3.3866033344547155 -0.017101942336179808
780 -5.3950845896460295 -4.443021902702737 -4.991759420583293
779 -3.4300542998339916 -1.449256404394349 0.7799959549582934
925 -0.9088257868375668 3.0919085459789706 1.5350023697240505
783 -6.73058448757734 0.3799466562794297 -5.346004267821771
784 3.6037504096534745 1.5920103435044162 -5.337452034788968
926 3.948817840151791 -6.913981383680331 -1.0821969380018166
930 2.8840904779730785 -7.072708550005339 -2.9863428523714832
929 1.733988681131144 2.248766052928365 1.8371081264750364
788 -5.907883638194775 5.300588394038724 -1.4186191685050802
957 -4.364180241632125 -3.2023912334552675 1.606538517367292
937 -0.1495467651912647 5.34331528011714 -5.104058469972303
958 4.707439373678728 4.588971315605283 -4.427144915822976
796 -5.415905992180154 -4.182365206680288 3.7342039434636414
815 -3.7515778236140203 -0.06476137838918575 0.49923210637117255
941 -11.085480746789681 -6.571377324004564 -3.09388886502771
800 -1.9519297423277275 -12.035447511334825 -5.228562828915119
795 4.377565749814335 -2.0843468739122732 3.437025687925103
799 6.080723367700676 -3.6886773793851937 9.117546301137008
945 -2.714217994830419 -4.887363129269814 -7.938794673498461
804 -4.500363988737122 6.92068939914706 -2.122162472840145
803 -5.803101100745179 -2.4129663562228365 -1.8438824245234744
949 -2.577554052673186 0.5091872915665061 -1.3891556620913024
807 3.872345696653859 -5.430128640295706 -9.9072986632002
950 -4.711249920679368 -8.872167820813074 -11.631109540811664
808 -0.04264086527427716 -2.8361442898406803 11.106109897406501
811 1.6483080957763288 -6.540984128234873 -3.5904888338497174
953 0.9326378430704683 6.37350641525532 -4.644866258834296
816 -3.620991902617397 0.9220002391774665 -11.46806825484177
981 -2.207485645318006 2.8645132187341287 -0.21731427225902783
835 6.901422891645631 1.0051967974487344 -6.256338596203519
839 7.65183016945629 -6.200386073599802 -0.11693278071284782
961 -0.0983653116572078 5.770610171008058 2.3672430005068508
938 -0.7042220169280983 0.36815923541953033 4.303404601699806
819 -8.770333469321661 -4.679732554871035 -3.654022389475942
965 -3.0387281162242257 -3.728244206217518 7.555109639901026
942 3.295984479772228 7.639214253848874 3.865379362888023
823 2.973892060229967 -4.199379802334883 -1.3043591831366266
946 -5.766232147213413 -6.068695166837303 -11.221951988328893
969 -4.0340875642515766 3.1794405590215207 -1.004773823365893
827 -6.72025376345442 -4.0174307191802034 11.845630356566481
973 0.4035139785882485 -13.325896502287197 2.6475147268001344
831 5.150370303239112 8.308322513503635 2.932752246153739
954 3.9558800029497814 -10.008034284251563 5.129431448586279
812 -3.535478408105086 0.9987318451967391 1.0556218153037304
977 -3.936379791408501 -7.631070584382905 -13.362038930984108
1149 -5.298882648966977 -8.421627034687377 -0.12821969788612717
984 -11.945378293872322 5.238314176286954 -0.06697340103192753
1003 -3.108564061230453 -9.893168280828247 -5.079285664144875
1007 -4.6928930933376245 1.112247658130404 8.769617493922748
1129 -0.27743951546057743 -1.8083699349057385 -7.953495651049238
1126 12.1196065051588 0.15588773453067237 -7.610766456101219
964 -0.3486489022693656 7.239802665000587 -6.9342095415578795
987 -1.68526201747302 3.8877580871778985 2.1785773456671476
1133 7.7310068434911114 1.4189302168683078 6.608340473071975
1106 1.7758038622872832 7.831777362728633 -2.588621712946319
968 -7.587568881309943 -2.1926301548752445 5.072371818859924
991 -2.908308722021163 -5.01820363172271 -4.835528101414912
1110 -4.694753531735798 -5.222149096066786 1.7551035962311599
1137 -5.230806376977919 6.129590347444608 1.8635547830953152
972 3.2116752322424813 -8.080338287616597 1.8401472839728168
995 2.615499095703728 7.931126531822169 5.523595152750849
1114 5.079786538760739 4.485018824167681 10.415739745393594
999 -0.017336589886842453 5.355759209313065 7.91027409073171
1141 4.368733054844948 -0.7957807482813246 0.2535654600772277
976 -4.707587353841756 2.578093983614729 -6.069458851263683
1118 -0.30758806098739466 -1.5429354412574112 6.368526303112264
1122 -1.687485736445005 5.92873952519164 3.3909652397332404
1145 -0.1874693460640936 0.6021819683396119 -5.562702876830294
980 -3.9309832962232845 -8.865437220851277 -2.9097677418260766
1008 -6.153108544016856 1.6791996806570417 1.060005103585378
1029 4.9876231848831205 -2.8417714326257135 -3.4262040833402696
883 -3.214615367762615 -0.35891459990351765 6.591363470777248
887 1.1773853839726125 -2.9403952591460416 3.162708433200466
1150 -3.0603020396405554 3.498317109297088 -12.134983957755242
988 2.6012238716284553 -1.189132700860483 -10.10129604957028
1009 1.385910194341089 0.07277216324483912 -0.48494191863409997
992 -5.801090430872726 10.306119397267311 -5.1832533660814395
867 -4.589196979045617 -2.7718984178453723 -4.682035946010055
1130 -4.915842203291827 1.1639632947129186 1.3833067102826362
1013 3.6398111962396804 17.241965662150086 1.3774840610636374
871 -11.685805881037442 5.8235525936756805 1.1602767042562387
1134 2.2902596163596414 7.020358743805053 -6.010960099876586
1017 1.1644899999857161 -5.127065906671108 -2.9956816164637443
996 -4.461761259657196 -4.4004553817560605 -10.675727248510684
875 -4.027587325853766 3.9571072479526803 9.115974886690493
1138 -5.3905911813186655 11.649278420107994 3.490634141188495
1000 0.9564085486625377 10.479079648159113 1.0470056185594427
879 -8.915255931081669 -5.476516218310861 4.634819194614581
1142 2.8157633068222934 7.731778957424889 3.1653160163745095
1021 4.08294496732611 -9.242660520218212 -1.7952687132950687
1146 13.210778151378316 -3.755054373543374 -3.7555343127123395
1004 -0.8467763410347906 -8.009647523069612 5.7142830549386785
1025 -4.816420682896719 2.609705740294074 -3.7446256620647906
888 11.473200252898236 -3.6523754670965394 -0.8631931011511643
1026 0.8420703613191493 4.432221940467429 -6.568115455380675
868 4.5276543527097495 -0.7347975141348408 -9.380854568412476
1030 -1.3234168603870164 -3.7293697383629736 1.114572604263805
911 -2.827593132081175 -0.893199821217899 7.304593433396083
872 -0.8135343945798541 -7.456310664568757 6.681130488706337
1010 -8.477445901422648 -1.615274947167323 -4.4631802371307945
1014 -8.77680255839169 -11.93219110503684 -2.3990452874158454
876 0.1570857364391176 -1.9565929843454988 3.576362269374483
1018 -2.3667159249200402 1.312216083747287 0.3450586865678882
880 -3.0736162071832616 3.254855868973517 -1.3552641533052485
1022 0.5118021479158074 4.548796113481989 -1.869514677102003
884 4.93425797009227 0.4471752099283468 10.261559502095677
1053 2.451489333787842 -1.5827803524940889 -1.348107663855014
912 6.058343125224836 2.81455616931464 -6.5419839624816865
1033 3.9592427082468693 -4.759156398336362 4.181093861123298
892 1.3377169880422342 5.118884998637333 2.8102318110560107
1054 -2.4946325464702044 -0.3420292851828166 -4.801633061997728
891 2.9718291461462414 3.4885654118048604 -2.3786942006574145
896 -2.7878383425295503 -5.6181409816551104 3.474448435761518
1034 2.5012281989319125 1.8486027443764146 -1.5247677122564482
1037 10.21804174689594 -2.5724346007174117 15.119812985795527
895 -3.710746706615949 6.047848527612947 10.631360799769965
1038 -5.015773869481043 -1.3290444928497105 -7.221276346631833
1041 0.017748950407717144 -1.1724904791918318 -9.580269697211087
899 -7.405190720987653 8.452109170933065 1.8355182204694243
900 2.525714439751045 2.2942667332926554 -5.039739307238464
1042 -0.9857219842353059 -1.0786181899044331 2.657415202434153
903 -16.349634973311115 -3.271431557079933 -3.85363664091624
1045 2.225503373618557 -2.0647400644649685 -0.7652138242823698
904 -9.366270645565665 10.650545687035672 0.9039580939103943
1046 13.03499241381644 -4.338921048253549 1.5021136356849756
1049 -6.600238658823381 0.6635755018236189 -7.305599422892182
1050 -5.953014167178027 -13.310980882223816 -4.72545922306867
907 0.7454743549459615 3.4084972111036334 -5.727636565586697
908 4.624819261304162 3.9077080935731154 -0.253047795613644
936 1.8720126511151827 -7.85329553835877 -2.8420564743564825
1077 -4.956298043167697 0.9223910149755515 -5.469864589404815
931 5.958355060778777 -10.450080925131928 -0.5452029597011854
935 -11.431205194361445 0.6585556381072237 -1.7977860487396145
1057 2.0938687627855237 9.688631354233829 -6.040683688930723
916 7.905868057191065 6.661631415435038 2.3884020107689974
1078 6.649157743289582 -4.935544535352593 -0.31266883242602966
915 7.342633174299996 1.2425447984704003 1.033876138816823
1061 1.7947742532779636 2.736147255074758 -4.777289869748242
1058 2.7672010532181615 8.324635341068955 -8.163461641033939
920 6.0228567669267825 3.0880721876126698 -7.517510448590297
919 0.5252572868491735 3.563448232584718 3.8554065397243926
1062 -2.3289257309628417 0.3801216758845079 6.045493332079117
924 3.987272714537055 4.816592140316058 3.867172501316512
1065 -3.028444446249817 -6.321240044832415 7.284447217967754
923 1.3020370097990817 5.443145726309938 4.756067968400748
1066 -0.3057057269526471 6.494352025168413 3.9880899613532175
927 6.697883238610963 -2.2191205484742382 7.600220979661952
928 2.678946406707465 -2.438053507964716 -9.86924442880137
1069 -1.3440654077495686 -2.247236375868292 2.4087158113014655
1070 4.678992148971912 -2.3749364851658394 6.524151718127104
1074 -3.205671702258311 6.808520568208217 -6.419727325555409
932 10.013668558574626 5.943585988517269 5.51540729078545
1073 7.63148885564975 -4.436272349524824 -8.504120011579422
960 3.061047268576779 -2.0027270984286107 -6.340409853926167
1101 8.199334965147642 5.428692349128611 -4.062425733727068
1098 0.13114482764097582 6.832615879979536 1.7044363850130961
959 -1.4683483405232858 -0.4931911890455105 -7.675816230892208
940 0.4843700483421266 -0.3581217763207183 -7.013250842374238
1081 -0.137622835283485 1.5403480420836548 0.10774847683940081
939 -0.5824526032406766 -1.1648501924636852 9.198333057928648
944 -9.165777245701118 9.934325181526106 -1.3946381182561085
1085 -3.5668748023618604 7.128518305412439 -2.135930187846906
1082 6.019157568394232 10.185288803888337 0.7606666413773631
943 -7.789512711516763 -7.286290444815805 1.9500312236395316
1086 4.731306838395733 -3.322830104207574 -4.975568534043893
948 -1.430063451391928 10.135637540252128 1.6887418761193507
1089 -11.928584633191342 -1.9855847043589296 -3.249804412833777
947 8.071101289100733 -5.18177916920785 -0.5645114592569058
951 -3.6235947494543996 -1.501966399229803 0.8629790576924864
952 5.205419887276307 5.048193936303706 -6.3381622363649415
1093 0.9722943167403373 -1.0637992632121807 -14.822124823761438
1094 -1.383404002470501 -9.7576741253655 0.643730060496803
955 -6.988218082991781 1.67728756523922 5.803677999508009
956 -8.936360800626153 4.886831934060974 -7.271416600083717
1097 6.1246652264155745 -1.2782057760612144 -1.4487680745679892
1125 -5.284639519906595 0.8952533912729637 4.9782885772482715
1102 7.133859438526239 0.6457191414524526 -1.6162446557794719
983 -0.016791501430496777 -6.904137760118831 -4.4114663735545685
1105 1.969767331397494 6.892387362729553 2.3973259983279407
963 -2.833316158767078 -3.401808840260999 4.145295285449653
1109 -13.144289923528346 4.253104164893516 2.856161640854846
967 -10.454937961661681 -2.034978506571088 -5.3633803023132725
1090 5.032325306647074 -4.150406285948803 10.111315912925464
1113 -1.958524846853731 -0.47104120201983274 -11.06216652744337
971 -0.6986975658953853 2.544240055101699 -1.5859319723104415
1117 -2.127787474649795 6.910404013266827 -2.4670445728835175
975 7.473434871351265 0.35611008981277553 8.949060328436854
979 -1.849279008744251 -11.54584808289438 -2.9061982930221446
1121 -2.1484067783456013 -2.5318320180581813 -8.039970281297412
1293 2.1560022606260736 -2.0985341956542602 3.639028980424534
1128 6.899693588393532 1.350474312221474 -1.1470272988003896
1147 -7.349588158615124 -11.036619565618683 1.2705691522848788
1151 0.895766331904918 -2.9407049007919457 -9.1812527365606
1273 -1.5558724384899585 5.883822937156035 0.7630714661186931
1108 2.7137825807119076 -1.5372352921017438 -1.1478141124750776
1270 -10.19876812466215 -3.853132189348924 -7.42353097621937
1131 -0.2669799120931904 -0.4111396533684917 -6.189238555334802
1112 1.511096687593506 0.36218402328879634 -2.5279901329951793
1250 1.5156406208123632 0.8393685480472809 -0.5763412879469754
1277 4.512988221902893 -2.1519125821368625 1.5877847361082664
1135 14.862049093845725 8.71620120174917 -3.209459426646401
1254 2.633847013766066 -1.478470830006402 4.295727715271339
1281 0.9704941743738424 2.1852992779512177 6.126197173258801
1116 1.640977323265448 2.818959403249475 -6.10943407624485
1139 -5.212682275928614 -5.874534773830282 -0.43220741474467333
1258 3.5594064709487814 -7.601669535992938 1.1680148821693939
1143 -0.7750328668748064 4.340948572667978 -3.745707022850291
1285 1.333750747447644 -1.5707770747882415 2.431540364685033
1120 -1.715570183206931 -0.8899681511795472 6.629279097760288
1262 0.7151914643397432 7.48854823024235 -0.5397649481723863
1289 8.455432193242515 -2.6896169236139427 0.13827715423886022
1124 -4.947699698783424 -3.5085692331879628 -0.18747825813071142
1266 -2.474497128286027 -9.219779030558119 12.438100372455084
1152 3.8848484751939134 1.9332160068871682 1.5593304706724007
1173 10.4891285515974 -8.386326531096671 -3.5010224391357676
1031 2.6719539494089237 -8.776703407790265 -2.7624104431846828
1294 5.548720645041314 -5.069725491165414 -4.225712675551055
1132 -8.448428871090218 3.5643094964663407 1.3804964687866308
1153 5.96296618497318 2.0349587079903557 6.179370570177636
1136 -1.811592988758889 -6.44675931839938 -3.704661203626143
1011 -5.572439565667397 16.035287201004778 1.023735119599212
1274 -4.399780000470991 -6.387012435041025 7.968362364647996
1157 0.8457627660803079 -0.7285214765040138 7.40220432245111
1015 0.6509297700785529 -0.7098084044707694 4.935836093350258
1278 -2.314712026886941 5.803693951640715 -8.326143957935985
1161 11.893675965960691 -14.845937572240253 4.784892024950098
1140 10.572058024921608 3.776253106533419 6.078222155627931
1019 4.3742738419860085 10.929252161757425 3.740918658166792
1282 4.277682398330936 0.3458862513404986 3.4718578266044005
1144 -7.5724651438625665 -0.873523707282681 -9.236835593517812
1023 2.425270621055881 0.37173701645661705 -3.423031887506765
1286 6.147322491058003 3.2653830974262656 5.418657664911166
1165 8.733651276271534 0.4442166305093902 -1.8497410846581959
1148 0.6435838924464654 4.027909700242008 -0.8813174784853933
1290 -6.375699222390518 9.182842324717276 3.00777733110471
1169 -1.0983527961552708 9.125572352938423 0.23024118924238987
1027 -3.2048817172730693 -6.305308995394676 -0.9135489510117919
1032 8.20475383104538 -0.5570293908179222 -7.732272729397791
1174 3.5332447607579125 -1.9575573018121004 4.557975042457258
1012 -8.220942424338718 -5.9364900048375215 -2.927773343482896
1016 4.69294042168617 3.6129892111509365 0.13568491927686316
1154 8.222435402422407 -3.4967733456712686 0.9742383622815033
1035 7.515412109271865 -3.4447857557969392 1.6884018568535195
1158 4.8047278834215525 -0.7067684087205344 -0.5868410369102026
1020 4.400153442792065 2.175056178071492 0.19268966954163186
1162 2.7732257699955145 -0.03724361970061048 3.858262997220373
1024 1.683728707074685 3.611639600580565 0.7305233857187817
1166 1.2907353408272033 -1.7145958070774607 -3.4797689380913974
1028 7.601829968579497 -2.3134366359751226 -0.8410484940475803
1170 9.7861287414417 5.87962236536092 1.535386535583342
1051 6.210271186015718 -2.7836123033473283 -7.145639555526537
1197 -10.044406992302974 11.427248091240742 -12.38835925649655
1056 -10.896371383135056 -9.732511232147113 -3.7603627070195325
1194 -0.7761152116086338 6.509890482187282 0.12461299069231864
1055 -0.8630941243283715 -4.432869791172693 -7.062188888968885
1177 9.338392654319243 -0.47308559971680264 -3.860753216066987
1198 -0.5249277339509351 -9.831593450516163 0.4610492902367587
1036 -8.986969539308308 11.83557565797329 5.0676217338260745
1181 -10.863593769127606 -5.846985295127402 -1.3399463272186303
1040 -1.0444069402153924 -5.008326237105303 -2.0835977818040883
1178 -8.105923544641048 -0.7405457928730892 3.2224660359273587
1039 15.861281540253586 -0.8662929507295551 -9.639633525532696
1182 -7.367199327073539 -14.025273727344658 -4.545168380664062
1185 6.503999323613826 9.166474723449081 5.414645993858748
1043 -0.44370120853967043 -5.640777242419638 5.166007403292547
1044 9.273777876257485 1.272387866177802 -9.421288712200207
1186 2.5930274188698363 -2.9934224989965355 -0.24402306090495765
1189 0.8179185663130395 7.4695749465748635 -1.237008320442496
1047 -4.213059232900842 4.1572702422178125 4.327603678530196
1048 5.241383269267304 -1.5256017967619444 4.819359976429148
1190 -2.8805174811162075 7.69211911140152 1.422898971551908
1193 3.29368653794308 -1.087755014853643 0.807351826399474
1052 -1.152202454418474 -0.3072942816674504 -8.982844081060092
1221 -3.311388567586601 -3.397998307389549 -1.0513824871744573
1080 -4.946495409411005 0.5548591326867309 0.25893670362048304
1079 4.038655810563189 -1.136451477682242 5.2435481767989796
1222 0.30677102590206445 -9.913032583586137 -10.332674114415667
1060 -4.957597787910954 0.8375502833201189 -5.643093886887263
1201 -1.3203687126640369 -1.9785603700263141 3.4570058573532356
1059 -6.286632783410864 -3.9918556686397517 -5.98106240537415
1064 -4.323629557604329 -2.4585959651482496 -3.6279688376285213
1202 -10.456222493319279 3.6389719220247776 7.803546347751073
1205 6.047130921404191 -4.962778498811041 -14.348076488687527
1063 -5.788792930666473 4.898587683046189 3.605213336138358
1206 -1.227090360930032 4.117146913602001 11.863700239346235
1209 -2.2782326854430246 2.733470012409877 -7.85770403801353
1067 14.593202577686046 -0.36712895092772135 -2.5372954610204936
1068 -5.73431888874331 -0.7824186887537578 -4.3459640000088235
1210 -7.707025584362759 9.30314151704353 6.110298102879282
1213 -7.987029669243457 7.23494107238408 -1.6351848457578804
1071 -6.371964612307132 -9.068161925081043 5.0050623266815695
1072 2.197795366648736 1.5849920426907653 -1.9769000537679873
1214 7.658281768615611 -2.037075678936561 8.824970595967413
1075 -8.521743838721383 1.9461881615868866 4.250458320087527
1217 -1.6295923676299227 2.5014125833690075 4.392790191073906
1076 -2.420445334412481 5.0549161705824766 2.3693394382123842
1218 3.0349425664740104 2.1512992828030915 0.5780510346350554
1245 -3.706355036311078 4.009181382947681 2.483271139297851
1099 -5.616288541624903 -8.211172512962824 4.1282595650709375
1104 -4.387983451619761 -2.9069776314077465 1.1242717071725157
1242 -2.3046429255115375 -13.11556569787492 8.781180698857991
1246 7.695354339807664 9.44959957734852 12.492057689705083
1103 -0.9374052127816781 4.785258950167034 5.011741981184677
1084 -0.9202905308850572 8.928929702894752 3.3483097836628986
1225 -3.9076703584940615 5.071485131275579 4.393958554192925
1083 1.9544299486358836 5.09080227507051 1.1638950462126332
1088 3.940787867186706 -0.9151258360117677 -4.54245212697636
1229 -4.0409602742994375 0.11167179640722998 -2.4050480840776745
1226 1.058910446341549 5.362593707305592 -12.580615838272614
1087 3.304617115012354 5.866016699730716 -2.9000167496616185
1230 -8.56273143784854 0.06383506129908191 0.4569659378492001
1233 2.160206678346683 2.063563328851964 0.3968706204982234
1091 -0.5146687183134959 -5.593557687386196 2.2252967609204
1234 5.9529418039667465 3.291854776132362 6.05731196233377
1238 7.8527174190489 -5.399441703560227 0.3523580619066592
1095 0.4943219378115833 1.3796772430369308 -2.846264790879259
1237 11.189221397752592 -0.9704010879569881 -2.7238717186988306
1241 -10.373530429233716 8.263996952972784 -2.2904766776924483
1100 5.886804600661723 -4.608116898574955 -7.324144743800351
1269 -5.37502148757696 5.010934719799321 -4.823270841862784
1123 3.571120196587651 1.1005178910162963 1.1433107758314
1127 3.6382796772373753 4.895232269005789 -0.062323330396434264
1249 -0.15265157809803065 2.5555793717536868 4.2706417806850805
1107 -6.916072983671992 8.109937740186924 -4.6235012315712405
1253 1.3965978631325948 -7.500442944138102 0.1774405799557546
1111 5.59462554395898 -3.715642654306116 3.680869108518935
1092 2.3979818311685297 -4.172899479032078 -3.9375050728364234
1257 7.521692935550703 6.978384819773452 9.884632619773221
1115 -0.7152886080227365 -9.148356969910079 0.19754869692035357
1096 -5.370641423435467 -1.3368667292125898 -0.5579548198888683
1261 0.3615841297280048 -1.2689364924600999 -0.8023837599250621
1119 0.5187557252159012 -13.108902082867289 2.4818345111553635
1265 4.991484704175258 -3.708925042321648 2.4528453091885365
1272 1.2087211908339717 -2.9470711617588874 2.1094897397887826
1437 1.8084160918264125 -6.715917558553328 -4.41015214420969
1291 -5.354194079068235 6.242400797734772 -3.6993247232465576
1417 -9.920611179843798 -0.05108439561100038 -5.146384302549617
1295 0.9306640584433307 -0.016521755380244738 7.698920874808379
1252 20.70118692309725 6.21752049630351 -4.737022179637728
1414 -2.0865086847335133 2.663020659005339 9.7088530654316
1275 -1.0288609614186304 3.674879694171607 9.8337384742937
1421 5.169678927052455 8.801170650177315 2.218496869394812
1394 9.970080642950089 2.8979548910738577 0.6710006210730916
1256 -8.981562608336594 -0.735273464700842 -2.5281487599700005
1279 5.697563649720325 0.8869466091127223 5.774929357546154
1398 -1.2039972471886422 4.577924993445968 0.02380679940326448
1425 0.549211587298888 2.704442346072291 2.1647117694336564
1283 -5.863255613683654 5.389946559696098 -1.6044601790383106
1402 -0.6049078799976629 5.958606016785694 2.355023703680848
1260 2.653595534416363 -6.956935556686729 4.860508297624664
1287 1.7197866661466863 10.153800390319354 -2.0324784514884184
1429 0.49145652643867177 8.670747138295718 -2.312410725721185
1406 -1.1171171843278986 -2.2761347148874256 1.6923063130914018
1264 -1.0789677239078797 2.6445931103943865 1.709591598051739
1410 -0.29361481855065763 -5.268591929043294 -8.94255604686141
1268 0.8140174454118098 1.7361577530547359 -11.418908540303441
1433 -4.260208330929133 2.877774225314913 -9.59654096866124
1296 -8.877295456372227 8.809286979760763 -0.5304093698689026
1317 -0.3944505760782526 0.9411608141893374 -3.634035297048624
1175 -5.715670590587928 4.5788341557102035 1.9319318633889002
1276 -5.849294568257271 -4.4751382667173925 -10.238150549002304
1297 -4.5808844457954 14.123198522821946 3.6309915055983937
1438 4.179120856522693 8.40880297666723 -5.9071192553879595
1280 1.2923568640356338 -4.36120321389736 -4.962963123600771
1155 -1.9003641525375554 0.3281047778549133 -4.207777936964101
1418 -1.6567707123203532 -2.0219607481294766 3.413457300988173
1301 2.1938289383695113 2.6249272302410858 2.096975053243778
1422 -2.536674530948016 -3.1691124994489983 2.278909974017601
1159 3.313699674652175 8.395547821345751 10.704827846393389
1284 -0.3661481404760718 3.6291148734709364 -5.539747284861935
1305 0.747533208605544 -5.499086062672485 5.739979434695267
1426 -2.8200394684457177 1.467154579145386 -7.641117593837067
1163 -0.3225393610293338 1.924391282451739 0.571454256585556
1430 -2.7606516988259435 -6.2922185563360316 -5.757180396887932
1288 -6.236723460139364 -0.5117482569806793 -0.8653780000502154
1167 -0.8407355359063298 -4.688948277118492 -0.5415958205554859
1434 3.287997234667385 8.733982191726014 -0.08646872276203432
1292 7.209882520559101 -2.291580186122202 -2.467965170874199
1171 -0.5967343170954595 2.4627757324914326 5.108541612403347
1313 -8.147965600188533 -8.392027947416285 1.0569105974010333
1176 -3.432372428118527 -17.47485382129034 5.219670898467771
1341 6.2008291606050285 -0.09977966391123616 3.3066883812346486
1318 6.3884527732463186 2.558838875803407 -6.10023311574247
1156 -8.858422411680541 -3.717037538247684 -8.202681339854017
1321 -6.275058319744764 -9.321803283753663 -6.5985305244494254
1160 -2.3291420057448926 0.48337634939877916 10.007069060441724
1298 2.5867256087417734 -1.9863467542703659 -0.7385319712459436
1302 3.898672967104913 3.731965273264257 -1.5407233235904525
1164 3.1057730256386074 5.851322206511859 6.015328321029578
1306 7.530467549365581 1.0229038408186664 9.705080088466683
1309 -1.452670113043197 5.877355421118096 9.55911972364564
1168 -9.73899708271686 -3.6394405483831753 -1.8425644098966911
1310 -0.03632894186886612 -10.39492243458082 5.370354688831834
1314 -6.065276494189446 5.679137706282474 0.1620074003189855
1172 2.463488069928766 14.995465036531142 7.120043235923834
1337 4.5497100903863394 3.7961715047901903 5.104321125635918
1200 3.7895480611935337 -0.6300155359371598 -3.199691107846269
1338 -1.0379788742410256 9.050627352799875 4.391623594252702
1199 4.043307182745541 -4.480090163872101 -8.025689947219863
1180 0.6157678756280223 3.588717204301028 2.3967641437305915
1342 -3.02798985074355 -6.778881225867311 1.3808553577919034
1179 2.2177626839469378 5.80018013073123 6.810553949928672
1322 1.729200831673771 1.5344574435891998 -2.876161427568014
1184 -3.4870376539173384 -4.200383668447064 -5.530149563347666
1325 7.889687492865257 3.853142783900547 -8.007918293847617
1183 -6.948093588411723 -3.9836287111065167 -2.4035979588384593
1326 0.06704813471214993 -0.8398567648846466 -1.3232566633160476
1329 -9.074255319132774 2.1997129160007636 -3.4123698396348483
1187 8.754447804581979 -4.585016499613939 2.2668920717372556
1188 -5.53761615231068 -9.397009880743754 -2.5524231781186324
1330 4.669046780085137 -2.934261422371058 6.258114840312467
1191 -0.1659697913791861 -11.418862556462939 8.484985839558737
1333 -3.982391601554383 -2.761198561523094 -2.6009964412790367
1334 12.713927669400686 -1.8696497855760086 7.6258262516052
1192 0.7367932194443161 -0.15865247128902144 -3.8632159615479122
1195 -3.228416122837029 -5.609960418688518 1.1510653769043464
1196 -5.084548561008444 1.5031475728225039 -4.0726134426223055
1365 8.597195536360598 -1.8348064108466868 5.14292659587046
1224 0.927540189105408 0.5374460707069818 2.9825300526285368
1362 -2.5115220714375526 -1.2908053198672236 3.4966183806721878
1219 6.542622932483734 -3.97037665953967 8.458756026339975
1366 1.3641080396979453 -0.9104004815939784 5.9003361322924475
1223 0.5550772899749638 -3.055220204901496 -5.553986499008062
1204 4.423332373684807 2.5874317937175157 -9.907090892997857
1345 4.271859609643592 -1.5893455664431173 6.589913786026411
1349 5.342529083389375 -1.236910377264957 -0.5128329334934936
1203 2.2400554191301363 -3.518169088855853 7.893366633004349
1208 -0.10887365188297787 1.9402542873954858 -6.680509488730001
1346 -2.3751878337806738 10.373627208450314 8.061322682586612
1350 3.004063600130718 -2.997184469719196 3.2726056765974416
1207 -1.8534733931541794 0.40800458660222677 1.47222929425047
1353 0.7864259658706962 -11.72900154615098 -2.7366749002749406
1212 -5.780113046002324 1.2718102944714436 1.758688300064897
1354 3.3689050103634166 12.051440852129295 -0.9156023415665376
1211 -1.9772301850501053 -1.3551612328498155 4.048805464909368
1358 -2.937420351906864 -0.30084974788915736 -3.8503932260259175
1215 1.613442467761292 -10.619499318928304 -1.2557002532408172
1216 -1.7136058783375756 0.6276637931374215 -0.736825827833649
1357 -13.486490256843744 -1.9077059094464057 -1.8990140959279804
1220 -8.725420926011283 7.459526248858329 2.385003470227641
1361 -1.0230157116146297 -1.5910943281523302 -5.280382618637477
1248 -4.209154258189491 3.636914698749331 -7.061228819774311
1389 -3.496112301726396 1.109394817929038 9.161966372250767
1386 -6.9183673294249 -7.439821287977038 7.017004371067012
1243 -5.762511429844461 -7.138825850889746 2.4709144511563617
1390 -10.12173987799417 -1.9825088352813371 -2.5977887241011395
1369 1.9930350518978437 -8.958671747370465 -4.6309804092980436
1247 -6.871481360950233 -4.187076957619598 -1.0543471212686824
1228 4.019185665296128 3.20823572332471 -7.832160261079306
1370 -4.914557538287985 3.7190003771591655 0.9071779255395962
1227 -5.025352798521153 10.173642835050755 12.560461275422446
1232 11.343462721140417 3.958656633404605 -0.23435920401132285
1373 -16.243811618057112 -3.800435948761345 -2.500530968906804
1374 0.3745623736595718 -1.2090053874007998 3.7235920533116706
1231 -0.9539888121775957 1.6701436836219166 2.1732789432385213
1377 6.7030615906775495 5.066739278830378 5.296821865230883
1378 -6.5121051983802065 -4.002653841287324 3.938069005855726
1235 3.1591845718177374 3.1501924908541397 6.804678241249573
1381 4.703891342876145 7.969721200650755 3.5076258004459913
1240 3.754698979106909 1.3483712743532699 -7.089922682003674
1239 -2.9633415764076703 -5.076509207998694 2.4270743541096387
1385 1.0042013462726687 4.383421103612704 4.048146838907166
1413 -10.249090127331893 6.816592276187067 -2.6403149213412895
1267 4.2114961581474555 1.378305941969356 -8.693321749754338
1271 -4.870251458849235 -5.889741896021258 -1.703239285478752
1393 -0.36096525276757757 -1.673814224926081 -3.6413308069185337
1251 0.32797427388222944 -8.172772989306152 4.497993568280859
1397 -2.6610417840428786 3.8399704934438232 2.540264193610255
1255 3.669353198155878 2.863362104395674 2.6070296426556756
1236 -2.3939707133526418 -3.5063501917404745 -5.072749714828817
1401 -5.586160816720793 -2.2581507669314784 6.94437518206644
1259 1.1483889292209852 -5.561532961878539 4.361048711224932
1382 -9.01569663531388 -7.641553727222103 -5.228713358856251
1405 1.5182226379956916 -0.12483034126055648 0.6210852492406603
1263 0.2799093334059318 -1.796174612097109 -0.9363272626580635
1244 0.04727554213414285 -8.944762959811206 11.544377788059071
1409 2.925119374961359 -0.3414387807760989 -7.750164141101821
1416 -2.4123492000124482 -2.0231381957725474 1.716381888924974
1581 6.4283316472830485 -1.1318942970536867 4.099564725957663
1439 4.065483818417354 -2.8270483054171485 -1.4235757396141506
1561 3.683691564776204 -1.954585111504787 5.922334705067988
1396 2.492798373588688 5.656365524639384 4.450027538416086
1558 -2.4473139775887494 -1.102150850687355 4.878492827823735
1419 -0.9203220985065432 -9.886515937413813 7.053203814995977
1565 -3.9513180475621064 -0.4351328119606674 3.0204910176953876
1400 -8.488809155313923 5.184724613876961 3.6557796341196056
1538 4.119590112800806 -0.4087092658348541 -5.8606998650476365
1423 -2.4652654333132187 -6.053383454753192 -7.115638796969996
1542 5.082030350281657 -6.125582166071251 6.5391725870649005
1569 -11.274013219027458 -4.51771640741961 -6.890204871179764
1427 -1.8259353324683167 5.131725856927984 1.6041842088348168
1404 -3.704469474524852 -10.251973655237526 6.914278534332219
1546 4.482528062628062 -4.837993954366605 1.3300322080313214
1431 -3.030656769064872 -3.1906355636535833 -0.2002544936472331
1408 -3.7348427943919313 11.212902877763236 -6.403594313735002
1573 11.13569588474822 -6.441174291442999 -2.3649446597693586
1550 1.4176904443071665 -7.168221535261728 1.965560103980755
1435 -1.4980111503422942 3.791260690232968 -4.599201184282846
1577 12.877236262730214 -0.6738443638884246 3.3477360757547543
1412 -4.585358448622601 2.8163121365882318 -2.630353791469089
1554 -1.4714163504030608 -3.959367877204757 -0.19955970693653077
1440 -1.4236487067486066 -1.8541049743604168 2.0257057737273367
1461 -2.646298797081619 -6.405736628242505 10.253743695033846
1319 -8.027521778990375 1.4244575488530566 -2.869601641910309
1420 -1.9792546788320664 -0.295263288330982 2.68750225134735
1441 -4.8672077323516385 9.153074752386463 -0.5770926061608407
1582 6.393156099121829 7.967809472194107 -3.090859119017389
1424 13.30521857535259 10.867193695527098 -7.108324063923776
1299 3.4435346424970645 0.5412613037578409 -10.285317736282257
1562 1.1792930401642494 3.39054870429085 2.3881255539694006
1445 7.9255604239108 -6.778069437944303 -6.228100146538673
1303 0.2778229021765935 2.753478207019114 -0.7260366998700531
1566 2.9226297810263637 0.3800492528774439 -4.3662166070550565
1449 -3.947501571123828 -7.819783740917469 9.277265257781208
1428 3.316976310685849 1.613713469964319 9.840030340682166
1336 12.322490425415303 6.453025308101179 2.605606190288537
1570 12.13979764872396 -0.8997215937362745 -2.112896366345585
1432 4.6722602237156075 8.181297066693803 -0.07489824584680783
1311 7.987959647463561 -8.219890257198594 -0.11135099854383665
1453 -0.8110640991122782 2.7337248657489295 -3.3695826905537216
1574 -2.794732958058456 -1.158971668365646 -5.268803394068081
1315 10.759996262448455 9.416652574317439 -3.7735582387957862
1436 5.508494461688223 1.3926558736758283 1.0744102495612216
1578 -2.4986168882051896 2.4012539464044944 0.7185442217812853
1457 4.631951370038022 7.202464938681672 -13.654703641595363
1320 2.4963822597173344 -1.2358063739133336 -3.4174517204912194
1485 7.313369313041471 4.713541365766541 -1.0733764918130864
1343 -1.087499311829852 -2.2857335145017057 3.2955862911250557
1300 0.12257096016038393 -1.5195377664079788 -7.774003226471158
1462 4.348837846085483 -1.1099674064569747 0.8290413250474663
1465 -2.740888445364506 5.458480423267263 3.5004213817577896
1442 3.1732229803751246 -0.9913501009519456 -6.985671210601808
1304 -4.527062319878327 4.6459343193139135 5.3773320260910324
1446 -13.356729048440585 -6.5732704223125085 -3.534037333268398
1308 -3.1684403534755448 -0.7946164556848797 -5.528132015041618
1450 -11.20505378551306 6.61788645150376 2.1153190010001954
1312 0.6602557397581226 -6.14152293038828 8.36939218589832
1454 -6.0960073883998085 4.364950724177805 3.671395024736052
1477 16.020360363197735 6.10154254907302 16.506850280219528
1458 -0.0839958514428282 6.388419910190328 0.5361643345911936
1316 0.6158541042601662 0.3069224359391374 -8.507922322732478
1339 6.768986363269207 -1.3243407546242716 6.43370370222367
1344 0.1087498313612014 1.8222262624868835 -8.043506208227218
1482 -2.2388319067419413 1.6207049911873692 -8.872062800410928
1324 1.3160570283992643 5.362492426143208 -4.855567472120747
1486 -9.056018902781732 1.517283164008095 4.113579097827141
1323 -3.5951620091197682 1.0900773876606369 4.456801751563149
1466 8.595859999556499 -1.1020154747635444 11.983895848151457
1328 5.2501879300984635 -3.259496091736062 7.139239065960304
1327 4.70052132719338 9.923456433007056 -2.5710586724629128
1469 -3.1498041185753607 -8.228452950810604 -2.634675518532499
1470 -0.03267550276239091 -2.496410873612204 -13.909525717312299
1331 -7.808261771384235 -3.1152746730132996 8.465652067115457
1332 0.9698491304738394 -3.799129401546916 -8.01000718602924
1473 3.0471999512509838 2.9630149633234812 -14.096655894753736
1474 -8.844024823108768 3.3120814763451 0.9824243406275645
1335 6.284435833633822 -0.449995267014048 2.2417202218604912
1841 -11.523706583352176 4.407213849438049 4.293019146432576
1478 -4.3415729995151695 0.5674454464345224 11.719441836142382
1481 0.6567715572048609 -1.4824751208678553 8.05621421513217
1340 11.263649037632781 -4.816429961792498 3.880284320376892
1363 1.376067759641336 -4.326954648790306 -4.226493069941244
1509 -4.092389019907551 4.5246443427312295 -3.050104384425726
1368 7.091298042197799 3.646049480425608 3.8866973874069273
1489 -5.183769545923262 -3.818009876317574 4.119416997077921
1367 1.4417531716094012 1.7787640605362682 -0.09955762963270065
1348 -6.420957006077478 -7.556613519035601 -2.309133434335872
1510 -0.7416384996853995 -2.292654860345999 -12.907942238373606
1347 0.534227251292827 -4.807838269752226 0.6395917340616022
1493 2.208391155670211 -9.450036596191508 -3.8318160897064035
1352 -0.7081883143814863 0.6664497380575943 -1.6961929980948593
1490 1.5450237877427315 -2.213858929861652 1.6847082991311952
1351 10.905582814560274 11.367066876539086 -0.2550551512607862
1494 -12.351745003690098 7.576776946574081 3.661644926044724
1355 -0.8901128420157121 3.124762775175489 -2.7113119578490776
1356 -2.7814391551314324 -5.35144009675066 6.518159318262466
1497 15.941811020022065 1.8634323562201236 -5.4398430239954285
1498 -9.070928460415715 2.3889339726695407 -1.4697519817742075
1359 2.2102352760417134 -1.5023303693069006 8.381147843267431
1360 -7.198257925751118 1.6702988925240745 0.6235839596481417
1502 2.977508656646372 -4.918683627272336 1.843522187119769
1501 3.7156844777891522 5.099795344790521 8.034280598522074
1506 5.848976092304201 -3.583417320411305 5.594546291886044
1699 3.1421510632278853 0.8026646605349798 -0.36646570017965835
1505 -2.346858332457749 1.979631725700778 -1.8757657908628715
1392 4.460912900365807 5.792763149403637 -3.777323111333674
1533 -0.11140750446502112 -0.4165868350270011 0.396767600542069
1391 4.065516933121781 5.8967507553576395 -3.4321362425876925
1372 -10.294920161390026 -2.4626580055903053 5.9092234397936165
1513 -2.4553145862829995 -2.0509237945918617 6.278317531371618
1371 -12.192172140425397 -0.9059043694607452 -3.2819644643272534
1517 4.563703245376737 -3.0228524294416586 3.6025181574588627
1514 -0.12539300682945104 5.951016163901199 10.34658978832097
1376 7.7177996622641825 2.5453922468027437 -3.7985570715496646
1375 5.707443679956195 0.30180903673284415 6.2623100498538244
1518 3.0863949615590682 -0.03812104265532065 7.959753700253031
1380 -6.950908803231317 -2.674531801458096 -15.194952589043966
1379 2.4465818192486397 2.3725134350966117 -12.14754707385462
1522 5.217278298564458 -0.836237085702055 -7.397106468463603
1521 3.2353009733565488 2.9033546410422573 12.489007337452533
1384 0.07410849221529672 1.832750253628288 -6.4345732516896765
1383 11.083343641325056 -3.841722914146539 -5.989092124898754
1525 -0.0641526486852647 -2.8498261097734097 -0.30517951069675786
1526 7.468080041355825 -5.0897938071451225 10.843309797336751
1364 1.5052083592069456 2.218330781715369 2.5728617234934674
1388 -5.906995061810632 5.957321964052159 3.8226954161666162
1529 4.502395186144992 -5.834557337839708 -4.513712097172702
1557 -4.85175963043132 1.6662292283217717 5.537929504617369
1411 -3.042488118748242 2.8576032911393954 3.6753622579620524
1534 2.46652910371705 -10.96043026928246 0.49857810665478863
1415 -8.650247291684858 -3.4848215135963136 -1.2291341419298987
1537 -1.245827920085874 7.829576350980798 -2.7938675913904336
1395 -5.0081025591068284 -8.466138406650453 -2.169287932718747
1541 5.583632304217184 -8.304542478349594 -6.406534137104648
1399 -9.69291702328063 -0.19703205162039408 5.973498864599963
1545 -2.1628786749874407 1.1968701064442198 -7.779384339331892
1403 1.6473683018044323 -8.748418708596748 -2.2153988733790198
1407 4.089965363386297 -6.5195496268076205 1.7884351888945582
1549 3.375920876535791 -2.5113612114691546 -2.5262585770319506
1530 2.157868191115232 4.145013008183413 -6.842756942139546
1553 5.283597438997841 -1.8777072924457083 -4.688209557222325
1725 5.979001068169019 2.489422745107558 6.537100441123867
1560 -1.1067469868229962 -16.439405796118933 8.570212513991148
1698 7.5302151661769186 3.1432006092930562 7.702105929613371
1583 -1.9843478058680246 -1.015277795705199 -6.979435227643093
1705 2.137704201573411 -4.44000359262794 -2.9334960872182054
1702 2.8453144544248863 2.269747587113992 -4.911130563585898
1540 -3.5603986978863325 7.352643204864686 -1.3182230222022169
1563 5.382646860743742 7.583742765736802 1.8898003641715535
1682 -3.546011722111792 2.9605120434788446 -4.3197203760128104
1544 2.1753491923174373 9.756340894751647 9.851717925978946
1709 -4.023048037830685 -2.8112149884731497 0.44150573472843985
1567 -1.4640270872337093 8.651021843014751 -8.442149676964856
1686 -4.626619204152272 -1.137064850091353 -1.899661493237677
1548 1.547156658958141 0.032364880351437864 4.598396706227221
1713 0.7333539312998565 4.230549341605437 -4.2592036452078075
1690 -3.3265547607448025 -2.513418223094087 2.0130059001177014
1571 4.911828781712073 -9.438419190691882 4.936146901456094
1575 -4.773192808875856 0.6544272747144191 8.258767277846049
1717 3.3773973023354107 0.28332755266177495 -1.5292367990015518
1552 5.229400147266766 7.9303762182049455 1.067653815424001
1694 -1.7238236247108825 -4.579991795069814 -8.116104324086951
1579 -4.777784901188891 -12.22868417456876 -4.4709928471045775
1556 -1.3201550488413079 0.29912550513784236 -0.7462635753885382
1721 -7.496347823012628 -9.930287253955935 1.1801033637126048
1584 3.6818416934421556 2.6071106858755617 -3.720876296959904
1605 1.9733882875827395 -2.455045312303449 -6.162140087894229
1722 8.7741299348514 4.1887039471682055 5.530061085562604
1463 -3.914248894682842 -1.8435331570012867 -0.8006049808762431
1564 6.428241530342781 -2.5449504829507457 -8.517414898122732
1585 -12.99776535796738 -5.21549776543311 -4.12204815608449
1726 11.207963113726716 1.2251525910404275 -4.303088306488743
1568 0.6863902249801437 14.081480046385115 0.2771804406792878
1443 6.9334027206433415 0.17263330280912872 -1.699713178016762
1706 3.486622533319101 -2.1111829774256665 7.588776391071474
1447 -5.768557055331564 12.316862981458634 2.732266941408267
1710 -1.4355536517788081 -3.135270765270408 -5.593182345923429
1593 -1.777485351524995 -3.3681631583049394 1.7828757932660404
1572 -4.167404937059941 -7.384175453208622 11.000983843348836
1451 -2.1367594920374695 4.402610132714842 -7.580387148026704
1714 0.5420640323817841 -11.306633710974157 -8.0983266549329
1576 -1.5847545792337798 -0.5199684470099367 -2.333320697365532
1455 -5.291813414926919 0.5616187293513109 -5.104453058069969
1718 -0.7915501006121569 -2.4136998155151734 -0.03368325735410565
1597 -2.796086769704703 2.4184407609188967 -6.851071364506827
1459 -6.605331571842148 -5.001394869792054 -1.691226173079097
1580 -6.214445174943429 8.118679693338565 -0.2769454371448282
1601 -3.5170980155687737 0.05533465023465235 -4.375212528236439
1464 5.231775112456182 18.258866911481846 -1.2154999985263482
1629 5.593018674661261 -1.0859835463565326 6.744261983956453
1444 -3.6361952457304434 0.003245489443185867 12.57975689462591
1606 -2.9207575834864716 -3.2666272108012726 6.799268865997244
1589 -7.491323140280417 -6.021340076742077 4.813978436229258
1448 -2.768319971029793 6.087916564549377 1.8847869521035627
1586 0.782456966672505 -8.3611514643947 -4.731437121971512
1590 -0.031593727956308645 -10.078965547028279 7.541713656457956
1452 3.554095365833024 -1.463314972938613 2.2618226417554412
1594 7.343080018023764 -3.5766099788120624 6.218880677096276
1475 3.672329319110519 3.317479140374375 6.517635933105733
1456 -0.07473408333004912 7.004375475737821 4.740163384153973
1598 -5.7137841476014914 -1.6266117782038159 -5.995149316040199
1621 2.3473545082237184 4.121235153751077 0.1720283508986397
1602 7.986065764984218 5.473021636718168 -1.2124223182598823
1460 5.773072488346206 -1.1787633406512208 -3.6321808323062306
1625 5.885321681721887 -0.9924999014199951 -2.2197090152779957
1488 1.692988816167716 -3.507010452293713 -4.05150112485889
1609 -0.9799401228518696 -1.366229814395171 7.444820561222439
1487 -12.363416414476307 1.4914958569034826 5.6471513979779155
1468 3.7890340567192755 -0.7444228448419435 -1.767719960970841
1630 -6.275974617870863 -2.9664549313892943 -1.2139150525840454
1467 -11.810297398206457 15.248750276369469 -6.760669066357214
1613 -5.470539606176435 2.4533608982994135 -5.097596961731887
1472 -3.1903043271729463 -5.544384912618544 3.6292567817635306
1610 1.9582725177426805 1.3692106353545044 -2.3042620265876743
1471 -7.349722143719757 0.038526758199912 2.754471378133439
1614 -3.933033071391509 4.304394645806622 3.18694829479517
1617 4.690728246451717 -3.3214452512076083 -4.043673459040605
1476 -4.905847251395132 -1.753121929948809 -0.34811848673317203
1618 1.0917331761145106 -5.382661858945101 -0.6461042569935085
1479 9.868112754868527 -8.31268222400198 5.753121437646198
1480 -2.5784564730431705 -6.735540051000368 8.263821440001214
1622 -4.542113163578559 -2.822340753008343 -0.873980788706017
1483 5.826843150193055 -4.33234308403238 -5.676708429001921
1626 -2.109712408296015 2.008500745746612 -8.330140725224648
1484 -6.551732519984093 7.741986082208177 6.174941455590716
1653 1.8502514069589902 -2.3232773401302724 5.555013104498867
1512 1.7903618995093478 -6.937890834251741 0.7941853725966033
1650 -8.75800180741868 5.434767086731542 0.3249195532381138
1511 -2.9460027477762796 6.073036848449205 -1.5873035354221394
1492 3.8853646679418814 8.181825362248176 -4.347842202201572
1633 -5.414228740719692 -4.7449884913707665 -0.2758687579766749
1654 -0.5245996378623857 -6.781824630792019 12.330336355258671
1491 0.6648440275306642 5.289619677920578 -1.5767741365740993
1496 -4.429512181837124 -7.686231156058437 -15.270963718813546
1637 1.5536920529572262 -6.278540611298758 6.459173878596672
1634 -3.58836521047432 -1.7278702937956163 -8.66775078160405
1495 7.587708561300361 5.753861786497499 6.829336354785624
1638 -3.563658972365437 0.12215083510430731 0.5584095425202742
1500 -2.6239573858529357 -5.359236364190779 -6.863205936962969
1641 10.015877405716694 0.8186477153072478 -0.7726051271032409
1499 1.7843785982225562 -0.6825774843106885 3.5292750419630132
1642 -8.44383928649858 9.72076021633566 -3.370636106986701
1645 2.0733448900517795 -2.7650685304091733 1.4195318970284139
1503 0.301657310448994 2.3162256204312817 -9.140653336836312
1504 4.309921046311086 4.18213740756659 -3.119418908217636
1646 8.729700129812025 -1.2484448492459013 15.022207812887043
1507 3.24928186041149 6.135344241324717 5.284354233702441
1649 -8.674332217352562 -1.1945233625832894 -0.592543611729516
1508 1.3151895781473568 -4.59644974500868 7.559596278979499
1536 -17.534174179022312 0.9411397538028055 5.528541078525338
1677 6.082605787681318 -9.84748048333563 -6.998109180709624
1674 8.543538692742427 -0.031599337736603964 -1.8871804436684332
1535 0.1791437795656568 -4.642946013404626 -4.938457323291843
1678 -2.847774890409984 0.32646722152232 6.843281770748207
1657 -7.836354466652292 -0.6364933524080744 0.7064076982229305
1515 1.3215653161266332 10.526886992122352 -3.2975261341855426
1520 2.309512696112356 0.252643783019209 3.9591711576437034
1661 -0.11069258169398341 2.007162062973645 0.5383335964672076
1658 -0.9695468850083989 7.937514313983376 1.7510650127007865
1519 -7.647622646597377 2.8868358341774285 -3.136232068073757
1662 4.58982083850262 -4.08747346267781 -4.620622511828127
1665 5.841132122086872 -4.522725784151393 -1.0115010005074903
1524 4.563779116099675 3.770574757499622 -3.5776584574303882
1523 -0.20585166920727038 7.077664829129566 1.6762180412948624
1666 -5.675484476188449 7.0412267700179445 -3.8752854846358002
1528 -6.409422887640244 1.536187526424744 -1.2964479064040582
1527 -2.0529585976029976 1.0958554676157473 -6.345102222103291
1670 9.37659055882271 -3.224504934159165 -0.8567900941993842
1669 3.836270247277363 -3.7760632620899366 -0.21429608095678282
1531 3.1668382946870213 9.818733611263069 -0.31502140659005123
1532 -1.6422001180596948 -6.904427190612916 3.2619393157607584
1673 -4.1834623754057505 0.503051106090958 -1.9206659670923776
1701 4.504567427514206 0.7298677998611538 -0.9993669642501044
1516 -1.6809571229483198 -5.633893389623628 -1.263044523560568
1559 2.3660068941676484 -1.2128336363832046 -0.12532813444979193
1681 0.6348351129729901 -0.4442051845659584 5.731058947552176
1539 12.561806480265917 -3.1243555823299287 -1.3599301081298987
1685 10.431007286358822 -5.395055543094843 7.394844129824701
1543 4.664901816632937 3.2844338736460306 -9.074589466775755
1689 -5.052015154475575 -2.8751696923589365 0.5600625881467688
1547 -0.4083597581531387 0.20235844353632024 13.811071611512736
1693 -6.035282257492829 5.280345346506994 3.0811204519930198
1551 -5.824550632661724 10.198950721099337 -8.018870153743668
1697 0.41846447427813466 1.2801673108709661 3.8849248929139133
1555 -6.591627025478427 0.9604965816785139 -4.97613881363519
1842 6.2566582647065765 5.39554270416201 10.168203756766026
1869 0.6065138623526805 9.681346558202362 -1.2084217186740909
1704 4.534590363301568 3.085770582154841 -10.084276968950867
1727 -5.951218383479791 -0.760903603990888 6.000161901933848
1684 -1.5723234826407704 1.3266074654761566 8.346598179007987
1852 -6.675374446456469 7.139999442804348 -1.9801784363308281
1823 -10.251371743783471 -1.0220537548933506 2.636999491851625
1707 -2.36990098086056 -2.870854452576549 -4.817544908125158
1853 7.1227464592928795 -3.3827499765734377 -12.571807587403637
1688 -2.5011568070618306 1.188654057924587 -2.025126447839643
1826 2.5172433754141488 6.416632972386483 0.07766844836397946
1830 7.202318523219073 1.2926401617675718 -1.1205128841313294
1711 9.682474370077815 1.7589077201558627 -7.329945386465699
1692 3.34359868636428 3.9932356936498468 5.194167185206836
1715 4.975965423406131 -0.10090401217658326 -9.205007293186025
1857 3.3733587361284108 -1.3137707545648927 9.063371904893565
1834 4.024325647184058 -4.936269320815089 3.9905626926459927
1696 -15.468518565001025 -1.515765046013912 -9.266817055214975
1719 -8.963510482057405 5.689081796048698 1.3792800198543094
1861 -1.043541370548611 -8.154079944710473 -6.181636390036077
1838 7.94414738373424 2.6014924880380903 4.188603537676212
1723 -3.867382871218272 -11.576597757205771 7.06965366742867
1700 1.8398819124250194 4.076337422121883 -1.0471783674530117
1865 -0.9018632650573197 6.489560135498136 -0.3170699935842279
1749 7.014300254422108 5.61623638967138 -4.6156340248732235
1728 0.0390843642740101 -1.0559925320976187 4.000507726357656
1603 5.336502849574716 10.788911673201202 4.960042779736939
1866 -9.572227084689185 -3.2564426200343086 -6.958984211389072
1607 4.775136038454482 0.3304548397604867 4.586955523662834
1708 -6.954792856531073 -6.036815822086735 4.4571019729229375
1870 -1.6734997518043935 -5.9405546166677246 5.854931958365113
1729 -0.7095646447644524 1.3638507803306292 -6.571451848863275
1712 -3.6744411746447305 1.2231277497533124 5.455235257682689
1587 4.346277624565189 -1.6857670962173876 1.9827714979898559
1850 0.7923786514844373 -5.361653366422188 -5.31021117492521
1733 4.402485468349918 0.2566945511470818 0.7258845024053825
1591 -8.16490104407616 -0.4950829273341318 1.4468073762162137
1855 -3.554394173967578 -2.512436966076894 11.627361487768805
1737 -2.59239055564999 -2.381082562538122 -8.205666837825849
1716 -1.4118137168041718 -3.833989929611892 -3.720375189557976
1595 -0.16062971139970222 1.0746375619327333 -3.5975407524019616
1858 5.6134248148618315 1.0555176936971453 -1.097276279326879
1741 1.0750126658831356 -5.12661913635334 -0.9560976832774039
1720 1.70111015677019 4.854258346524141 2.7724588220952917
1599 6.2542731606523585 1.0022918372175382 5.657966267016426
1862 5.686654329161113 3.796306276195823 -1.2119454985010174
1724 1.850400582233655 -3.1832178351880693 -0.8716002562279016
1745 12.158170420699197 3.1062209879152154 0.34371892195248893
1608 -3.5302876741343616 5.456367102470219 4.57690645599136
1746 -6.335657433441298 -5.758914547340953 4.828786176919517
1627 -4.226109514092676 -0.4096208905421621 -0.4123542809237093
1588 3.0520798005399032 -1.9301047578403483 -2.119271751400713
1750 10.844990425528069 -3.2194514952809885 -16.14636395291439
1631 -13.415863320419334 -1.6325331380774561 4.865879297563513
1592 1.396561085388066 5.787564876926376 0.31637620406425776
1730 12.527783112775621 -0.5332691528311314 -1.085677076287342
1734 7.836739632804259 -1.9518512481382049 1.027570486016353
1758 3.5437225796626657 -10.773819326871081 4.842864140924644
1596 7.214941222899164 14.88916758593107 0.6696249327027256
1738 -2.1630191078144856 1.328942711784951 2.4656759249446503
1742 7.215725645714379 10.634166121620309 0.2723190432727594
1600 -3.0685880658177185 -4.772618486736171 -9.280388336625332
1623 -12.218953851873545 3.635843212739471 -1.3358165775100164
1765 5.7100611753458566 7.976475845573615 -7.263346190799256
1604 16.499177819829534 2.0322267896256463 -2.1392655394375106
1769 -6.4510882842918 9.660386534380839 3.639646358522464
1773 0.08854432795146736 12.864151509479644 -5.9907527246270735
1632 -5.3919785183583135 4.580225528616086 -11.374957091924127
1770 -9.227190349462578 11.333271626710527 -1.563651158401681
1753 0.29963319717992204 2.791730956650891 -7.864483272414665
1900 1.4684282599898701 4.774345032529917 5.049319277304308
1612 1.7907146511255365 -0.18233931007123005 5.991389297638088
1611 -0.1809952504404269 5.598555225140617 -1.381947918987944
1616 4.633584664147207 -0.7399336500307077 4.986350949217777
1756 6.822698816655027 0.17223383381556112 11.045174015678857
1757 2.1196926610178255 -1.7167939935060552 2.67009869845757
1615 2.8154912427346814 -5.517223326591056 2.0500605798162583
2072 0.9208104998353656 -5.045949861596927 9.157408208949276
1619 -2.3196918307442735 -2.929108272003311 2.5150471585756495
1620 -9.13864181501878 2.075959883204047 -2.1632817484876217
1762 9.091687323551954 12.943587528776765 0.023544216524030347
1766 -9.588729778206908 6.143442907562659 7.529994530465766
1624 -2.1964961793458886 -4.7301581636817955 -3.988391654167471
1628 -4.132480346864348 -4.766417545328512 -3.304095667824387
1656 0.2723699039827847 4.4151095488567815 6.569619018264013
1651 -5.715859997916658 2.1282459020040596 2.1111906117067236
1797 -2.417745401564909 4.302004208169872 -4.404691130773854
1942 4.633687662330873 -4.893688186939035 3.405450630181215
1655 3.41824691871409 3.0251542869809045 6.340028942732768
1636 -1.0603586859465066 2.2032093788897744 -2.178071944760877
1777 2.3712241730107 5.382874639997516 0.4825304773188
1635 -3.0491889054989825 -3.7125381720425574 9.32815295751496
1778 -10.941184159571572 1.3193884768800643 3.5061872856477314
1640 7.1414514462292376 5.510360108588688 5.398320738906278
1922 -2.8610080486705582 0.18209762042914984 6.4477169822648595
1639 -2.0286604215782194 5.923075844108098 2.2622299437356217
1930 1.1873193804630744 -0.9345212737715869 0.2576424416423503
1644 -0.23211768569978958 7.050011925246724 -4.233571641370502
1785 7.171837736965125 0.51204154202576 -4.278078206479596
1643 -10.316536683783376 1.9112282554034639 -1.790991208134468
1786 2.492658793698871 -0.1616391103034191 -6.721743923341815
1671 8.03196080962561 3.167744046040535 -0.9263423664921744
1796 0.9554873558591113 7.500556140854419 -2.546466034846215
1648 -1.5474794265670897 -0.08113325013113626 -2.3877099888553355
1647 -0.1605201989203144 -1.5059777074553675 -3.489997755316522
1944 2.43953174833171 1.668014782658048 -4.423594110886274
1793 -0.5229791720081141 10.344350125987287 -1.445842468906585
1652 0.9446444464420611 -2.577489855756128 4.179469832060406
1680 0.6181970099433559 -0.011540771620527458 -4.597738101785146
1794 -6.292040881866399 -3.803230534409364 0.5522249863809188
1801 0.3496993951007512 -1.610046330749509 3.7387349265347933
1679 0.007287641888353694 11.700654976176583 -2.1677610259672746
1660 4.603545300555425 -6.660017700215533 0.8579994532257313
1822 4.61059367941975 -7.749768807784184 -2.1155014922982596
1782 6.376976799456276 -1.2926986382876795 -3.0408512495898425
1659 -11.020557350317798 -12.290264627748623 -2.7267140500909868
1664 12.430981453289073 13.194363706408163 -4.610398908498469
1663 -3.1395368924836364 2.1795966406113076 1.855592770785487
1805 -1.628125577928355 -14.909253295395747 -4.2966603342398235
1809 1.408211904913026 -1.863888750964497 -3.6640446416463393
1668 -1.2508726097286276 -4.428103961308626 -2.423746223796887
1810 1.2949504380601593 3.7424034685686864 1.960692297851969
1667 1.1834939158837734 0.09165479809833948 -0.09863615043201268
1814 -2.227126804768356 3.388869874871493 -4.8509286883052285
1672 3.5635566371864 4.553659322347007 -2.0406008661991284
1676 -5.295441783189383 -6.766603716148526 -9.841883256678662
1813 3.07538749526573 2.2377567068131388 -4.6611359797002825
1939 1.6852402326773537 9.698284545191438 -4.887736343181093
1675 -4.6820759732209085 5.884438934187665 -7.914918239020332
1818 1.9617481925519844 3.1181740793451853 -7.345750856433615
1965 7.34727453287589 2.029262150228284 8.800883957340174
1849 -2.6252317181191804 -1.4313399704494358 8.16888327603782
1825 -3.329981792081124 0.18262775169023954 6.640200598744695
1703 -5.98857003783842 1.4623969999929571 -5.813298487495982
1802 -5.069427311151167 7.043588032954438 0.8944948344059194
1683 2.1932463824104427 -4.3948589191589695 -9.72950872416106
1829 -1.3286478745275716 -5.112779426240839 2.5837786851949005
1687 2.9559723464303556 2.0479626229233623 -2.504567233671061
1833 -3.8821519009871706 2.06706630820791 0.22574199569486678
1691 3.1047230848855323 -0.8811051484866141 -6.412248864879453
1837 -5.267749208906201 -2.208949234650007 -2.047218049754672
1695 -5.550055039498833 -0.38857957246923014 0.5905300735963641
1307 5.250243609188897 -4.704952857148234 -4.68059010830477
1387 -0.8471284197039957 1.1080603488939078 13.279596525781697
1867 11.028281043989407 -1.6928339262017689 -9.142396930966427
1990 2.0500937182202725 -0.7314851326516271 -0.7259709172670992
2416 0.930592235588823 3.260503493055207 -0.3442645623989627
1828 0.4396647697237772 1.9381166529172602 -4.593366891441204
1945 -4.712481452506732 -11.928361516334379 1.1441453320998924
1847 -7.941237611607757 1.8115537466852227 7.308629026868734
1878 4.06970345977153 -3.324907615050106 -5.341590928433803
1851 2.066352080620733 -5.622835515875287 -9.208128045498201
2000 6.154817217631605 3.2947968480791268 -5.606775314850392
1804 1.3507358179686586 2.0480123506959074 -0.03017324886439275
1856 -2.387333506260403 3.9268352329127696 -0.30168860246024154
1994 1.7962842012826994 -2.169334209376591 -6.201113755965915
2114 0.26043534812839836 5.095828247263697 -1.5846876181713396
1739 0.19800230652334314 2.7537342768675277 -6.293042578951873
1812 1.9200585244437873 3.3978316653237988 -5.163764518173255
2142 4.899969035940093 0.6041996175396286 -4.122155745294738
2011 5.149254013427192 -3.1009198949886336 -2.914149423084043
1840 2.4616362931822224 9.74660576402977 4.574239880727716
1978 2.459156181032947 -0.23420666144935248 -2.286737467837467
1979 6.166034113451948 -4.117703528893129 -5.496783282717354
1986 5.124100630450077 -0.15639266115752662 -3.701270384006311
1859 0.322553752442754 -0.710396023099263 7.896632172783576
2125 9.446093799992829 -6.632912046972055 -1.1697634829635697
2136 0.25800864325069384 5.195556314703137 5.351413088340364
1872 5.690956699045767 -9.930153515858068 -6.920370709949126
1909 8.205587548859546 2.0485710469689735 1.1168782373638693
1748 5.854417358586508 -0.8604970864435036 -4.851334057426285
2006 7.038087234718862 -1.3461058371499994 -7.619462192025019
1894 1.9913511205873746 -2.4195719889242353 -0.8019598028155456
2014 -4.5042103393959945 3.36950938545293 -0.43605833675098715
2116 5.448590964763186 14.933005876357365 1.9062097436071197
1895 0.6749326079641133 9.781328726873578 -0.017008299571639
1735 5.6620577163346235 0.8854631076144962 -4.43949317843304
1731 1.5130381553276357 -5.478784189391579 -6.918257298672743
1854 -6.0608875645361975 1.4572818740998617 -3.992685726828356
1877 6.311778619589113 -8.990086077479747 1.6598855458455337
1740 5.271712398785154 -1.8916084399338426 -0.9297596179818172
1761 -4.537760262362941 3.372484061508546 2.459423965453068
2053 -7.30638949051154 6.554614062936197 -8.749993553571523
1860 -5.127610269019634 4.6890711340726465 -0.354106043679445
2008 1.6723419844594072 -5.5922804399467765 1.5234876025722441
1925 -11.192126389145518 -2.2036575052398426 1.8106641584897436
1864 -2.2103848323175725 4.090793777366124 -3.441601680315597
1743 -0.33917482937208515 3.8357387311370528 -5.948442062309474
1863 -5.939046468976949 -15.529586386693659 9.850107484454723
1911 -4.585873179179596 -6.174335887281996 3.4419225194254275
1747 -7.693865989379108 -4.322164198742773 -10.283118404229398
2010 -2.608592903845752 2.335594278388485 -0.49122558467004435
1752 -8.913314076523434 6.28081949511463 7.2615816290732145
1751 10.472084286882456 -1.3653470249748672 1.474522984118813
1876 -1.5447768732925935 -0.367110036077502 7.565640595942015
1736 -5.1768786114955505 -5.221969634793513 -3.060130232488237
1780 -1.6428863049005578 1.7054531486270212 2.092566862067646
1898 4.86222057726107 -9.567892444420139 -8.945798462940186
1764 -3.5303030751719273 0.8440763502507416 -6.822147983383952
1768 1.6803603214909697 -6.018419786337833 -2.543336423832109
2235 7.051712090686968 -8.216631349970703 8.513063235954233
1744 7.182687598490186 -0.7870821861567123 -7.872045025538275
2007 -1.33703045630434 -1.675189209055705 -4.420893757811385
1891 14.640162062800204 5.4794508024113115 5.1588471859878435
1889 -2.062860470261679 9.530062951652575 -2.613918484411201
1912 5.9110534324955415 -5.084249109525051 0.6894977392786737
1914 6.212857924493238 7.970978255758422 7.447104929884053
1795 -7.022314373792435 1.8025280963289019 -0.32211882129612346
1890 4.1612944952806625 6.275763588362949 -2.388214302679388
1776 6.536623009197505 10.25714232833304 6.88510028797814
1800 -0.7825947718268994 -4.506569399056169 -4.390000108350738
1774 -3.263666144381121 -9.811818684703562 -0.2630058203854048
1732 -2.5637020796601626 -4.200802629672016 5.060991255069381
1779 -0.5003056086328928 -4.716897265586411 2.523669893950608
1781 -4.282918710832747 5.12096778444356 -1.040163377707943
2062 -4.477584348197014 -0.41616624836117083 -1.3030242519290132
1903 4.220481411355769 3.500257738654175 -1.3600947980662212
1754 -8.915029527787608 -1.3521306579293073 7.798544322932854
1787 5.079264047942219 -10.931832023386788 6.134449329752516
1934 -1.666825812427951 -8.539155575181862 -0.07988445829050934
1902 8.92578557574009 3.1726967356233082 -0.46587086312853615
1929 -6.345287179964492 -4.876216504071614 -2.240022651987241
1767 -1.0494896505757212 -0.023335003773559043 -7.468072627398216
1789 -12.528961489313444 -2.112002205419541 -11.771854007460316
1791 -2.4477232845551193 0.6274126989029895 0.5165628783899571
1771 -4.058073604280908 -1.3120485489803075 3.1687466478511963
1772 3.4915514115745956 -4.850151135723554 -2.132155429099106
1923 0.1223954443472185 -7.727838247249909 -2.4815626652887124
1919 -2.697984919033942 7.336616668992444 1.8453535960767797
1819 1.1630446193169968 4.28258834961475 -6.581223261758286
1824 -0.9093801854193491 -6.288708847112267 -8.375249660549366
1799 -4.425613312306138 2.08520316238117 -5.039678927402343
1798 3.4906036900024437 -0.0077831132708976285 4.426266783987264
2065 1.993670406766567 -2.6433979841917967 3.889967568250766
1967 5.247267913593855 -5.786179042279289 -2.574186273638741
2045 6.060563570147972 -1.2969354134733213 -8.8762932500266
1784 7.160974950301271 1.7019123069797408 -4.719368199038227
1921 6.743527067415318 0.18763410886887877 9.64888900168576
1928 11.68122456836691 -9.289490990170737 -8.775345818032804
1803 -4.19171436263939 -5.641450265191317 -2.8381661752110787
2385 -3.637145906931561 1.172981098796741 5.057115184499509
1783 8.308176709419493 7.145408302949293 -0.024561425253700087
1926 -5.757679020144504 -2.4627135804221845 -0.5716309239624585
1908 -0.9665155841541966 -3.9571652623113085 1.3313756004669721
1953 -3.7778962687473188 -0.068731402181419 -2.3875541004685332
1790 -0.2789128022907979 -4.375330198155884 2.320117746998593
1816 -5.094417530371514 -7.870382865349222 -1.9294088134972665
2085 6.832262788462833 12.89266582172558 6.153221116689361
1958 -5.106470596312568 1.406966241495336 -3.7240207629253796
1957 4.071067808497732 -9.797260638638758 2.390167460715987
1937 9.605301710399697 -6.362880189615846 -4.883673700715842
1821 7.7366386450661295 -2.9011012381212464 5.79279358299529
1918 -3.323172522152794 -6.679574746326363 -5.809102337646769
2106 7.219566105604088 -0.87853164913405 6.064729016201542
2219 -0.15484805970161397 0.0027127319808019816 -0.9436426000605761
1997 -7.666008351462077 -11.39568868637851 -3.4400053017646557
1987 -5.41171095032033 10.203770037644642 -1.3389170835825934
2186 3.3257191780864033 -2.805426937438537 0.26131952355155047
2067 -0.6826217027716273 7.353817017650529 -0.25954606016138193
1966 -1.9895617691298169 3.649904074385592 2.399133082322782
1808 -0.40282101537535386 10.017604771775586 14.279189898604072
1806 3.9087643469715676 5.280590436747287 5.113138372544446
1879 5.886572890974915 11.693611751137867 5.697343415156174
1950 4.61127301010238 1.2016756918079377 -3.132638471758705
1811 2.3439840427907 5.2188388848385685 3.538672322993841
1835 3.55310381481461 -2.8229221107912075 -4.795403924387487
2097 -1.3806053102882965 5.756316773806482 8.583664734147005
1981 -5.606839780318501 1.5220598286765767 -3.540818983320642
1820 9.053572650145602 3.2597060316938657 -1.8245032878799374
1792 -0.4644747816438579 5.388393414285209 -9.480159262972403
1839 1.4239993883099076 -5.4937754692919825 4.057638677656782
1845 -4.039783953548524 3.221952682062416 -3.6610080205385818
1955 -6.5695152815607205 -0.46792880823411825 1.969134429016947
1817 1.6035569775242067 -1.9321966760795561 -4.415506088884028
2109 2.2260495468339405 -2.818491715631913 1.7417878788682672
2130 -1.2640572165292667 -7.940953028692468 12.630643024934901
1848 -0.5019178729425486 -9.355319395471636 3.041057886495452
1991 -5.008644421572777 -7.852989342547427 -4.21190435126771
1827 -3.2313108284042724 1.4582030789021676 -0.38359783320657426
1832 -2.4247732298911258 1.1825428413720287 5.408607804228851
1954 9.061577495580359 -5.370447867252285 -0.49742812069811015
1952 -2.9789493699609095 2.351927133896784 9.751234232754852
2098 -3.8463443859288704 4.6717505254931435 -1.5512192194942913
2105 9.226952299377173 -1.0128237828493052 9.187147571554164
2101 4.037805986696971 17.71601563542236 8.205892585353912
1846 11.342416755366164 0.5250100492021225 0.769092286110769
1962 13.520310535167994 6.683880457482081 -1.1522571823730816
2138 -2.4563186571684663 -1.0178827919364575 -0.4163217989016001
2159 1.4322165993071159 6.384429813056194 -14.115764075697705
2013 -9.42060741246706 3.3231838507216596 -2.043016241862037
1998 -3.3099212190853593 -1.9481293404926658 1.7206714770471256
1993 5.23362725562609 5.372656787007082 0.5194278961227828
1969 1.324346590691456 1.685090009285331 2.997649771693701
2160 3.6422535298835794 -3.972012014123344 -8.961698505275155
2222 1.704067981856243 4.43943792411555 2.793219392373321
1956 6.042113283268944 3.4186601512126065 -2.923998512041676
2557 3.2738901097202806 1.7091925927072187 7.898191289977858
1881 2.5856379498252817 0.9817246225917782 -3.3613309869051258
2146 1.3089265719960035 1.000095011868141 -5.440631808443166
2212 8.590476581622202 -3.866379208378497 7.265782700859537
2149 5.796308021210283 4.499877712403716 4.285823150540448
2298 -3.9089039697819756 6.938573563628993 -11.661694502245904
1968 7.076904325704315 2.027039270743457 -2.377038676800021
1982 6.549904115318208 -7.427537283547164 -0.01324008857589665
1883 0.45937745102594235 -6.199179941666589 -5.9303180110759595
2122 2.9442642306625677 0.8471540827911719 9.2820981078521
2448 -1.3549235610083044 -6.6803425184347764 4.916912664902626
2133 -3.7570365542413615 -10.095646894926837 1.328075732914724
2012 -5.614779611570572 4.856970810385074 2.625436982371173
2068 7.9754652193634 2.6212225739013806 9.04979734904493
1844 9.087595452222315 -1.1681678895664471 9.603367651229707
1871 -4.727402649554907 -4.9212251887758764 -1.1100166232020985
2018 6.657901135051084 -5.081639012521255 0.1127630100298906
1984 -6.487818810522329 -7.89984376607179 -3.981037075897952
2015 -4.843823255267588 3.52861601086787 -0.5146969265315869
2021 -8.326331760077224 -11.961679240518606 2.655084773469056
1880 2.435450208366758 -0.1361943404278131 -1.6859667565468075
2199 -0.31969737930722547 0.9116381285371016 1.6795920737417143
1999 -2.3993935101450523 14.956039816742116 -6.50715067233427
1901 -1.4073632317209142 -0.49480942035197967 3.458120440936574
1759 0.2699071907095004 -1.4387113142480268 2.255156781255074
2041 4.563782156831419 -9.833782405282419 6.271379725265637
1897 2.6414414469373226 -8.82206334822952 -12.114503107877564
1947 -0.9335405494689477 9.967401385759972 1.4189832539781784
2120 10.739785577132272 -8.455646261521421 2.3096872284674674
1885 2.0560420350206425 2.2267063828635583 0.6699177562586576
2001 5.401604052207623 4.405761161252347 14.83204107993466
2026 2.005394467292085 -2.518973590179864 -7.139354124369177
2004 3.1509865128097156 -4.017891967342697 13.730875952697609
1975 9.906004128339948 -1.8195793286533832 -3.719090889591089
2135 -4.0441983462316955 -7.211658698915026 -6.5581061736699695
2071 7.918455927254311 1.2766414862922866 1.454737455691072
1875 -1.0752147728202943 -2.582427658164148 -1.6920139959409852
2137 0.3185894077552126 -4.649693975627421 4.267278487580213
2033 -1.3160475122993769 6.9015952390702555 -0.828712756567562
2158 -0.522844385089414 -4.871133584521365 -2.760571600958218
1996 5.801887379287263 -3.182778130419907 -7.796944035944357
1899 -6.414392392191303 4.474440169057066 3.1132275380557797
2155 -3.19080997903256 -3.321271553618757 3.1005225408217214
2039 8.90286906865191 -1.361436004652062 -13.040292008735573
1949 -3.9256808377810266 -9.877840927542644 -13.093022323666021
1874 -2.6842170029343158 -5.240008414343499 -1.5322219936928152
2042 -0.6147322797201731 5.194086909932583 4.436386357363422
2245 6.451129100332112 -4.102810171155247 -12.53119838466887
2161 2.8257239854631027 3.6966259488684026 6.725944121899327
1755 0.7225487044984062 -2.5830292522962974 5.225653160000626
2143 -1.6170911315301564 -7.643492010806354 7.675332419922307
1815 3.9940215674253152 -4.790528792095738 -1.8771804416101605
2009 4.244943714172764 -1.664892071836743 -0.6886481268800765
2050 4.398017364285654 9.514453445939942 2.186541891135798
1892 -2.0642615385533785 2.1440397159672857 5.749450607754332
2055 -0.8205758513070368 7.262243565679567 -10.70133673551707
2036 -0.6898300597126286 6.3040136432645655 -1.969851355638443
2095 4.807541834296761 3.353127477884278 -2.032543716371401
2185 -1.1128280851316552 6.094734430891266 -8.717865581478124
2103 0.49361215794409524 -1.1950228787489257 -5.888096521796042
2043 10.289441042965464 5.432404272320578 -4.882824915660883
2069 6.913459214700234 9.946564129586744 -2.804787095268177
2066 -6.605401298008388 1.3652211200230289 -8.155683602344837
1971 -1.1823888917617595 4.7691703417354425 -1.35769135514487
2247 -7.657895242075166 5.624221736514758 0.4811714384911945
1906 1.9887690692151843 -2.479942203248627 -11.699076845176219
1974 -6.817743289524774 5.480791283258165 -2.5201691751433093
1905 1.4966238245565178 -10.670081503784795 -3.45265884968282
2051 -0.06055700237577303 2.3193102433984616 -2.7180579112959977
1882 -6.225144707335121 -6.1483787500885265 5.998030306707665
1940 -4.148547541518813 -1.5933538164798597 -3.0839955223213975
2151 2.8807737529152635 -4.9529403371757095 3.874191259725709
1933 -0.9120194271377666 9.233258414691548 -2.308725073202407
2128 -2.9784881609376397 -1.7875331931929654 4.3403366218145445
2081 -3.8111587956686637 -6.363762993485054 2.3908886515785626
2084 -2.5233667738531196 -0.4376472974012208 3.734265550121618
1938 -4.335770110889813 -4.832406132125586 11.480657729177342
1935 -1.5445905783009632 -7.447057318148979 -3.971954742000294
2083 -6.386236125393091 4.759387944572709 3.692035994498785
2061 1.344839019992784 4.248212199188863 -1.116504825837264
2542 -5.053241541741692 -0.3538851343362645 5.139395115251651
2353 -2.89694397298513 -7.763106639421538 -0.8000820734492036
1760 -5.694196826249134 2.164364990805362 -3.6203045826542994
1948 2.4427866299473084 -0.5882264211062065 -6.220381332871618
2096 -0.4563946528503452 2.5359453822118114 5.233825819694768
2187 1.3824149540259578 0.08667346078778487 -4.284477504245908
1831 0.9614122829508367 4.890115832955194 -0.9763507598493077
1946 3.3370971766483923 0.4336247551181267 -3.5394597521096918
2283 -3.6254323010695115 -1.0369330311370064 -3.3770207596973414
1983 -0.6475251308128775 -8.272887601646325 -3.8761537776669104
2094 -1.8764627161293264 7.833384257755785 2.1190039811480696
2108 4.779732876410372 -12.01225522734649 -10.694220583253855
1807 4.122399806380605 3.923879297625664 6.394824453811163
1932 -9.39557834886218 -5.278063697576285 1.4889596781381849
1763 -1.3459506760000537 -5.403432032756163 -2.576787016529141
2390 -5.798786142105107 2.9596751730296145 -5.983742131859689
2280 -5.750518245708862 1.9529856808661465 1.9877726116655001
2192 -5.293791773236201 3.8827588993448208 -11.419188783066897
1959 10.682094147782863 4.990673967330151 8.28205820625326
1989 -3.3025212809163342 3.130594407762028 -10.625982943247434
2113 2.392644915444014 3.006513268998547 1.8367564284618776
2091 2.7664481309613294 -0.6192715465972117 -4.927840387074895
2272 6.970690144671906 1.8050948710308838 5.55342284002876
1976 4.224270655078627 3.9049558738067978 5.156458154450609
2377 0.015205751321331569 -4.7586648486419865 2.9144294998736067
1924 4.535145483546033 4.175408957599281 -1.1892422896602066
2086 4.3796107095384365 5.80364886704461 -5.623517946948082
2141 8.554025135832129 -0.8954052275881237 10.917301239816119
2090 -3.481129729351384 8.435617738034711 0.7187975070644138
2076 -12.358272154558389 2.5500703165559258 5.324817870148671
2551 -8.19466378541246 -6.397184509947438 0.5598791370234895
1972 0.6433021664721286 2.319358879570825 4.681294014085135
1977 -3.221621281798319 -5.138083275251872 2.6737681903067494
2127 0.9851656280225506 17.384878572832793 -1.9940013429784944
1973 14.503337546900465 -6.194274098436049 -0.9189533608647517
2123 1.5768581351135946 3.367316607513971 6.440977945977687
2093 -4.0468002797515075 9.92437853028215 -0.1364057351605967
1788 -6.285776669752513 4.507934940119718 -6.026895457644887
2216 3.135257095312172 2.0800439066445917 -1.6277491379209117
1951 -3.198271860877588 2.5585057797548965 -7.233502837319466
1985 0.5653438218840791 -1.0562444583975223 -0.16691483364978885
1961 -2.12910901918547 -3.9030222867128033 -1.1760621111377207
1927 7.655268119201495 3.8230987363806292 -2.9547738250898696
2232 6.036819574328393 -4.081095577391345 1.2298952384414648
1843 2.1544457031725206 -0.19174140978040521 -0.2833055843603814
2003 0.680480766505315 -2.030791495593343 -4.129778995762915
1980 3.237460948172308 2.491609376872284 -3.1651857849253413
2140 6.878266812718698 11.286432888020434 6.367233129147738
2073 -0.38084748727515105 3.7645187119554695 2.9554617906149168
2401 4.655342431432897 1.1465000424754774 -0.6910387163852505
2209 6.155406494802076 -2.1120032232271235 -3.033267493485018
2129 7.588657618331422 2.829963519348029 -8.870805956777943
1988 -6.057437736823534 -2.639436220798752 4.685234578212853
2231 0.0487554960873801 3.6055687062821713 0.21461651920510835
2196 7.735177691471911 -1.7008009403206559 -2.5576609382318454
2325 3.551106757865408 -13.35323305789811 -2.8847394742986263
2218 -0.26435295516075424 -6.736881021688184 -7.200082010507573
2163 13.591568516576748 -0.11167814857785187 7.759305246742707
2233 -2.0256013618648985 -5.089361646933263 0.5046495834365212
2404 4.616651221888465 -0.3198139005749116 -1.3231462719810436
2145 4.840232669408396 -3.2505514229204655 1.6739940387012389
2326 6.529452972977825 1.3507638899366374 2.275725155075719
2403 1.212716543969583 5.586325033533688 -3.6766058517419573
2397 -3.645764789129638 -5.036420661687554 -0.03697965346123717
2118 -0.5751699300026545 2.3900678900621632 3.158328338886645
1873 4.242959046283832 -5.954819825412447 -10.143919179191544
2217 -5.943788571952176 -8.357987407006814 -0.4092415649941336
2293 1.8869927661156782 -8.152704360033084 6.541794064033301
2132 4.062779031342556 -5.924764038656079 -4.417910781272351
2005 1.5536393607545207 0.9153129741448128 4.75649285664962
2284 -3.4991975610539723 1.970468721369981 5.520136705812893
2446 2.980970502259148 -0.8185578545783515 1.117111237591729
2285 -0.9294212148676884 2.773060047918185 0.8884378914535349
2413 -6.173574326926032 2.311934796613487 -0.3105882284338736
2433 9.00043663929616 4.438237318056076 3.575297708326536
2378 2.801375358782877 -2.566248024866741 1.1318742595419644
1868 2.370821538219808 -4.042068179077736 -4.274196771941897
2386 1.8482980966871214 0.42870073347447774 -2.4774148584843534
2211 6.065522430302224 5.507249624949534 -5.194176028975127
2168 -5.576607482277389 1.2157603786421047 9.008037255670935
2029 0.44921748159226194 0.5707190961018382 4.746812497688241
2306 -6.4982858805521095 -1.9731294875881469 -6.445916961856135
1775 -7.231426842846954 4.626433276109526 -1.3345589086315697
2244 -3.3084041605975827 -8.499687624611191 -2.400989509759523
2294 3.4994560649700848 -7.0248688362181895 7.434613563009555
2332 -2.2001774663122267 -2.828608444235507 6.658549496410757
2257 -7.046445968616326 -2.8458507391585526 -3.5535514908125903
2291 -4.764613219787468 7.0385169712289395 -9.49370143343449
2329 -1.901097475890251 8.06956508127593 5.297739149502348
2175 2.2291941723934845 3.0276373569680066 6.868439923156588
2027 -6.2152429908732865 -3.077755163709365 2.272638971437096
2440 15.331437609347638 -2.051221781294073 -1.1084718454111966
2164 11.137840566439118 0.34316028668001064 -8.41449120786083
2165 -1.1875366701365848 -7.4335335676852745 0.026569191938975844
2032 -0.3956360310059847 -4.8326617523054995 0.59129994772183
2227 0.45815122636735445 -0.9351283600166843 -1.0573829650604691
2144 -4.237907145404127 8.612339334488487 -0.05949533119466078
2179 4.608074643301748 -2.9560583164921765 1.5840836776093759
2002 -2.8664773361878746 -5.388884553177717 4.003228042552317
2111 -13.02478866360137 2.6832446168551862 0.4781906675379637
2134 -4.238639946384346 -4.666245080261497 4.814546984900685
2437 -4.167391202096726 -14.14304117904615 -3.90481202351298
2038 0.9091623261705127 -5.65326869824604 1.7448094619732386
2366 -6.651192473347035 -3.606128928375445 4.659216719046518
2183 6.816263845067277 -6.340965073965015 -1.3954450857646419
1896 -0.5356233520305168 -5.800261016652748 11.458117762445205
2157 -5.29116716930562 -5.5667367473832545 -0.09617937408340022
1884 -11.004365414060622 -1.0364922985746419 -4.284801571716753
2313 9.18607889224659 5.689709666372296 0.6794945375835536
2259 -12.054454930957405 -1.471366712959469 3.5312600819463507
2312 0.28527417019883955 -2.8222378322746304 3.9972995479164273
2406 -2.1247347822958127 -2.521436199759611 2.369420298681313
2152 6.460691210456484 4.362077600384439 -7.849711742600644
2147 9.95236124049949 1.2036472273311114 2.334830144415382
1907 -0.14894449911919974 -0.20513277737578087 1.816244276387881
2242 -3.233270866424786 1.1322620122097478 -1.961224259245498
2028 -5.6760621643388305 5.037667055561279 -2.9517298222431148
1888 -0.07981729610307134 5.618658198406675 1.9176215242369834
1910 -2.454955637315056 0.7791267454766356 -4.075314751353661
2052 2.385123028316861 -13.494995488961278 2.452886139411963
2074 2.6804899605415415 5.00173290907645 -0.9949431965021902
2139 4.9872349849361735 -6.405480777429342 -3.3128477302203945
2255 -1.6853124560992345 -3.8394758488863148 6.993955668864828
2352 -2.284857613436092 6.379151996222371 4.973369882128299
1941 -7.763741668381907 4.079984681680671 2.0526278394246655
2223 -5.911984121689106 -14.72562742308347 5.6784506962408345
2337 5.70946822986483 -6.4236846683573905 0.8666722055605687
2528 -5.363380304339684 6.60411960311682 4.890523816117127
2024 7.290455755485047 6.22542991344506 -5.267973793180206
2256 -7.280560389961083 3.0544351311817772 -5.861422996769413
2046 -7.913065246639661 8.035452599013498 1.4941086074706442
1836 7.0922950145030415 -8.984782961162825 1.3664388455030307
2362 1.622299729670495 -3.0101899031077073 -0.9093773376415021
2250 -2.1106784946618036 9.063177103230382 1.277301198006032
1960 -5.666263976097804 4.188715134906492 -3.779183344736405
2075 -4.237689857544062 -7.3956932965922775 -6.0721456796478375
2107 -0.00639943423373969 -5.16687838271009 -0.2818996550628527
2170 -5.442631073580188 10.153970488599535 5.006695836639065
2131 -0.9659052017476555 8.61440717711997 1.1299169942111453
2087 -7.309964880253999 -5.254024185607671 -0.23507352809634638
2064 1.1941217242819568 6.029076021864173 9.12958818812896
2351 7.769854483196881 5.655923840563873 -1.2947175197648926
2545 2.5722839929145613 5.057951837827998 -3.5723837358061146
2058 1.1728465924794431 -1.3755153899041879 6.153510239710129
2184 1.9790253838478171 5.754806776875355 9.992996469586187
2117 0.5049030829436305 -2.239135445784972 -1.2712384942960517
1904 2.0998194189246333 0.18181978129376122 -0.014074245230782639
1970 -0.8409610484932661 -6.899281057542462 -2.111676587864192
2070 4.72005231045092 2.0045042758939187 1.2552828443617634
2316 1.91266305919759 -5.9662957076642895 -1.0879392193105375
2115 7.951172018905174 4.114153597855642 7.52806659859078
2099 -3.444000934470972 7.270738103650851 -3.342921551154331
2180 4.17867758681787 8.449624697539202 2.1190473929532074
1931 10.73481468817164 -2.249786234907812 -5.769795773407497
2047 -5.002506865140654 -7.209525211750267 4.8278878170801836
2048 -8.577301553699732 -3.024393669470171 -3.4565603123489006
2264 2.077715557479977 -7.326162965605418 0.5625485249316553
1886 -5.8635599050995575 -13.417011148342295 -3.9299644669133578
2054 -4.142428699215114 -8.60375247336754 8.670984142639862
2189 4.50380903643911 3.4128017645548496 7.6278311335189555
2102 2.6620324859416313 -0.5344632569597352 6.197947333297002
2056 7.8645863304912105 1.6640994013894346 5.354898305878323
2089 7.503654004384119 -6.114033611142236 14.46492381289993
2154 9.118037517445133 2.599882105903906 8.42459366890271
1917 7.886425822919743 3.2264230054413527 -3.9127497475944937
2207 -2.873826357235692 -1.7935461121619087 5.1916215437402125
2271 10.696441421629975 0.875743054424602 2.0200698456814465
2398 3.98418757756535 -0.5970925855967191 0.5924064128134104
2447 -2.272236721286445 8.558565883860233 -0.7742895399731216
2350 0.7899795216814975 3.485715397197457 -5.374789827749692
2382 -2.3538554510634118 0.5528235441393792 3.019494870649287
2049 -2.0926495690189224 -0.5385620643122282 -1.7968669603479128
2022 -0.026068948687433043 1.2859420586883747 -1.2209248234894154
2174 -2.5335943618920123 -6.959759664399172 -0.37159590583981805
2239 0.8503428454488586 4.059926618144194 -6.6219808906330915
2121 -6.9527735321438255 6.94720183098346 5.3625539734027905
1916 -8.194107811005189 5.397385679953727 3.047627479056006
1964 3.153911889442668 -6.0348928050846 1.414348162357435
2301 -8.045182745059481 10.72998194051648 1.3529942973853302
2273 8.057005550818882 -0.7962009266897635 -14.019108723424837
2077 5.868830469161629 1.942393241103215 0.044255653744502375
2438 -0.7842487485024026 1.6558656880436877 -1.4720597524606915
2215 -12.381663062012787 -0.9119553034788371 2.1007160891082814
2063 6.158572021280928 7.947515308052777 2.5989206425455498
2258 -11.413020203442988 1.5891048078585548 -7.003446281884689
2489 -1.8049462690567624 -11.99841397698847 1.5782265842658734
2092 -13.677337451024556 -2.9362629868910557 -16.694384938575134
2110 -1.4822515911225642 4.576418329509415 -3.669862810232908
2305 -4.77255159983666 2.4514906341443 -0.34445251196751886
2402 3.3130355763682084 -3.5034752343403195 -7.474117836706254
2297 -4.808528737765198 -2.502738006233721 -4.864809239347309
2202 -2.991518941080229 0.8318316939475436 1.6338009821399537
2274 2.0367801331009474 -3.7448804409347396 4.771827102993003
2104 1.3111075591249555 4.986044064935659 -0.7525847169393389
2220 0.6164801046131584 10.698835300795325 3.1158280629997948
1963 -5.466083934228598 0.5134659766554577 0.9276164583703234
2517 -0.643183519243403 1.6809656623876534 1.6901417219599744
2302 -0.09423953458008552 4.638981000590685 9.564600454657226
1893 5.973425149787677 -9.065914609165668 -4.777879591973902
2375 -7.773625664746702 -2.5222550817853246 -3.321306607660097
2287 2.7119853036085337 0.7213798746892 -12.484255946749938
2171 2.101338671961127 -0.3574570951137935 0.8122393257335828
2303 -5.987906070181531 5.115170740837361 4.532819438006483
2323 0.06815354330246023 -0.6280644412225667 -11.828628404964038
2442 10.018247147746203 -5.326672619502528 3.4908949690758164
2112 0.6243496412543622 -0.3508683799820734 11.736180005816903
2729 -13.890105012348709 0.0309679430307886 0.5996845119344983
2592 0.4616489449741456 2.814645105207658 3.9827782210970697
2425 9.713305921077657 0.02071508585465056 -4.973515685094097
2025 -2.258638293052625 2.5931101629407585 6.468962337481551
2221 -0.12547588824723005 5.794398461459892 4.121970961048273
2311 -2.3926483883882876 6.762617469080548 -1.6945505863735448
2269 -2.095494917670574 -0.46550140265988516 -0.5097145548206374
2214 5.657454495160196 -1.658812143013664 0.36031171427625364
2156 0.4263359784417803 20.792420762353224 -3.5312634923076813
2454 -3.164729867591531 4.398702779741343 -3.2994829495876163
2506 14.59820296316364 6.391770875510282 -5.501135821949551
2721 4.136168387527878 7.900063650108893 4.8374800348334315
2319 1.9630356588555224 0.8473280415717981 -2.216659537193379
2588 -4.571523777864911 -6.651967448951164 -1.634149323595003
2364 -3.097483662068767 2.7836127686314818 -0.22588781308151062
1913 6.404452292207336 4.998723933921229 10.838920296517175
1995 11.05761340284897 -0.2488332557052005 9.014222172248642
2078 0.5161337211345924 -1.2435622991651902 -5.390332390412359
2057 11.768132891070296 -4.372035440660789 -7.036654484254592
2243 0.30795354681314024 -7.843728342378545 2.8784543239679836
2328 3.3830876667730556 -6.511228923722309 2.4089475586701896
2466 7.358117361332261 -5.64305956332905 -10.64706832142179
2173 6.6306704359446975 0.15661447054516647 -0.848340861768371
2347 -2.975014308503054 2.4456291217093638 -2.709957669677445
2017 4.293702854907694 -2.1090235393120387 -8.24445012668807
2640 5.881982008506815 2.3509819921297077 -5.827716145940423
2286 -0.9557547479720597 5.556010065487364 2.732010257001242
2019 -0.3316560169517479 3.3691663044220395 -1.239262637860439
2457 0.0502969655717264 1.0690052078129721 10.361002480612676
2148 0.0890550279958453 -3.3777313027598432 -3.7712311953742685
2210 -4.177196851161901 -2.9162129081106922 8.591009616738845
2166 -1.8020599649690403 -1.975965626326693 -6.620802493099933
2016 -0.6012743446182544 -1.684604628266424 -0.9006530117820662
2153 3.091555151119619 -7.362463144588109 -12.762520173290701
2546 1.5265920284087362 -1.341805298482747 -2.85331322815777
2405 1.7964630832839308 6.42802880077496 9.031533624371226
1887 -14.669816974018143 5.248130645869182 7.180818087881374
2126 7.461452953603326 1.9806549889466758 -6.04510744858428
2229 8.61285555839683 -11.08743406427887 -4.772742805025658
2389 -2.081765113727665 -1.0667345763090756 0.3245945504399856
2870 1.3023659054090106 1.1501628623477085 -4.024585485359314
2275 3.3422755626220484 6.759560540533594 2.7613255708969806
2034 -0.21881053782586998 4.89117774960921 -2.588541548971073
2020 0.37587435478801257 -6.025486483020144 2.4813410167884156
2330 9.334272494402569 2.683122050202396 -4.678743847899269
2308 6.856479040900327 -4.382344118694872 -1.3649994801552863
2040 -3.878914087088042 -2.466092902776448 -2.399579800814194
2300 -7.730689013315955 1.0603749090454324 -2.018309872789143
2434 -0.63358381738909 5.424840898007656 4.343742642043602
2162 11.424760008668752 9.122791096809584 -0.5499144656709533
2339 -3.090966602024688 -2.0659744492681917 -8.931845088338882
2315 1.20237418762686 -0.3191415048812273 -4.981107803921206
2508 2.8143273894688043 -7.285131947213278 5.577927363133821
2288 -7.325507080348065 16.29792889619362 -1.241619445135718
2262 -2.527568176674283 -3.4810816243920257 -4.480945218787416
2230 -4.303202811000898 -12.437622399788882 -0.9001060233409054
2393 -0.665674009227448 -0.9929598771722358 0.09503445022749603
1936 -6.077750464554686 19.17862739983494 -6.165728431210554
1915 -1.377923408695029 -5.211272776866082 0.6756305776745378
2374 4.3788442966125904 -4.473787556438853 -4.95373192523123
2182 -9.213133536944408 -9.574908007463916 11.063956361543124
2267 6.577810086798672 4.821734113499255 -3.426277204987768
2358 6.414191287508336 -9.234053211858049 2.2908230205040074
2194 5.374055192075453 2.4150665621110625 4.8579835699897815
2249 4.443577829712377 7.773665623661411 -3.498673666715018
2356 -0.28513819653489486 -6.475605281539831 8.802714339506467
2383 3.292318854799858 0.5418809454631118 -6.088788433720394
2409 -6.331596408394434 -2.604087259929464e-05 -8.7854748268385
2333 -9.437290120248402 0.34098770747009366 3.502059277377795
2310 -6.484375082768825 -5.116567947225074 1.737102342212426
2525 -2.3478254694076726 -2.725827720709151 -2.4084348170379912
2252 0.7822933056846391 -0.19806926262197966 6.917409658959799
2803 13.054530393950838 -5.512762584546174 9.023163247092251
2201 -2.927985792166762 8.562276586861357 2.7587794379150568
2100 3.6713695941210958 -0.4564097536876631 8.25762787028677
2445 3.6710951226514075 -3.7168161283412147 2.677024825569956
2414 0.7305199350826654 8.087458172127247 -9.11343771524344
2261 -4.086618085800246 6.931567259620903 -7.053398897973112
2195 1.426766575962497 1.1502008955140115 8.852897287171176
2265 -0.7111151054228738 7.048613377068688 -1.0886506198324797
2654 -1.3968394202349272 3.4342383732955506 3.1606521374663363
2678 3.7926256925472974 -2.1024701491697515 5.209412661337366
1992 4.859929696257334 -7.725049059766317 1.979567488510566
2208 -13.649198164648976 1.6650694810595488 -5.030293557832911
2349 -0.6074777304073183 0.11168828708658374 1.3003287923950526
2423 -4.244354476503132 2.5219827054588024 -0.25673683376899986
2473 1.3330664901469913 0.4451927868876124 6.472172129037013
2023 -10.101999815166959 -2.9220229746456123 -8.042442064318593
2687 -5.253265382109543 -1.2359630250405418 -7.361942374415871
2478 -1.4185400404986053 1.2784781648947712 11.510696059759304
2388 0.2594411180158752 0.8628016785887276 8.164301130603974
2119 -0.6456243838646603 -4.3651670575276675 -6.654524891539335
2177 2.6186033965254314 1.9631617211658936 -8.555455973387655
2260 -4.586694407282413 11.161212098010903 -2.2694777876400622
2507 2.325942710957167 -18.59340486406731 -9.966114097896615
2526 0.5690274720003878 3.5338270176078455 0.546870921526291
2567 -4.504845297461421 10.982268670734545 9.572831673108718
2513 -0.5191585779345989 -8.299602070600432 6.769329247745083
2387 1.8815955271044194 3.2020579627912884 -1.8397362746970543
2044 -0.903055735323645 5.2952312055916355 0.9161458484325641
2443 -5.892624602134339 6.008597626160312 -3.2509244314354757
2299 5.1680241829049 -1.247515655589773 1.4269342288878575
1943 8.802135475755097 -3.6638687307157003 -0.7197636548651011
2270 2.890437517474834 -11.697088615010705 2.3686023518073083
2421 -9.100068945635163 7.04566008912032 2.6237114712009255
2420 20.276643260895966 -6.751580019482773 -0.46530233427448564
2730 3.362115749158935 1.633019987761323 7.469548737095399
2396 1.379993375568508 0.7633294505478221 6.334123604982385
2124 -8.114822546852546 9.434581234655335 -3.5221514135743863
2524 -13.329497598811114 1.3952430330603658 -5.447709033129013
2407 -0.3312227401320499 1.8892568740892033 -7.787544429861874
2354 -3.817559705142413 -1.5421201966061504 -7.1589059777227915
2441 3.8222267634749287 6.418042286640619 8.12298831004223
2642 2.121115550180021 -1.1207020100309688 -5.472178747108827
2190 -2.6859811663563646 11.225364659720983 1.7200982172120847
2709 4.9596359707141415 5.768957714235088 -2.237546094585011
2197 -2.801282875430457 -2.5300418108517073 -3.1387332089852316
2529 -4.524484472890753 -1.6290900592363695 -9.033762097729824
2080 5.3877708066082 1.76407098521163 12.278941914977418
2737 0.2494465673192483 -3.545085053811062 -6.068280513584937
2569 -2.1292118995817853 0.9471446973787898 -5.675642301600651
2206 -0.7362655273124655 -1.9148805869064152 -9.839686936329908
2289 -8.084615440199025 2.0917427483500513 -10.997698295790382
2268 3.6566282356303015 -5.5508085671072624 -2.4455680750937825
1920 3.6907433263388714 11.484139150440427 -1.6539730244211917
2307 9.003371586364006 0.43130281412468197 13.682154706233026
2380 2.701355239810362 -0.017196500750842857 -4.4925914221296415
2611 2.7319830221473764 2.6787783976448427 -2.792767293573265
2281 3.7857085688610885 2.462265220969214 10.190218507395699
2566 2.4329673755167525 -6.989560825172475 -10.680759353830869
2591 5.67224441454067 6.892543906698085 3.5073495214833916
2225 -2.577452710739936 5.259150061814112 -9.286633099661232
2309 1.1113075455299433 -0.874278588365847 -2.6615318395253764
2226 -4.457068218135718 7.1617691571603626 5.98780702622791
2439 -4.891018780131986 8.318813638109647 0.39753656171805124
2455 3.5283429206109704 -1.9214370669457561 0.7413485661937018
2379 10.283342918568902 -4.0137606447028205 -7.8569302945887305
2736 4.380768221002895 -4.934250849316732 0.5672418235382
2031 -10.120239056217912 2.5764843419258394 -1.9961325998140194
2435 7.14046917167742 7.900472904008948 -3.5956574509408328
2534 -0.9648903996431377 -5.130330867507276 -2.5908036828298955
3017 -7.540603839043207 -0.5948982114815461 -6.0007385246065645
2336 -4.828880335782566 3.011840940367901 2.0431565885826046
2327 0.020310539617586866 2.637805372463638 0.12163872129458957
2422 -6.026601521781767 -13.853877467455227 -5.054934986946999
2450 0.5570986608956611 0.6510132882293433 -1.700237804096703
2150 -9.161884497254611 6.341007248345886 3.8839274248021987
2342 -4.633839087914333 -5.850170356105577 1.0211796417845596
2610 0.09300152394947009 3.4185504601173586 8.058175259772861
2059 0.7957076172677998 3.5901659173296023 -3.4961236872983035
2461 -2.0432563983467604 2.3371483915437965 2.040666813501947
2577 3.4371865025809516 -4.948943751159701 10.405545937771528
2224 -3.054267291561098 -2.9638293545925753 11.958025985303681
2703 6.118420827330782 -3.830976728207052 -7.061072588542261
2712 -4.841192620516618 -0.1977197799348768 -2.3307186845682177
2241 -10.890048356439468 -2.2566518640124964 -9.584049446869852
2277 -7.878978107848072 -6.79595749945796 -9.478405421384014
2728 -2.1646409869771954 -2.4804601439430285 -0.49029679261789066
2035 -0.7450459393734636 -7.761033345704414 -1.725316386012282
2702 2.9546862107442684 1.6264044817139824 -1.6657797497764133
2240 0.49936838588911076 -5.674391447405753 -7.60718490400491
2652 1.477783123270515 2.9202636665677844 9.23609960949148
2369 -1.6593580263843408 0.19886567764700253 0.4895748878214633
2487 -9.426299356944973 8.287817745807994 -6.789694532445882
2370 2.7084233894555054 -2.535613539528445 3.704307405550486
2343 1.9841519227034243 9.55390334471945 -3.6843665882258105
2490 -6.554625171342042 -5.523110416092195 8.591106841612586
2661 14.454664886205082 5.027795948917001 3.8472479837027596
2348 7.382671122082807 1.5387553191542003 6.184121812382032
2234 -1.4678439239279426 1.8055616222696418 -17.253940671618363
2482 -0.3403622865756239 1.1467724437766913 -0.20244406446209084
2494 -0.023261977345459192 -0.7976524502805846 2.778631563260398
2317 3.075716583702484 4.211134898295261 8.257430861928441
2236 5.080508892839414 -1.7593541712174432 2.4769297612576344
2451 -0.3865117275217852 -3.986166705389295 -11.205107233349997
2238 -2.667531534306784 -6.415927599179989 3.7277491916810663
2181 -2.943029920066312 0.6200107338714025 9.03028218406522
2483 0.3581153076148529 -4.454250328951851 4.388774871153404
2436 2.7586013363595963 5.344160047193757 0.3308159134187921
2459 1.4738927340433055 0.4111883390967958 -2.7742086573588507
2556 -8.077020619618839 6.688503203949109 2.1566746366742913
2345 -1.0693127657001746 -1.1885122827571075 13.113955864239458
2609 2.2363533040770243 -8.851486523860736 -3.608440224071422
2079 -3.7770617540613047 0.8682343868903111 -0.9711973191748915
2418 1.2360479856233013 3.8802987500123196 -0.027057011193621826
2367 -0.3399389722133857 -7.526899544389173 3.8536971723300177
2324 3.4958827615137436 -6.918650390324192 3.294486457587322
2945 -2.565991228923104 4.766756704124032 -0.8992521399565834
2520 -2.323657449807602 -2.703396552224401 -8.840575733101952
2893 1.77128362173059 1.4999789258135439 9.02743702075373
2205 2.4645483994038093 1.1677816786811417 -5.514041496839163
2172 -6.200002605466144 -7.060280256652658 -4.963254927526789
2318 -3.211959378357671 3.793981905942038 -3.5816520133943865
2334 1.0316563842801802 5.497048519483924 -2.1672674798568043
2639 -7.215830872810365 -1.463683323192087 -6.1572347692371965
2365 11.713647849331965 -5.606211046957829 1.7806682359081647
2429 -6.68893213684541 -2.022421100052918 -0.8747966986479698
2296 -1.8799785452953546 4.795581839247947 7.76031235138972
2178 -14.347823024569685 -4.962727307816258 -2.0638356235952995
2368 1.1971384533307454 1.229177039368199 0.048269039741860885
2602 0.02175515056289201 15.132170036274678 0.08895832731432805
2322 3.2915062238811763 -1.2817100522009275 0.17013890391575073
2765 5.217550287789473 -1.4022314445651918 -0.6989983983967211
2279 3.0270163433471975 7.731272976752447 -2.3426263029864027
2394 5.243775683239069 0.029450172314151757 2.060744159674164
2251 5.12382875298813 -0.004226468210049914 0.2981297800379809
2673 -2.0930675951489177 -0.9224791696953338 -6.965848934590562
2253 1.6217726015478122 3.7572290106568635 3.308931851675141
2476 -0.35132623743930735 -7.335536397144619 -9.283837047162248
2037 3.609170134858583 2.7197835356381295 -5.960207335139991
2519 10.66195565195699 -7.738841248789901 0.7110955294831681
2246 1.600420079232839 0.2562886635832625 -4.463023420133331
2338 -1.430508190423484 0.43216531482396486 5.626515537108211
2381 0.4130453823408377 -1.2978944762348616 9.659323239560216
2213 -3.3617606383790513 7.722871039354228 1.3326932465280037
2363 -2.769135781020691 -3.477556811152006 -10.317165454000751
2410 3.3403997805611643 11.656134395605365 6.213584336243941
2463 9.216227212113722 -4.282422541309365 -6.648928164847781
2198 1.7400478316492614 -9.5641055055928 5.256010575129178
2802 2.696857415198774 7.8505874128852104 -4.569263130164243
2799 -9.392006838547148 1.4208047539268334 5.19761446209057
2191 1.3109664949277877 -7.982139181106859 -5.946790419058961
2278 0.7398237994802522 0.3976820788909005 -1.4214916932671169
2263 0.15851131896812642 0.32724196902311875 -0.8297901948703499
2088 -1.286593877015454 -13.228716279323468 3.2300703993946525
2193 3.239674357713258 2.783672303025291 10.400047496368575
2710 -4.555666522291784 -3.6474764895390486 12.119869474749105
2248 -4.890339809039152 0.7384374109900265 -13.172090396503185
2708 -0.12979566608134646 2.104784513406204 -4.152863658505224
2547 0.7353862116025284 -4.417924392049992 -6.0283682756860095
2474 3.827356528691939 2.5604521688915343 17.315203092957503
2498 6.464306089069929 0.1077706866492581 -6.659165075413645
2359 8.78545133991539 2.0217718363356267 0.5823843871117337
2504 -1.6453909515082188 6.839288109283127 -2.6361786274297287
2254 -11.978464389412375 -2.3615766763730512 -4.431195873980604
2810 -4.849226262750172 14.36315834572518 2.1916370389155793
2646 2.09426593598439 -1.2202737300037385 4.5775124361611645
2485 1.9728262526608809 10.128788764340376 0.03892409364764671
2653 -4.6318821442360525 -0.6130473521872157 5.337136826704381
2531 -1.0923239317169748 -6.2681373787523045 2.220587216079065
2549 1.934800556231008 5.758284339387764 1.353673736931063
2169 2.315420171337932 4.418702741746115 6.758355929578593
2674 1.5264509691143946 -7.039568997685518 5.326339938677756
2532 -5.627598549491424 -3.660603275800252 4.524426266603964
2501 -3.8838005674056313 -1.9545691643158938 -0.541260687400803
2266 7.028621321591742 2.7607582521543774 -0.02690105850317381
2481 -9.869157504849445 -5.265900944843261 4.511508282740358
3089 1.3628580952441163 -4.029760622755635 2.5799469213625006
2568 1.222053506509246 -4.206994170152952 3.6310312069066866
2627 13.260117109953775 -1.8950639984248616 3.744228609056003
2304 -1.9779835274927402 -5.078825873056883 0.15602918031179075
2499 0.1276864524941035 0.23502670259025094 1.5384611752391135
2668 0.6899919573052664 4.465137872101614 -0.11502811475447237
2373 3.442284859462707 1.941640697566051 -3.7738216506769935
2449 1.6032318417086284 3.5687403159912474 -1.67910081769757
2670 3.189025374053948 -5.016839338450224 1.544745916357643
2533 1.8534908189061925 -5.891741704498821 4.522260288010892
2554 8.304568080147044 -3.292087809153397 -5.923187317170877
2550 -5.209949162355019 6.8760818536562605 -7.129493610719286
2203 -11.421048630454441 -10.880123659003923 2.470924762715869
2580 5.462677390527268 6.2811738568581985 -4.021085905201569
2835 -6.352070871231275 -16.928542093091473 0.7037424592700406
2571 -4.112363599643827 7.597132688029604 11.534045293869452
2282 0.03574774228303332 1.0647975812012127 -0.25714729344362897
2581 -0.683911042343018 -8.25270659796424 2.281920817711943
2624 9.461541808675733 15.537098928738791 -10.274753516871295
2082 9.219291091966696 -0.717021715121339 1.5972105526626406
2292 -2.6957355202767057 -5.193103710505858 0.2430436678880037
2586 0.9447609152161767 1.0309769790545409 2.87916506231279
2411 -3.9935518950471334 3.269480716806837 -5.040276009682045
2561 2.2659681444116138 -3.1222020988596677 0.13521835066441715
2558 0.7100580323726964 8.598122025355366 0.5553080557720553
2444 2.175314280758373 -1.6960953576988311 0.9918749703058132
2575 0.2897368526947458 7.8388138676964525 -10.900105271719184
2690 7.55873178438383 6.959612453823956 2.741395961947199
2408 -3.8310581123978205 -1.9132404224323984 7.180616911096671
2665 0.5672766055368941 7.704685180601298 -0.5583373528662419
2427 -3.671178324019817 2.148730267886224 6.086845948554906
2701 -1.4929397377917573 2.6565781455696595 -2.9457923054434825
2415 -0.5213114849718289 0.5138376123030985 -3.4780996671262563
2722 4.562527079484218 -8.40111781429875 6.168572390326934
2847 -1.311407272883148 -1.2620856933363216 -1.3798793612888534
2734 2.4784368924982236 -1.569886822847603 -9.994410397951249
2880 1.247446387290566 -10.947748916722263 -5.529810320032252
2462 11.93106852971979 3.011122834377974 1.991325507039136
2314 1.8082112715885865 9.225587006622868 0.07885417571367628
2866 -1.535689837221581 -8.154980856163423 -0.7418361618491673
2706 -12.2136291520701 2.8295330236552143 -5.963962836872491
2628 6.354733383559645 5.965001976993984 -8.600871821113591
2372 -7.221510503159953 -2.7163161901435777 -5.164062568122652
2505 -3.767842049398718 3.299746261634521 -11.446392865783986
2553 -5.207816885666857 5.0116424694476835 -1.603511478360908
2570 2.5716350138409907 2.444994711616364 -5.0699773031667155
2237 2.7396645206864934 1.0831817811263444 -5.065447127319892
3022 -2.463656336370636 12.46613348943219 -3.819107078885264
2660 8.383597974078354 1.9698842751126524 4.540593277691122
2582 -0.5489298319053932 -2.2354252134637536 -6.848218404335781
2335 -1.431698181965535 5.428871946394079 -2.0396661836177796
2470 6.943240859739381 -0.058954121154199096 3.8264923706591567
2472 -4.396510886979934 4.438844949521833 -10.329615526734562
2607 -1.4272923075474149 1.9602602490778118 4.801456138576174
2750 -4.439169427554736 -6.538878928854689 4.817545895099953
2873 -1.9913274334712951 -0.5496158519536943 -0.1207155906854985
2030 2.3358220759143213 5.909941759097718 9.76984925300693
2726 -6.2792758751812485 4.4600379592899575 -1.2928545024196465
2993 5.631334936863408 2.286434028807328 1.867768247284597
2456 1.2780166162146411 3.5277781566722832 -6.226308663755592
2344 5.188381508064701 4.7214352289770165 -8.420511671098565
2615 -3.0945319477885977 2.257390564344466 0.9378310638249867
2464 5.357403924091761 -2.0199175335248998 4.9469874944906325
3023 -2.106945842015679 2.6948234901041035 -0.3512069879718381
2927 -4.504230390335993 2.9220607111812607 -7.227620820447212
2733 3.1324889961275084 -0.10337104752671501 4.785775645806578
2371 -2.5639919028732834 -8.55580659928478 0.052760324138680696
2637 7.549318104870889 -2.2545669770878956 1.1747418025488898
2479 2.9332516638572064 -3.7016279685785913 -6.064127484132218
2431 -10.69604971510963 5.94419523785897 0.6691669767740628
3003 1.513133226499334 6.3474987060641315 -16.418428826116596
2863 -1.017598139319401 1.6018864591145712 3.7899347082072614
2496 -6.364986916879447 -9.42285213674494 -6.8957894668392115
2613 -2.026672501703671 -1.075388694708445 -1.9200179623854234
2727 -2.1963290815448184 5.4075915050201075 4.538115890647058
2605 -2.3512138594438707 -3.456348618539139 -8.364174633419248
2815 -4.0535559392477705 2.236345215596785 -4.8803598356976075
2320 -3.648165843579127 -7.115820945476977 -1.6465988269024723
2341 4.878055354581301 4.904148578569823 1.094133200659751
2509 -7.994531674724283 10.714329493971608 3.009001255641395
2321 3.013017053979847 3.8120231745648723 -1.6527805536285074
2468 -3.4843736291171528 -3.7249981639871064 -4.454670222203524
2452 2.6147508417235463 2.6272746687494473 7.778036650972292
2399 -4.283882714568231 6.501481304046914 -4.124901965798384
2290 2.996473164819563 6.443946714292266 -0.891704964075818
2428 5.986793989142069 3.149662982915279 -1.608855692741598
2458 3.15497677909986 1.1286386735563538 2.9900944583716065
2572 -4.502776641526515 -1.9097507075398938 -0.050907496464658336
2738 6.854852837870253 3.8960647604040024 2.5032148159843226
2718 -4.643272066374925 -6.2600849813326915 1.6197316012103937
2973 2.400357589117392 -3.542303538616161 -7.717860483003521
2594 5.513915588824188 3.2486830072104493 -7.9318775791861915
2376 0.4676463062277067 3.766959591830798 3.8336118633914817
2484 -1.785624872053618 -4.262339535823121 -4.03361223201334
3004 3.0608524095689744 2.5369456589056747 7.7313240102342835
2735 -4.696367596503884 1.94432732000413 1.348985899078762
2621 2.0996485362724795 -0.17890224379154795 -1.7765478849564131
2361 2.7233412111127153 9.098829043474437 6.246845583440718
2779 6.786761434039781 2.320275579221848 -3.099740618371432
2511 4.8027776812772265 3.325284174325288 -4.559924179629691
2188 7.089759666104432 -6.404344266258368 8.515548887339044
2471 4.788466498034998 10.314463805237258 0.2698509896877141
2228 -2.126379956590023 -2.838284162993331 -7.071994557394617
2944 11.263237353929682 3.147174966696326 -4.491251368196608
2596 1.8045459471483034 -6.029372858893544 -0.5121419830046727
2419 2.0784031348911944 -10.71131076423134 2.773095704381123
2355 6.100009612121865 -2.495924405857303 -2.8747245691015726
2480 1.6693008164649843 1.6223325442025827 4.143645462085314
2510 -2.6506296461054593 0.5687464402511251 -1.8749625151205627
2204 -2.0794014350981214 2.3920762643192366 -0.3040380456627332
2683 3.3944446816383804 -19.67102613969328 -0.20939274614820222
2776 9.127795671930064 1.832381465731565 -9.682344711473336
2626 -2.2118400110866103 -0.1457084561630871 -9.526319939554403
2331 1.701376970459184 2.255272561063956 0.9795955571492226
2749 3.060355246697665 -3.383896988613754 9.992645121690504
2176 4.1917744219895745 -6.887778497326595 0.6548073302395583
2723 -1.6211790666702388 2.5279683622168263 -1.0507108761159374
2060 6.314925594440247 -5.612102985790774 4.7547513635933
2622 1.3840599084982035 8.872434334490073 0.2689604075289926
2631 -0.8903636789673751 -0.27663068570686544 4.902341984901931
2502 -11.68361343382738 -1.7524696687874803 -2.142602551741642
2488 1.7821729373806219 3.91439243918902 -2.762676649687729
2543 5.7848172605389765 9.449263285887016 6.090907092087947
2691 2.4152436915012583 -4.274842166116788 9.396744614310824
2879 3.873243023160744 0.20880591743115368 3.11015312071595
2658 -1.6467235876237725 0.7834696478238574 7.562308376969199
2936 -9.203530542052775 -4.241698359939382 -0.548061248028215
2424 -4.773756148703242 -8.363953744601256 13.402039321648063
2346 -9.657380758647966 -0.5296263918680023 -3.574506323186372
2675 0.5915774044744793 8.91600505999361 2.8824266153234537
2527 -13.681738740628445 0.43272221254890697 -4.87900170917782
2548 -0.10599998298776309 10.682947592482657 3.434962095314474
2432 -2.0344669565799434 -10.82547613809307 -0.41317417286499236
2814 3.438954496880101 3.7653918412549294 -1.8442799307675655
2807 -2.119399294770198 0.5709617010215837 -6.014224687227575
2493 -1.7013911651171447 -3.8106681655651795 -8.89090250562867
2816 4.546792949683656 -3.360277605433744 2.7318720111637727
2834 -9.752459651347465 -7.493881961723515 -2.2064225062336114
2948 3.5959187456397217 3.4775575902406572 1.0118325660887808
2826 1.516574496035292 -6.01224933660108 -1.5382567015415785
2276 -14.62303108129187 -1.6098508405105474 4.3982595992203
2612 -3.251155795459057 -1.4033909452333413 1.3261899271114221
2685 -11.085202714403664 4.757067577277209 -1.3458166474624642
2585 5.339662160453842 4.963643620865611 4.3657801895068316
2705 -7.606683613878545 -11.655102393462542 3.985203842152649
2725 0.8003478175237801 7.45598424819449 2.777046930688019
2699 -0.543364871757532 3.743879823591112 -8.673305111767853
2514 2.4726847383760586 3.4013171242481746 0.43248667518230877
2200 -1.5956883274078437 7.842370420600757 2.171491735659884
2856 5.406745674129019 11.416135042235432 -1.0861453260718452
2565 3.8668934066665477 -8.097681741566204 -6.132938985221073
2516 2.139300627705102 -4.08171201087462 1.9532190566912386
2469 3.1169033150144774 4.232297489873692 8.057443849920514
2682 5.2588496379314345 -2.0016857573760576 -1.8564814500474731
2426 -0.7835293926849296 -4.850713452636427 3.3080519801993318
2573 4.542869264751601 0.6965392436628591 -0.030621476466032495
2412 -3.344874816803798 -9.030793287858495 -3.9714780518757067
2552 1.288728099096753 7.17809646242634 0.8967607063289813
2648 13.03073142848161 4.369209728796481 0.15642095858675495
2295 2.585290133099049 2.488539153041667 -2.861780393541537
2791 -8.247376269076156 0.9041536190788535 -6.899518497314575
2681 -4.441392102598832 5.691863504220447 -11.363284239380075
2852 8.29005640949512 -3.19169305915663 8.944728650082666
2384 7.474087777761889 -0.8752648641633047 1.0924334590283618
2666 -2.8617527818279718 -2.0084476054052667 5.84779620064375
2943 1.7879387668362288 3.772644315191427 -2.320495289317517
2851 -7.415232009277324 -4.1454915807526245 -3.0676898957343113
2769 5.692194466867899 -4.159868104068117 9.549905617724583
2633 0.06792520881205573 2.5095210170938143 5.966844652551973
2465 -6.147339344011451 -8.558817254091952 -0.6941139897815172
2564 -0.3276916681699513 -1.3223427131472372 -0.6174740605043655
2590 3.9124366031229174 7.236332909516127 3.8641031486403157
2576 1.728616660450108 10.344433234462437 3.6090358510654257
2583 -2.7380551090351526 -0.7494331365225946 2.788728522018297
2538 7.200481856382184 -0.7925980442246705 -7.269037773912062
2759 -2.119647876036196 -2.5093308190961934 -4.963564070406042
2698 -2.7768567774463935 6.4804474633589 -4.188768484479563
2560 -14.525052997231052 4.5125460986603745 -4.631122637125762
2589 -10.355976468992385 -0.49728276812921296 -2.949079511609825
2541 -2.2810536661888854 5.979753587149131 -2.380145075733977
2970 0.6513801709742368 3.897141931276311 -16.856259771760794
3010 1.1760707770565468 2.864752246853375 8.026225991065386
3013 8.896568279379295 6.347796536884547 2.5426850620637134
2587 -8.278173320503498 1.949035297601668 -0.7553203069501563
2861 -6.986568866244761 1.5829306115667667 -1.9152509732258018
2395 -0.7082261165181476 1.8893057222512932 0.5491138342402386
2833 -3.4544451746373133 3.506428981592662 -14.183135049803294
2593 -8.904985818466516 -10.7581061439915 3.518226283127498
2686 8.439343719109116 3.0099216339716235 -3.506474324831855
2669 -1.6694915258460494 4.3824575219780275 8.54907328602818
2839 4.500451568644041 8.61987939416436 -5.996492385347431
2984 -2.229573557370927 5.115807267745156 2.8329287940162615
2739 -5.581784455675009 -2.6182940240814045 10.396756852427083
2597 -7.458335284668259 4.619283180059742 2.3585043975802638
2676 3.637455398972453 3.243155512112747 1.0188714549513693
2899 9.38741478119188 4.049137559324798 1.8396041372779188
2695 -6.836527092787107 7.167152329740623 -1.1936113853835566
3012 -2.7176390486787896 -0.5008557639535787 3.8365350804334284
2704 -5.545554994430205 6.497302293242864 -9.966703774380875
2515 -1.908549315783034 -1.0094185875248782 -2.0529412975273527
2742 -7.524755833745534 -0.5330537981501994 0.044860645680588965
2758 12.228177175073256 -6.8360634466197086 -10.009275845328077
2167 -3.26632434255812 2.86772011853234 -3.352767783285228
2656 -6.429548409619836 7.273496601430732 -1.2898596446694364
2544 -6.189729979700886 -3.563116741179689 1.8273527181079523
3024 6.126836324219001 -1.1094758402069362 -7.372044363712618
2781 -2.508283320395481 9.944092452491923 -1.7640285560508728
2780 4.117612194465896 -9.638618519800715 2.497968347142698
2430 2.647175048239536 4.298881109039161 2.4935395161314973
2357 -4.131144995476854 -0.06271334011779489 1.6896728209320366
2491 2.9962240939816507 -2.0224392478350928 1.8464423850552887
3005 1.2243880718558182 2.231287674090487 -11.195404974729348
2713 7.0626589461256515 4.824549923606075 -0.5937106448307978
2985 1.8904461480113324 0.6375465896699609 1.3402682520174822
2982 16.470291976690113 -1.106058866680738 -6.16035417343845
2745 2.9463431778252476 -3.075828883061086 18.586058220625677
2536 2.0339637244664153 -2.322263596382161 2.30327639235212
2867 7.0321473469285625 -5.510493462004908 1.6710188942513058
2990 -5.455255138682153 -5.205052789755677 -6.7007630178051745
2598 -9.206409764357428 1.63893755880907 8.167595707308134
2898 -5.59253259382498 7.440110820726703 9.650161303839425
3037 -4.08164632909087 -7.0624261481787975 -3.0559018810524554
2875 -8.587945928280819 0.4977387313436812 -0.410326131221158
2846 4.313838634667011 13.000525303071335 0.01852181882012695
2697 11.4308618937035 1.7512761110300286 2.3037321827961104
2874 7.211903032971694 -3.9168168819460685 4.752239660359888
3253 -11.967405682412565 -2.9996212587312616 0.8500948245421004
2632 4.639057396587963 -3.3137068639476053 -2.1115831893520842
2877 1.9973812187686995 -5.511953425295039 9.705632370562961
2614 -1.243877322080345 -5.721254420562422 -0.543113516471091
2606 5.096733019358024 -3.3028580595835884 1.147269822885647
2801 4.698549274030936 -4.320381067101035 8.628494839569303
2500 -0.5052665538167795 4.582188883543291 0.7932081810659871
2644 1.0481135035259077 7.445189749756551 -0.6543083989341902
2636 4.487197103221797 -2.3692312451697726 6.867021167817913
2777 -0.9133017723876486 8.194404264096852 -9.821967013318247
2618 12.426922661848597 2.2122352745723983 12.344641085148176
2885 -3.833836755110719 -1.4041841246997098 -2.097666443321933
2919 8.9824875351495 -7.615217768448719 10.142527975991246
2477 -1.8951648227660756 9.236125521784608 3.850141646645717
2667 -0.863436694048407 -6.894490917566906 -1.8338558146841974
2760 -12.967792475060977 -4.0700690746523085 1.0146440328983375
2340 -4.317956457437499 -3.3687380247351264 -2.6708949369429758
3073 1.4533687512997462 9.985297017703582 1.744153605389901
2647 3.9307722881684475 -11.297015795982153 -2.648530790965153
2707 5.561807942607412 2.3261256809033846 -0.2545435432454059
2475 5.414116206341601 -8.584943110136376 3.1711178404951483
2741 -1.24549526460112 -3.1483221630890053 -1.0694812202590303
2634 4.645186973388643 -3.821888583787671 7.8667299726587325
2495 -4.873982630879302 7.793246438259572 4.692433692927975
2783 5.539337576988257 5.326909535046584 17.330405107607397
2360 -1.1015484918294065 7.788748885307307 -5.0108373912781214
2773 8.757728391356874 -2.751976733399485 0.6773973027858938
2969 -6.268954698613504 -10.323523542418389 11.269798560807496
2503 0.6958584777717863 -2.477789032403648 3.284915354025924
2603 7.866726081927515 -11.331718551281075 4.986224913630786
2766 -0.62215737644919 -9.101349713806924 -3.425496291433595
2672 7.216860253277727 -5.492326439573025 3.1086106468744252
3090 -5.151366808851329 5.404126096898923 5.609453613773461
2574 2.070146405810678 2.82850120655443 1.124956778389496
2391 -1.5302654485321836 2.068005950730741 1.9511364178731965
2467 2.2700744169137352 -0.670019355282492 13.08245612761467
2966 -2.7558801670410764 2.7016079663952914 3.781117080463996
2756 -3.093660345073128 -0.8502958683457765 6.239928615010256
2680 -5.077618452887721 5.810474585041276 7.888956253783511
2497 -0.34414800278894053 2.1346955728075843 4.666769224073419
2604 -2.0032792951784932 7.133310241469695 3.9187655072181067
2724 0.3800007192163078 3.5531316646594737 10.996643928642465
2792 -8.320590028143595 -2.7313055671334343 -0.7224183538064256
2813 -2.9556182590088005 -0.8951710281403071 6.225498697246777
2854 -3.779115162767538 -2.5478482455879923 4.114926637676982
2926 2.929895685834083 7.2148295014782615 4.851124942622075
2786 -1.2373709442112906 7.864196587976149 -2.106759972587905
2836 -17.25256440535046 -4.235101121881478 -0.1711711562958242
2720 0.2889493717962553 -2.473947166131028 2.1149766217805155
2453 -9.32139812351683 6.334975116619635 7.872176339415533
2559 -7.812466960172166 1.724844454462563 -4.369056912352761
2518 2.864199779065195 5.089582952013944 0.38308664325708225
2793 -5.295563202870488 11.125457794074643 -7.788249858415447
2684 -10.288310394529216 4.828266885462797 1.836153703045722
2797 3.4405378331077765 0.9906009671732915 7.72774607844612
2689 6.193657481573631 11.55225565082509 -0.8813017814362694
2896 5.151495377490372 4.655373034637609 3.9968319476524994
2922 3.413316132280508 -2.1652828325202425 2.4584840805209507
3067 10.863245662730588 -0.7349868628579456 5.179348261268036
2914 -2.4894085657362894 5.625382145558174 6.321890171865442
2986 -5.4518209893485015 4.215144013671398 -5.340753032866032
3011 -0.036127175705300996 -7.406375221294084 -7.671691434228484
2906 -5.95325940035492 2.1908101388561403 0.7804393757149434
2928 -4.38867051293795 4.488088669717338 -0.17996643045766453
3076 -2.331209923447384 -8.948605531794714 7.2152132852244835
2930 3.587954636109102 -2.167192368193341 -3.6351070792755245
2711 -5.515042391584469 -1.2453233885150015 10.485169573518995
2649 -5.750662530092596 1.657562002167401 1.745665259858406
2522 -0.8082697973304959 -8.902876095689011 -1.5293508734786192
2855 3.0622879784779817 10.040032313143344 -2.3235380000184955
3285 -3.468618248441386 -8.158750310034746 3.3268215369146183
3083 5.092532066713071 -6.436009953861998 -0.8309738885896009
3007 -0.43695076490018553 10.124034665672058 -2.7237905762923886
2643 3.615391239400558 5.981124260457862 -3.3054727494293736
2641 3.2103645557078355 1.3776633920134138 3.8497643838824676
2732 -7.531427890472115 2.471579625798271 1.0391958142550184
2563 2.118443199360112 2.5029319658216123 -0.3607120773729099
2417 1.3517314774121276 5.83309980095065 5.506094055664372
2818 0.3354673913299517 -13.345353785281326 -5.271303487650712
2983 -0.26300943083831657 -2.7280311600292673 -4.739836080614676
2650 -5.745721792699498 2.622340608520891 -8.052091253491621
2625 3.6418560991782414 5.767800095241814 -4.857892017930012
2790 12.793764493523309 -4.812698289596929 10.149121201743746
2981 -14.988341456543749 -12.229563768363155 3.763729191356925
2657 -3.505251452222715 -0.9996492550461453 -4.088188357303964
3000 -6.570764520937412 -3.1762205455672405 -2.029799580717237
2537 -8.778009358039165 9.236787211251364 0.5478437784032795
2827 -0.5277646565557114 -2.028678980607891 -0.510636380851466
2655 0.706134324697204 -1.283697173246047 -0.03817596854076787
2960 4.3479250669690055 0.8571478262081277 0.35128099907132376
2692 -8.197867299039597 -5.892415298750148 13.53028801840751
2595 -1.6766851161130778 -2.7379536613919604 0.9201125063279928
2486 -3.387601618271809 3.5323933402412693 -4.295872806963917
2535 -0.6353820373710127 5.335585100606827 -1.676555429441797
2555 4.555111608660252 4.820580033176908 3.416264532417286
2599 2.5401730394737965 1.0215404451529635 -6.915936061320583
2679 -2.885384372834208 -2.1954462947944093 7.152639249795297
3014 -6.381276351616076 3.2369081609018453 -3.0642769799967122
2731 14.896489464793303 -4.6435413322544745 -3.2032532777337734
2998 5.800353657611741 6.343229570660865 -0.2111720046999173
2975 -5.837593934605954 8.292886574923315 0.1562211086132548
2601 1.4661542697555952 9.43970471364981 0.743014316761697
2849 5.85489603819089 -5.215462096852418 4.336820029103456
2757 2.172485094947579 -5.822182420584739 -9.888742601655908
2946 0.31420472690617185 -2.8909267502149127 -5.95249093398025
2716 13.240419805948255 -5.066026351204967 0.20950951206618962
2694 -4.861459378315428 11.039683754975783 1.3877897693423167
2805 -5.408204878267595 3.9821519834959096 -4.238654603628012
3270 0.31232409252941856 -9.53906136295444 -2.3862569941960303
2829 -2.23895260657484 4.653315522064581 -4.291858198594888
2717 -1.1964637017275501 1.4927482977713264 3.005177465339905
2831 2.7702160331416423 2.9143761732704445 -6.340499938683991
2579 -4.006025513119068 -0.6492488581024052 1.0279209244723169
2638 -4.300319610185879 -5.355762529993051 7.120799706303801
2889 3.3122427578566147 1.5101595878563978 0.4611704133545281
2719 -1.288935355281478 -1.20934312145121 -2.1893301513796635
3133 1.2098318912907406 2.527881398242372 -1.4349549469905367
2578 5.334225934662442 1.2287461836459297 2.049673840548458
2671 -2.732485415906523 6.441336164023835 -3.0946265442410037
2800 -2.1813940429110983 8.040951780780635 0.6483570827832354
2540 -11.061923146095305 -0.17900968905006043 0.703696483011266
2804 -2.324989208248036 10.129623691963126 4.080569702803135
2916 7.786981922493139 -2.3364491240668492 -1.656122720860446
3070 -6.721144348404383 -1.3116578091257893 -7.228964003387989
3020 0.2481614126996356 -1.7542513442935928 -3.7193979070220857
2740 -2.807169000279819 1.7406155363222062 -11.087989715757761
2751 0.15403738793907787 0.16972110592195544 7.731499904548548
2512 -3.426970817154272 3.47452691247877 -4.309998793537216
3026 3.5324236121283623 -7.515306655251351 -1.0961871753119823
2859 1.0743781631809477 -5.048658509273171 3.797799417108596
2860 -0.5010733673856089 -13.449717518047693 -9.744959535945718
2887 -1.5617298995614397 1.010247213506511 1.5770755524249735
2761 5.720300660063002 -0.18844935368776497 -1.5504640083131447
2858 -0.9392520914037727 -7.105913262131486 4.767444322934658
3124 -1.0463493683116483 2.6961440973043604 -1.0985910287995877
2696 -5.425862208774391 10.521720084877686 -2.673318829608155
2620 -8.609410931320907 7.780648756479145 -15.87842783013774
2862 5.808071715719608 -0.8459534657676564 -3.440879480238905
2747 9.086633475837115 -4.2577146344730545 -1.185611108572439
3042 1.019384525964211 -5.953095334489754 1.7888321154605056
3064 2.0630716182749262 -8.78865534206782 0.333657525472977
2754 4.805569299988675 1.292687810389257 0.17282057311922866
2617 2.7498475866643104 5.865117503906247 10.812511644572306
3072 -3.4533230777171804 6.2085387652660495 -0.9206279891967305
2971 -8.911794840032185 8.300782521754936 -0.003606943851373965
2925 -11.086657737196065 5.697863153453571 -6.1078208899000686
2789 -9.639032701897767 -2.9806751891765195 4.386015150128956
2956 6.382349557517002 9.571529110459695 -2.2911698906186353
2700 2.493711000893272 -2.6189771839782816 -1.9329247918568802
2521 -5.021160059142817 -15.881049289267684 6.164646440830979
2788 5.462181640652178 3.818831106113877 11.789979181225535
2584 -2.311210404165238 -3.389181461968709 9.855662522686305
3018 -8.09907752750921 -1.5013069028899508 5.565254320997616
2623 6.656235964596204 0.6628879532416336 4.2101209291992685
2840 -3.5200238941972537 1.255884563263326 -2.341024331355524
2915 -4.442143218795874 -1.1879674100033766 5.340538185554554
2744 3.9997145518389208 1.3590061235530748 2.4551282236742846
2619 4.3926333777124995 -3.222732778371609 -7.940238843086686
3041 -7.167184191062576 -2.1020603015108423 -6.027658913920887
2629 -1.2914137640523358 14.102879461033917 1.3188493235984635
2523 -9.85238840803476 -0.7272945964858575 0.6734485771983992
2659 -3.5690452830638946 -0.567050799709093 -5.858891713108938
2663 -6.604101702544579 2.1822195471684416 8.68580351218589
3192 -4.041751945492999 -0.4182587114812925 8.742205920023704
2921 5.365310705300427 5.548345764064588 -14.935335738259807
2881 3.3765518237819623 -6.969439683387026 6.921219596311805
2918 -5.000468453995164 -10.60263409352696 -5.934968034890356
2920 -0.582366822995908 -3.719615707471351 1.9553276583501837
2809 10.025185709548447 -0.8641317706220181 1.7755595937321234
2664 2.970273591894134 5.087595755187336 4.378223174210182
2782 6.51092536578899 1.038850136533027 0.624484935622184
2932 -6.214791246250336 9.96273771714986 0.6924424480911788
2600 4.038964468338229 5.867049243418933 5.165935162012085
2891 6.531568780676332 -11.617149638340658 1.3524146381605715
2645 -1.5478278165574244 1.6029468041707382 7.800679915056152
2753 2.4610884813538347 3.1805632963795176 -2.865827274847163
3182 -2.1848697799720265 -4.117769180585918 5.998877346138465
3031 -12.145223854707023 7.359662043462709 -4.235995883261868
2869 2.170074168893143 -8.79390414511655 5.476623821993353
3093 0.9789113209245979 -0.20059479575109124 0.5347775039841188
2635 3.09716572589103 0.6931549128054973 -1.1116268546352548
2392 -2.7841641798829664 -3.7547912198192983 -4.6480560877086585
2953 9.73246361073509 8.066358368152578 -0.6090695205552067
2775 7.201541140500456 -4.5758333850495765 6.367077803975383
3210 2.8061336296374484 7.273166979551102 -1.6462603998925007
2908 3.0188791163554227 0.6537712669870929 9.297817639390104
3105 -7.566484118708864 0.1954938000651272 11.08274073429106
2808 -1.2901146776066754 8.686860249589786 4.943582928738077
2878 -4.276590958837539 -2.403995021350838 3.2807243440000864
3075 0.5632848950549455 -4.839010855102153 -4.102304697053162
2949 9.720686623901122 1.418020789453709 11.139418656726166
3240 -4.540400102581691 5.680253768755749 -13.888679069888001
2819 0.3456951590350789 -0.13134839816427868 -7.171156490621532
2980 -1.7354397382862474 4.177499913771053 -13.813036311845993
3095 2.3870429659469954 -3.0893013788490467 2.104454913084864
3147 -2.091476986750031 -3.988867040412802 -3.3969567730236623
2492 -5.541109867650576 -3.7071870119811288 2.6288265651889535
3122 -3.2869829535688 0.419758245854693 1.695408915548005
3129 -4.68127333102 -4.901729333372317 -6.174071247712173
2608 -9.516353490393643 0.8268762625120817 10.858271707383329
2794 3.5478127420786287 -6.84789901286861 -5.194061927851381
2838 1.6042741115957813 6.889619341518733 8.036117410110986
2823 -3.201220492361562 -1.0231524457737557 0.051208491971876255
2910 -3.9703760487132547 -5.43534887139786 1.7876678432168736
2795 6.078770859318802 3.1451513599993692 -2.1161120963479134
2853 13.724733913092953 1.5937797086589358 3.4837233046439713
2996 -6.709812477492883 4.114953567766354 7.580154133591477
2822 0.7905467604109109 6.159795529161865 -3.5928601232872563
2952 0.01107173405261588 0.02009180991865083 -6.357802564475968
2974 6.833673724673385 2.022327403737309 -0.6923893613585266
2903 1.2043195649890017 -0.6649002787455741 -4.545920165744554
2991 -2.608761914264467 -2.4572472396123803 -2.555967781012754
3145 -6.567071654255301 -1.6780248004758735 -7.159675100560484
2693 -1.6529920548503965 -13.61836076605988 -2.2153049826084223
3266 0.6624561204033561 -0.7551467963358554 -7.191254584486179
2806 -2.353587666855922 -0.03109667385381612 7.311172052801785
2830 -7.213360866432021 4.7851184837008045 1.3787921532836331
2837 -0.09759158134563906 0.6261039621629861 -1.9492957282973125
2812 2.226230778863994 0.8602942140064525 -7.662459351238005
2977 -5.140106438608162 -0.0624571542569817 -7.499003335490046
2715 11.53636466817938 2.613482965664692 10.737430188020232
2770 10.473542896355253 -3.858482198917416 -3.9667079504162763
2923 11.216741947254912 -10.972759392005477 -3.4291828137627958
2865 4.778115201552469 -4.576239880778542 0.5064876095114035
3114 10.198125685602273 -0.8281969690946382 -0.8820371874182265
2934 -10.017579973138272 3.919865362247207 8.321221232724323
3128 3.330759147180465 0.36736516697668686 6.06023306367906
3062 -6.012903888785744 -3.089319358581192 4.646452644580964
2845 5.067159967028999 6.036354331846895 2.3816897829529835
2616 5.825362910653899 3.358371847606872 -7.6962025158562986
2917 1.5855381000157671 5.219132333978151 3.5723484900110245
2677 3.514332590337067 2.1492298005180155 6.083624138923076
2562 -7.387401326713517 -1.8760903337159855 3.1580966742969454
2997 0.07134963401556671 -3.4051198394046747 -0.047368963349460724
3098 -6.030640514186324 -4.3804400886569175 4.649674877832539
3001 -6.073566143404752 3.1219573679288404 -3.1755370573784596
2857 5.296952495288236 -5.509441877846555 3.5998148923940603
2530 0.8534040793916852 10.865164765881408 -2.846977101757119
2843 9.106501026429335 4.410809189172672 0.13061562918975397
2841 -5.0312979184261515 -2.5319334074923416 -7.084377990936067
2864 4.941857329549804 -4.314897662338029 1.6118187989849042
2828 2.9233289838021324 -5.051470800923665 -7.406520519253742
3211 3.021534298396525 5.71619852309368 -3.1368077712063553
3158 -8.388418947933829 2.2602733332719263 7.702097331859255
2798 -2.0518985350806282 1.6191508272742956 0.24788012082991714
3292 -6.239590247228092 2.3811385173241377 -4.631365120219048
3281 -7.018942641076205 8.266681981007201 -1.3171307622082187
2688 -4.986418272305666 3.2358000534216256 2.4654497087402296
2894 -9.710921645453478 -3.2236142282434965 7.997571474619223
3048 -1.899883492356995 -0.9986963499814054 3.8083037190112043
3311 -9.95650397073181 -0.4559380704973769 4.392039559287912
3021 5.0823176741235185 0.6896931663522803 -5.82260503459105
2933 -5.993258080612684 0.18593223204532178 -5.240468826861427
3069 1.50495661055027 5.812679023822407 1.094906082558086
3271 -2.900655981383647 0.7010425591067868 2.7570050794564214
2999 -9.405837975320905 -1.4755392632325637 -4.21847230445889
2988 1.6909612120603745 6.407139135234254 -7.402412806543787
2886 0.10868062122674713 -5.070934819583808 -4.115710179966892
2848 -3.09109669063331 -5.229028618531553 -7.179649660846843
3009 1.2018094166403233 4.0087807199523295 2.0477249074638
3173 -4.387279784460721 0.048620670072982916 7.323387706785672
2968 -4.562072874459887 1.765459371998721 -2.1173772163527986
3044 3.169183780819897 -6.506541210942551 -1.748799282135503
2844 -5.943986299943124 4.991208308367106 8.676755226741241
2994 4.251883429081011 0.5727490605188134 10.92782613700586
3039 -7.011720382744487 9.191754335466769 6.063806568697271
3164 9.97826972284543 1.1554649829208579 -5.811909583117959
3043 0.7869668032987334 1.5428869119265438 -10.71246216658243
2842 -0.08298917963567765 -4.551998340390455 -6.754803727743969
3077 2.882156159140729 -1.3299130677469537 -11.400065823138148
3162 -4.208791617961838 -5.215560775889245 -4.828824600206788
2884 3.851857768987233 3.5854616686639784 -1.8306144340566364
3146 0.5233358079526426 2.0868097729794783 -0.019880969185845473
2901 -4.292717997942835 0.06700278408105625 3.9052356761322624
3307 7.38369854360473 -2.2813454280923535 6.13295097703031
2905 -3.4491491346095695 -4.906360832705295 4.239705987611621
3180 -0.634385346702167 -13.37960637500917 -0.16479167353310253
2772 10.127976124564201 -3.692975808284252 6.52476343544301
2460 -3.143398304137789 -7.074867518008367 -9.422164030155649
2820 -15.97192906194876 -1.1299668074548255 11.7629570637588
3016 2.0632005439402414 6.450233065054355 -1.516836708377978
2785 2.7396292287741315 3.4015296481032773 6.484267993129424
2871 7.857663032457996 0.2507045554717802 3.850364592216872
3154 0.03517212073787328 6.075004005294099 2.1387637219880897
2748 6.963808101081418 -1.092618427549269 6.783514688159422
3106 -0.3371825200479643 -1.4276211602540914 -7.386817762377823
2902 3.483543033950219 -2.6743933070203414 -6.899416876531185
3305 -1.1119191111808264 5.017855412632328 -1.0548301594209828
3047 1.7399972734514881 -3.4019383579715834 -3.6869218186230084
2752 -3.546740856417687 -4.322360168469057 7.63546972427597
3312 -10.010577033244827 -13.156318317751115 7.324907223022
3046 -2.289422743423064 9.622226289148756 5.15984239319699
3276 -1.8803824429125278 -1.3384088688399218 1.8035479269026724
3045 3.7318203361275986 -4.906983531074291 5.548716623369072
3245 1.5249030211447272 -5.9304584609426545 8.440219847220131
2912 -4.103090815930081 -5.037841344282423 4.8005621551542825
2937 7.599433735934697 1.496542215622922 13.749853213208546
3300 8.11882064818476 -6.120064568475516 -0.9628344151586312
2771 1.2713424519906065 -4.02734596140165 -3.9063395100303686
3033 0.571102567035824 -7.477516346990625 1.3301472458264636
2941 -2.263329408079175 -5.540013839137692 1.7115158659482534
3203 -3.100792250043414 -4.956006004431354 10.0855308607119
2967 -4.2755106575251025 1.518454207389865 -2.9077827409733326
3034 -0.8363526241659632 2.6871581539145852 0.12934123239471287
3071 0.10158102617250617 4.055544919987923 -3.1088507430547883
2950 9.520498044108985 0.07471301858866355 3.3025206416981767
2882 -2.2084163340397303 2.525548969742309 0.90584494764661
3190 -0.8869056005544838 3.0410765185561908 -0.5955601393929882
2907 9.830627243586822 -2.254606944406147 -1.0016199199035438
3051 0.0991750711016173 -3.6300589736550126 3.084953267421404
2630 -4.366955147258429 3.8051129184782253 3.0124347650127703
2763 7.474527319213632 -3.0888590263592786 -1.4848595933802835
2940 -0.2601475192484272 -4.03810912886414 -4.534214800637921
2762 -1.043796076401738 -1.8104093128764014 -5.331184762618153
3137 5.191942187956207 -1.2978971686815624 -3.7536451475480046
2817 10.715459166372918 1.3117142761294591 -0.19435102958929576
2787 11.692443380183535 -0.006295763960934024 -5.799418320491229
3232 7.6536459528508 4.342052781755169 3.1271570692632222
2895 11.749476893234602 3.021057500407986 1.1611645230595766
2651 4.406096056506125 -1.4656105287918268 1.3096127801776232
3217 -11.251723692482983 -5.889601730925817 -8.048034148620449
2746 -0.6747426844344055 -0.07256642453603973 -2.9382161175986106
3040 -4.635978056700059 1.092759293938857 2.9444881105834573
2774 0.55995659488074 1.5865287338947538 2.2533960919132854
2892 -1.4571797404571807 -4.24458960488926 -4.801417522952109
2947 5.929089749707729 4.761854265273694 -4.084261898199773
3206 -1.04881490375998 -4.702747857875344 5.602555228458756
3066 -11.304100684171132 -1.9725951322131867 -1.1802095528649166
2900 10.058710485334842 8.5880357513935 -3.129786955794671
2958 13.193469945938023 -12.499963086621241 2.369086142831577
2951 6.588460245052023 2.0465103550920856 -2.3375057364429037
3237 -11.620939846402411 5.506522959625658 -4.28891583014287
3060 -6.05542271861777 1.9209412495189215 -10.636566095090515
3142 10.188781340268914 0.3714502036840435 4.741743999202744
2957 1.1001560562975148 -4.017206227629456 -5.715558872684718
3101 0.5250682337185744 -1.8127896519328632 2.6446300062907326
2904 -3.876249796862687 7.329349759083488 -13.790395699695726
2768 -5.641054009681707 0.10584582839302378 -2.6376257366837663
3176 -1.0407780477405046 1.5155056831072375 4.696100656624206
3257 -5.643248874061253 -8.691633989232955 -5.553719479216144
3255 6.102909330972263 -11.36280795687501 -0.4679922575802815
3103 -7.727297853785757 1.585403780366439 -5.2370270084174235
3097 -7.4624131628135135 -9.101851152427574 12.5205108684287
2824 -0.8751192042992615 5.316557247521566 -1.9726662832259123
2959 7.651291370434034 9.783153132149423 -0.27421286260299876
2931 3.819830440308461 1.9568218470357923 6.514292386946388
3397 -7.561907991724302 1.0872948849648176 -5.7703608799061925
3061 -9.711237845752509 -9.341573655303371 2.6313500965696224
2539 0.26422314277864706 -7.3924962452078065 -3.5324002133651944
3086 4.845216092550943 0.9986813147047249 -2.6263969149828794
2784 2.762704122076894 -1.9496017992089651 8.764986932176937
3261 2.340283191660735 -4.097086087500761 -5.313268569938281
2876 -5.7192744311880785 2.377511662302506 -8.682557256070469
3053 1.5154745212174658 0.13358369958718028 2.80682629018185
2964 -6.650035635631212 0.3060148452847952 -0.9816854718775904
2662 -4.802438091698579 8.319187348407034 -6.3131084809978395
3094 2.2244334122301037 -1.9714644085433426 -4.896388120246132
2935 6.9312523504890144 3.498851930080581 4.33424993004073
3121 3.118402437130388 -1.5302534350872745 2.6613916791090375
3006 -5.315370092890202 -2.8262939138748715 3.9902021770355662
2954 2.2693232550233406 -2.055021159052779 2.1116008125228176
3019 -11.597275960833043 -1.9554801096556924 3.923772723925634
3243 0.09075744484865733 -1.3381047201281198 -2.5033624148978646
3227 1.688899916956935 2.610900699979435 0.7559749768176403
2743 2.7224062930852524 -0.5338173613333871 -11.768349477286252
3278 1.2042633080008736 5.492095259100166 2.444890924683364
3135 -4.879168124906751 -8.388651976638291 -0.8544451640383361
3104 0.6744117735747839 -4.625308161245143 -5.917546267000629
2962 5.376434435456251 -0.7412196695855656 -1.27349428587238
2778 -11.029815193872137 -3.8493084373541544 4.162971262571318
3115 7.643581454862303 9.53300400794306 0.05412104323873843
2825 -1.5617139038251764 7.913258032160142 1.0795905266372616
3134 -4.273746607451518 -2.149719047762875 2.662376747658727
3085 1.0651536857597388 5.431319768294727 -5.475716418642339
2992 -0.8996604650243453 1.7271870783349565 1.7655014285621344
3099 -13.555491366209495 -2.428420819184171 -2.4575376869866146
2979 -2.8085340376586814 3.992961185494255 -2.607943314727113
3166 -4.917275377417242 4.375875076996398 9.092482071005103
3167 -7.427438208165698 -1.2732508498743054 4.262435986411774
2965 2.356674842677983 -9.70824245351089 -3.6299496816678656
2883 -4.30319671213061 -0.7954015022237025 5.0388500260891735
3157 12.868923045293798 -3.1556571461743315 3.381333365597119
3008 -4.249863970592479 1.6642216544435513 -3.6842912222721464
3088 -6.923253115836065 1.5353663226269136 -1.5776912797281846
3068 0.29366264474769066 2.0166583781116016 12.380373567345233
2400 7.0138139997421565 4.023950300312803 -0.4908830343214091
3452 2.0846689895594808 3.65111400968029 -3.284010160956002
3155 4.396235978456411 -6.4302360682713315 4.542119213945953
2850 4.377175011053561 5.734819159314873 -5.675154448868713
3280 7.0957805651396955 10.782812652455435 5.438426055032876
3282 -0.9266269209617284 -7.727129549894114 6.212925914965607
3289 7.972399340970281 -7.6015790252766875 -3.476689509852242
2995 5.727993669976573 2.8905967937817323 5.3020262547369965
3252 -2.3498430371973718 -1.458557472947674 -0.8125380205022156
3426 -0.6773667420692351 -0.608459793079132 -3.8814233738151795
3127 3.441795856419631 -10.747129267496048 9.567358144523858
3456 -3.8571946211799024 1.5193408645480444 -0.20615315492110176
3151 -2.415355970339044 -3.36911050103179 4.203506603610246
3415 4.390803961073657 7.789908183861427 -1.4855276331469098
3293 6.72133706081609 6.954455536635762 -7.925189761448954
3141 2.5769117491581834 -5.260247189032706 8.9925670624875
3125 1.7077520746745705 4.852376987318951 0.6719045383277904
3275 0.755220520970109 -2.1397192662556983 4.178494506673735
2767 -6.2211970222335005 -3.8474340467279076 1.9969095681373366
3181 0.1918650567528827 5.1536582394611905 -1.8188697493203965
3002 2.6129557432927117 3.0163877248715805 3.8267494858660545
3080 6.646585943791503 -5.695159256257269 -3.6890266588750174
3149 -3.8800770694508486 -3.873076850905536 -15.674636314348358
2963 -0.19766360986214743 3.107706450858005 -0.0805759142539181
3116 5.987679640730253 3.7531048553860913 3.8632939260492494
3186 1.6878042487804343 -3.4848049821879097 -4.175574518940879
3443 -1.645611243124764 14.963590972614535 1.8188165167969998
2897 7.923182111672656 -4.0260997191227235 -8.999737383344684
3160 -5.186831139559353 -9.735077002909776 -10.830371888354433
2714 -3.927516261013217 8.19472754255956 7.345561574889558
3337 3.083771200218082 2.3527536266560194 -1.487642195436935
3132 2.8499961044401356 -5.532998871992193 1.2977186315689677
3027 4.974518132656988 2.120976942265499 -8.548850112183109
3298 -4.904358195685702 11.308377792445924 -1.8895467352959647
3333 10.529742677165716 8.802531770758398 -11.164212931185826
3294 -4.555423353931313 4.233070805835952 -5.004553785563439
2911 3.2762440972080102 -4.003490675339751 6.312972076577176
2978 -3.9678906219176473 1.9154799246260994 5.606209539081238
3412 2.285451496253918 11.275680818203707 0.21049029951079787
2868 6.808058750306509 -6.923266212616945 -4.9323154997167205
3038 -0.1046074577220602 1.4396315911477329 -6.377380419106322
3440 -0.4841208217522899 1.7454021267997641 -9.822798424148795
3110 2.8668190184590467 12.357450843165589 3.433349789545879
3030 8.11721404748929 -7.088236193044884 -2.315897793583897
3161 -3.0514636353186564 -4.404863762927638 -4.62146863141467
3299 1.6334437043096337 5.737839415262301 6.2992985798496335
3177 1.9965373314872734 7.711195168541998 -0.9884937075441046
3304 -5.710419247219558 1.0656868693964465 -2.305378082881288
3447 -10.824971659697747 -6.2450649054645595 -6.858221270344336
3185 10.617499912568277 3.7791382335024064 -0.8810525138007151
2961 1.179484413621523 -5.478911188308376 10.29547127878308
3308 -4.288128802554121 -4.823017084486651 -6.302946413142389
2755 -11.8994552795662 4.547289170879971 -3.9588556884092845
3057 -2.5665447755386124 4.006736829985387 0.6402843046658946
3148 -1.1282362235008525 -2.819804233649736 -3.8360469437810565
3059 -4.030734173424091 -5.418912484356895 -0.7086124162162495
3193 -1.7260687959890257 1.1060044370952657 8.49383766772091
3025 8.896378584518443 -7.757485493049137 -7.1666227309038915
3109 -4.276560255323715 -1.9414900709626275 7.560510096669823
3175 0.807545894410438 9.273906725608828 4.31678989281474
2872 6.001542594021827 -1.3511116974335247 -3.254976734060261
3184 4.192524696386567 -1.6347863308744244 0.39954702652844004
3225 -1.5459059450101262 -0.09272307481102901 1.6130023188290057
3179 -12.169634656165176 6.4172623503910335 -6.655292924117253
3065 -2.129636248118086 -1.9716700904546336 -3.1729125697046126
3359 5.078999103291989 6.157674037172539 -0.2711378996655804
3214 -5.544799748745145 -6.014318916662706 -4.296560961485802
3213 -5.276964008395494 -6.109311273846559 3.59403534763603
3314 -0.5199007225438766 -0.24687533257870317 6.606134625518179
3056 -4.547384961690301 -4.580600337840207 5.131178319374128
3260 3.9229103377375116 -1.1519953488556276 -6.681663079210882
2811 1.7466489565136698 6.021596497269988 0.4607165324396918
3136 1.448231858769644 -1.1363183468106204 15.188876252400854
3306 -1.5530410997344817 -6.982611685078966 0.9496896199963699
3194 -6.324733576843247 8.68709897682078 -1.4965240875031527
3189 -3.384912946170854 -3.0542280187943236 3.880347609695589
3055 -4.391011910912923 -7.042609108488356 -1.6454609150208555
2913 7.2113201854672235 0.12811747556514327 -2.8050404791133556
3371 1.6884683262854696 -7.099761519095886 -4.93348711172473
2796 -2.72165870805942 4.802579969628305 7.870588285805911
2890 9.491570800162911 3.4531811305174855 1.1725374957393262
3082 -0.8823354741845179 4.67755718588945 -8.095480494788761
3326 7.653498491019545 0.7739735083778941 3.357715733332365
3229 -4.439410075843859 -2.4115953874688945 3.4375828773919817
2938 -5.235423374658179 -5.4654988950662196 -0.04538936030247102
2764 0.4409796764028966 5.2977354168141355 0.2919261894884225
3244 -3.5330330615525156 2.3648698532691146 2.436345021871733
3188 -5.539969937827033 1.0243834757222465 2.2984374994268095
3236 -10.093993835810371 1.789721847733359 5.823107459140031
3028 1.9647739159677906 -4.095558831393223 1.0250247632872174
3074 -14.879688399545394 -3.161208627268179 5.8342195495144615
3100 -5.922419400351231 11.18621919823353 5.981446070489791
3219 -4.222226326720135 -2.7544875563605538 -3.7399210444731623
3385 1.954778396135604 3.776851436533179 5.159957671848195
3381 3.8888695313362107 -11.35505921176414 -3.134496625753592
3248 -5.232551614697798 -6.164696033683937 12.338851988393742
3318 5.884906000161135 -0.1504481025932956 6.598478027274471
3079 4.287071830610085 -0.7129914401916291 8.357030562518
3222 5.499617442467636 13.644856654820494 3.017841878133202
3126 1.0945797722572022 -7.3298999698570935 4.989377389193281
3150 -2.8354141353223623 0.7404827951266428 -9.955878794644683
3054 1.3784227042272263 1.3922635782631672 5.607367008157591
3395 -17.06338067259873 8.978541137598592 7.025899288711578
2942 -6.290943791349348 4.879913579636535 -8.477789156036936
3108 5.0816521491121485 1.498538884036462 -4.282885161754825
3107 3.050956881183084 16.928358762526923 -4.627137357964714
3374 4.0200295849031225 -11.182763481712641 0.6746610144281405
3233 -6.38030881977134 0.586552540886508 -6.5750984466607525
3212 -12.699944789400286 -9.013421003745002 -6.076142783710721
3139 -8.557599667872497 5.696996077743892 5.244090314264153
3283 -6.268113703486778 -0.6185414841924055 -2.7267716391308143
2924 -3.705232672374174 -3.8580552961693058 -5.964765429146923
3259 -2.133526654381532 6.678369819826396 -6.359682370176403
3238 2.881388280086751 0.24396493911200787 5.079343945301753
3050 1.818402775248623 -1.2503295341011902 1.4217414662888745
3143 10.357796645425188 14.056701392515901 -6.664363891307554
3118 -5.633502513792536 7.249618368091711 -5.494958776362229
3223 0.09850610238957713 4.044293694340841 6.617754740844974
3290 -4.784234534970283 2.92977597497598 1.7952038246146398
3096 4.029384544673132 1.5270844312223477 -7.72050311412615
3078 1.6542609985089873 1.461287076954369 -1.671422128142729
2929 4.617548305538554 3.8257100978607976 -6.772224638516896
3228 6.1300187444552146 -7.22461111077629 0.6541741000426161
3221 -3.795529280052424 3.6150366316361375 -1.832841080642058
3102 -9.458899516187879 10.746886144950254 -0.6467483141578726
3152 1.0550349922365676 -0.05946254886267132 5.0445807206494315
2989 -10.540209821403414 -1.6397549935465057 -10.608546462598937
3084 -0.14209876739930663 16.900936657873043 3.47504030728901
3368 6.231481356433619 7.133321226635306 -6.222153440501074
2821 5.183420704540186 0.35272563623002584 -4.457612152294189
3377 -1.146127624128586 -5.704944186778978 -8.429053261026201
3256 -1.9732561840633562 -11.320624387606427 2.730340522415094
2972 8.844988621271291 6.167262693905932 -6.567696764719695
3159 0.8884595695780031 0.12973287065656863 -12.41627429101698
3265 12.727471469715681 0.2637681005336211 4.152452562856745
2832 -5.698208568826226 -3.498150896044549 1.7136694381141775
3120 -6.818451664859583 -3.9097356689530427 -12.528692209787382
3123 1.6444229721345436 2.2393204749438054 -5.938478856972041
3117 1.936820690133244 -2.792487140012878 5.607336157756837
3286 2.934446975691643 3.5704902194024593 -1.62691560476948
2909 0.8904746600486663 6.376652182721403 -2.6460123889579403
3373 3.192762106472853 2.516900508334957 1.8516018888742936
3113 -1.4055685205273925 7.203542916138908 2.2962532419896493
3081 -2.4777351311406184 1.6929537415734248 -1.1112439016697304
3015 5.859439954642669 -1.9922067143964672 2.1586943958262057
3313 -12.87597072388875 -0.8449786102852479 4.993310521624658
3226 -2.280918742320012 3.55088054435794 7.618302034550363
3092 0.8884482858372516 -2.7532704105221137 -5.477478978967429
3455 -5.294449613907369 6.353308908261096 -1.6871791182699543
3430 -0.9281814655590017 -0.7021462801008993 6.867469330853016
3316 -5.513148357554024 -3.0709987459338195 12.741846366127266
3309 -1.3791704395505135 -4.5214586880202985 8.674791031741611
3428 0.8122436839481987 -2.613268443963595 -3.538880702196183
3144 0.2144339921786136 -8.498723747360893 4.32799862895978
3433 3.3724889048626503 4.774021902489944 2.977684555443166
3390 -4.539193262858112 -6.248147566159988 -2.9881440945091335
3171 13.004765906827512 3.4765207820646964 -3.833952749579533
3174 -5.320507264097804 3.871080258103453 -0.471903973671555
3414 -0.10126301513692777 0.35701072179082866 -6.942874058792539
2888 2.5740167610000975 -6.611538221490883 3.338437909002733
129 -1.4642327663806467 -0.08112602111080233 -9.330416381165438
2987 -9.837964283911592 1.085740147082114 -10.66897649777042
3131 -1.7971028386851882 -6.731236740109487 2.5997850423092865
3394 6.368267395998549 1.9430974439834865 -0.7077816145655743
3274 1.5213192565913565 1.607027658148113 5.882757727438353
110 4.414808201025539 -3.9141152802833536 -2.3129212171661306
3273 -2.575597830570965 -5.839057452901322 4.864323134931681
137 3.262809317992857 -8.851160273932347 8.802625712816432
3384 -2.467085901700764 2.073115476875119 7.061576034980716
3446 -9.945106984039866 -6.582250365883231 2.7309942469741477
3453 -2.073779521452608 -8.300300618183682 2.0514895159341946
3287 -0.5437863688246123 4.0932155266676915 -7.80125885740278
3329 2.5418135418319148 -6.173277584156416 5.67686566265015
3334 5.611593751922302 -3.8702262836485493 3.808431671124892
3049 4.863786070501001 -7.373327376543653 2.264517757129767
3191 -1.3052694358364039 2.612888134467901 -14.400238489651906
3169 -7.091573703831166 -1.351183454223289 0.36656203429064327
3269 0.6363595911323361 -7.174936959640615 -0.36500939403104915
3058 -3.775861623899748 7.242933493571508 4.89414373212676
3170 4.720430004855818 -3.4728887076375865 0.21936350226737125
3197 -6.908900234596999 -12.237523808112988 5.177125527107326
3215 -5.181248998463316 6.30579319086118 3.14901934500554
3317 11.455257363997662 2.374027073282056 2.3511437713437227
3130 4.126151650502964 1.5302070312227753 2.8517086707166084
3199 3.555812103681396 -4.485724605666499 -4.991500573397288
3417 6.0739464109458865 12.288484980289802 -1.7426142969507552
3418 2.5161147433464626 3.629514503261508 2.3814335534380366
3153 -1.0630624198501353 -5.86315490722688 -3.366671969172732
3325 -6.775194258168829 1.8407491895512906 -10.97287176942411
3036 4.6813169227471425 -10.102285518006491 9.075622886311326
3035 3.1883100430083404 -1.9579521141787504 14.327199966097112
3279 5.8249058904256 -4.6506524027102625 3.9219759236528153
3295 -5.99818826670567 6.6117183705503635 -2.9615189861490583
3445 7.476611368901338 1.663188853849345 0.16131179659244807
3449 -0.6702417004123249 4.354732619103569 -5.252831883649022
3357 7.766744171025455 5.052429308628397 6.128637950451841
22 -0.9026773463639547 -0.3565081314529539 -1.6196733955631262
3032 -4.623690117050361 -0.8798724254841703 8.85786106752949
3239 -7.25655872828928 8.092817075371856 -1.5753561094744595
3323 10.306889929804296 1.892447423846231 0.3465899405574555
3029 3.2066909821781846 16.589215843929903 11.217413985224894
3438 -8.408546429861984 1.0744970602953923 11.224593826380294
3345 8.223395346020228 0.9794576323789217 -2.799594553979007
3347 6.638858396800486 -0.5365109519202079 5.932936223223757
3063 8.869545688972574 -1.4997777701311876 -1.1858405879838092
3202 9.003415542454286 2.454765703849718 -2.695393424790367
3442 -6.991348251383043 8.487520840393445 -2.2640815404671417
3168 2.9008684283523474 -3.667103572612565 -15.446047578543379
3331 -1.5682828551768737 6.188537270548901 -2.1134722326849738
3361 -2.9221321026584857 -3.95387020172865 5.233241114387662
3209 0.4819640797237883 -5.816957879168722 10.291280899930879
3353 2.4180324574708387 -3.677133264207574 -3.4432898323163217
3342 -5.9892501614768845 -6.198711524311797 2.0219073718062255
3341 -0.24234065502152075 1.4061315924997717 -14.80247709608939
3362 -8.855247053326767 2.1439976279797914 -1.3224159200757053
3218 9.733866071369885 -2.7284715122397847 12.373070981973168
3241 -4.89379215354753 4.675293686642734 -5.925376492564257
3338 13.487534946132532 7.89760909392602 11.060001087585494
3434 0.2598097974301856 -9.892244468068224 7.070214957137715
3343 -6.529949330034994 5.41208401093038 11.801773122714838
3201 -2.1035135570774544 -7.0708565632913665 -1.2663768857406532
3224 7.681924541908738 -5.852481509316173 1.156385996439126
3322 6.671400628989532 6.144244618724253 -4.521539195504273
3156 -3.7637359537702277 14.133667543692741 -8.119104948896632
2939 2.722456313527049 -1.960165983176978 -4.801187399927313
3321 -8.86772209274541 -4.637117545485551 6.1040695905660804
3205 7.750805010413939 2.7078327162748406 -2.564369178195688
3198 -1.9546582600424443 7.488730962218693 2.369515607881607
3450 -8.140130850359315 2.3209969903280854 -7.82164086953177
3052 11.382254900578339 -4.47124866238887 -11.048072279645304
3196 0.06288679526457121 2.9001377219449607 -6.875004909714134
3360 -0.15277632997892376 0.4770515528903617 3.6230652781084887
3403 2.929372520662711 -0.1504589450986538 2.007802349133134
3365 -5.774439836183876 -5.8437587726254545 -1.3990320475507785
3406 -7.425568410681306 4.341794938473036 -3.6103356127718818
3340 8.229572074516406 2.926714172550336 0.0622095618118105
3382 -10.109722911069534 -6.165804636287509 -5.837127296341601
3364 -1.5324081509782597 -0.7006613784702018 0.12007589190515786
3204 -0.061297315602755614 -1.996433885194634 -11.963566557447141
3370 -1.853293067272628 -6.3744656194869345 -9.808319770502088
3263 -3.782630028159349 8.851387064439903 11.605998429178523
3391 1.1635302191698171 7.113872946251168 0.5406037768433255
2976 -3.6083103704608797 -8.44969725096581 -1.1947637234063382
3441 -0.49402448145148015 0.8798622969119657 -6.440019102301588
3254 2.14925290726936 -5.240783734086701 -0.20733015672592578
3405 -4.605734595715241 -6.99521759994439 14.741362085286175
3354 -3.022474461253824 0.5435349555735813 -4.642842119108864
3111 -8.091094194017995 6.171445548248235 -3.650711147281673
3207 -5.53232292144224 12.452735636608674 0.25844313886166326
3350 14.934500913463603 -0.6072715471199179 4.498413084877189
3087 -4.564402239408487 -2.1780545531088915 -1.5065393534542284
3231 3.8482168761919646 -1.4870832243093286 -8.774612009874222
3407 -0.9886672152646119 -0.17578341738711384 -9.358694153577542
3235 -0.8128979884238328 -4.326522744257449 -4.964221080270017
3264 2.5507120143153816 -1.5236269997146237 3.2794313868693843
3220 -2.580794368773086 10.140194084554269 4.452638325918076
3388 11.121166587723577 -5.5361229057733645 1.227987673953429
3436 12.196955908237012 -4.763344963616451 8.735371695935681
3262 8.19272835614409 7.185363023471084 -3.3438048763389667
3389 2.068867085475956 1.8883818922748425 -8.680484326162642
3366 -2.1262661593788668 -3.236985857344851 -3.737283882000066
3386 -1.4320051914194842 -11.989145348123055 2.948115267302886
2955 -1.1058221136165023 1.4883409843215585 -2.3349604228278125
3398 1.4506525531940895 2.2417335471839337 9.401536839334005
3454 -14.409915815585743 -2.3830076811651555 4.029338100546358
3200 2.46027217102062 -1.279573613717413 -4.983895235745106
3251 6.502680323114586 -5.171425011802501 -3.1833634037877623
3112 -2.3052424449812916 -5.795748601247399 -0.6959091160778313
3230 6.760088920964773 1.5969768554535793 2.9640594995755003
3208 -3.7553913034283704 0.8922847917464983 -3.7095376392770456
3119 3.691937970008919 -5.827004952932821 -6.304014074606878
3163 10.20396688907921 1.9898328436863801 -3.6685656070055255
3091 -2.1086103931728424 5.770443279303608 6.989942196022428
3431 -4.525870263425625 3.964836059265503 6.70672786187822
3302 7.159767131660211 13.704304153135025 -1.2823136870264942
3258 0.6039980892526513 2.4084834486514937 0.24528030533735018
3284 0.39368906893071093 3.590792396477562 -8.7162059023385
3165 3.4351346911357665 -2.046752751061655 -4.159974385194462
3268 -7.733689641354416 3.281462847330105 -6.512581407558623
3409 -8.021017026765382 -1.8550126547358954 -1.7302811730094951
3297 0.8911521122673751 3.0429947099372274 1.8632634759436095
3393 -9.467505062615684 1.1742482804813712 2.108544224186022
3396 -1.015335976094841 0.7193356414907649 3.398105794876615
3400 9.68951447828669 -1.3128669025741364 -3.315305172350281
3250 1.491844455396159 2.966284685029078 5.776007129194863
3246 1.4782334346675368 6.679835381886265 0.19071177336881803
3277 -5.88924604126342 7.767367989118909 6.899703729397832
3425 -2.1148195007792565 -6.770820379513645 -1.0168861789700332
3291 4.552072644712369 -0.5198391621292925 4.828881012642361
118 2.2187812238215447 1.8689489570459392 5.286223081779846
3422 2.2314498183032385 -1.4125264188363351 -3.093903630021635
141 9.44733717880936 -0.4646654803455007 6.604823742036221
121 0.1642024676705254 -1.4345593209447323 -6.2581700265461055
3411 -1.5488785187324638 -0.016414393055707674 -1.871223069324188
117 0.8640098850471737 -3.5021671541321275 -6.662291311854027
3242 -0.661477902079857 0.19066359959666834 0.48525732705035113
3319 -1.8364703544946988 -1.669359487906238 -2.676756921445979
98 -8.069668407030214 3.886724658256873 6.183870556033281
125 3.320036101671572 -0.65382170349162 5.416893431918461
3437 -3.1477682934540825 0.612194373802309 5.608891302960089
3410 2.9044777390781915 0.6737126227028374 -0.36317652163046665
3420 -11.048498373495143 -4.1106797534427875 -5.891353249418377
3444 2.708746927953819 -2.03220788261283 7.369519401607597
102 2.3943862910049445 -5.36483326938802 1.2730136886658483
106 -1.1274806786662175 4.563467216293613 -0.0057551610850364665
3423 -0.010828992032791643 -9.636302634747613 -0.19455314789766986
133 -7.293695316521625 -4.065364847415449 -12.694631292246594
109 -0.1531686962513798 -0.6531393127411906 8.847409469422981
3421 -6.052973540075291 -12.273841556653602 -7.812669902152624
3187 -5.310041473535199 -4.341679735437886 -4.35785057552846
113 -3.666986154531979 -1.6674156995801181 3.194083214258168
3138 -8.188467973744027 13.823366988363997 1.7583980539855042
114 3.7997627277424164 -7.070530896735477 -4.0938481102579765
21 -4.314021079011378 2.9466025506467535 -1.17270204417609
3332 -4.058411581880835 -2.5391836626187767 4.819465876100743
138 -1.4612369138856574 4.5758317023052015 -0.6653942492340491
1 4.397794480115427 -3.050915074290347 11.210720124476225
142 2.6742733791219906 -2.770915043642563 0.5128618270799561
3335 -1.727270842007014 -7.581828201227979 -2.360703998848892
3435 -7.016825155080052 2.9071304500143187 -4.666954794508366
122 3.9868455272484247 4.9178906707469805 -6.26384307163676
3272 -3.120802785694544 -7.2599801685434695 -9.389922354990023
5 -2.2744724147777196 -1.1058126331811005 4.202814435148621
3413 -1.6074024638280775 -1.5196606348315393 -0.1827989279959481
126 -5.6016057080235635 1.1222449571061135 -4.808436999513414
3320 1.861156761320032 -2.6740806475408267 7.492447992984954
9 4.46184042330828 -0.8562283481856084 15.787504663587566
130 -5.730553875816456 1.9202435482757374 6.67449871912057
3296 10.571591053135293 0.14410390615514973 -10.370960722198236
3324 -6.801951997477975 7.090196376990873 2.8499659925746545
3439 0.7531360069542665 3.8157406711963766 -5.184854410421581
3183 3.63089570234078 0.6199988813011474 -8.164917427422319
13 1.6697886418299999 -11.174272997774796 -7.377766786811561
134 7.791694512557112 3.8237355493227754 3.024085085461245
17 14.54546054991043 9.316652894343731 8.05853123756045
3451 -2.301135092107348 7.005504594840303 6.008267592909985
3310 -0.620515606694198 0.8967636627542066 -3.9682295919154145
18 -6.033131581170428 2.3927177825126718 -2.831103429557923
3315 -0.9673779442684253 -6.164994881100351 -2.8537547553743883
3336 -4.8706552701758055 0.6807948236832055 3.2532269911340665
3195 -1.934205433511446 -0.5494217211172607 5.01822307615867
2 0.8674021622897714 3.858481308799712 -8.783671017120536
6 -1.43077802537232 7.507173897501346 6.6049057931745745
3349 -6.760007993868541 -1.4482542233153564 -4.75898161765605
10 -2.3571359010408264 -0.09621230402809722 -0.3118403254482636
3375 -0.1508897968320519 -1.2457241768341865 11.170352855584037
14 6.7012645026511715 2.9251733164389315 -2.9169025485150253
3328 4.402753033926611 -2.872816360130225 -2.951074170050252
3352 -9.255328314501424 -8.176262540574935 -0.8803946116502913
3327 12.18060834331729 11.984366394515902 -1.0923239277715473
3330 2.2035175245882237 2.1690129296305276 4.752764826829777
3351 -8.481320303985862 4.124816296472575 -0.2389387939943565
3378 5.593364036353245 -4.922190335180251 -1.4871827778146924
3356 1.6450493004809992 1.3900249434789542 -1.5963613567293597
25 -4.847012149989143 -2.9503113172301103 -1.3520225788375602
45 -0.518124691249657 0.6898591612848128 -6.064032793748329
49 5.251447922255524 6.878324036427013 -1.6005691397706168
46 2.514515489084375 0.3515499293682238 7.958721880663938
3339 -6.075735453993065 8.323107848860337 -3.085934586682234
26 -1.835749150933767 11.10089886277191 6.985581325543591
29 -4.320778432807896 -0.26638792717542836 4.56789028677321
3358 -3.8394169918516643 -2.698719906910967 0.9966633908366741
3369 4.253807232410356 2.4609076118158 9.150395881250095
30 4.822376458602569 2.464259755601161 -7.04000826923208
33 -7.910827646737423 -5.9646718939475765 -2.2492454056100217
3367 13.39285363282823 2.555980770132463 -6.989408468418295
34 -0.20790362005134305 -6.3509337732502456 -10.502072321722098
37 -4.674278319588671 -4.417444879146929 -0.34029255808998027
38 1.0461531367484984 10.518648239985342 3.7869829139387106
3448 3.32483263491235 -6.338250961110782 -6.187746747361406
41 -7.789266722951783 0.8696944428174406 8.737610312649478
3346 2.7076970787441934 1.338573415642493 -2.0769858578929212
3355 -5.64075084118576 -0.5047562232351211 -5.948872671993822
3408 4.881611317602069 -3.2198297849095088 4.091980060511999
3379 2.6159760616240195 -0.7711037384441 -6.8517110170433835
3383 8.264471541828424 -9.822886432175558 -0.3274187279495809
70 3.009183943753853 -4.476873116357374 -0.9531453640163061
3216 -13.459001836490328 -3.416100430042641 -0.3820650376378637
3288 -7.0935544723072885 -6.775333658377077 2.1860792188061238
50 -6.576526620750591 -0.6139251939204106 -11.414841264472338
3363 9.937966905237003 5.037629747751022 -0.21652112539494178
3249 3.8725656396551478 -5.320885183926456 2.5749269274914215
53 -1.563306531185871 5.929822141481217 -0.5467671177231492
57 1.812883470154215 -14.16691493935025 -3.8389788270833005
3344 1.4153765243939267 4.660629831036158 -6.432546777245158
3348 3.793320165116523 -0.8495360236053563 -2.972398366524661
3178 -4.949882902674812 -5.451775795323058 6.876881427595639
3372 -6.477424852346031 -3.0978603249543313 3.2480544702994663
58 -3.9448966966089514 1.9841411426526931 7.161729661061107
61 2.728427084268706 0.4484776596830167 8.34247230417243
62 1.6519425364161044 8.036239898768596 -3.1653704243764187
69 -13.560834389281446 -2.1186725087847167 -1.5870358032249032
65 -0.7822384414673744 -1.0073463312449062 1.5384685597917813
66 -3.774042145227627 -4.8041639626713035 7.6828561289617
42 -11.191694173629893 5.783864531544269 9.313464430397364
3399 -7.690603726468309 4.891416271525795 -4.748909897863186
93 -9.556628676673228 -0.34089913531032195 1.0901305219043085
3402 -4.458612248921723 5.4504166057995524 4.101497837739448
73 2.7574237473910572 -3.224224121657899 -3.180652982277473
94 3.228535422264425 4.323127734628659 6.31605638238736
3301 -2.6767305146161315 3.7378908543441383 12.951100541052972
3432 -4.386739291994693 -1.045320870504465 0.5590910238731164
74 -7.373600705081666 -4.851527981405645 1.323518719517922
77 -4.0009857426837865 2.8941172530403723 4.618679366204174
3387 -2.842161559141245 -6.270394911906622 -10.349094995026256
3392 -7.853457149632772 -1.812097815222928 -3.4732866092999717
3247 7.231304493309516 6.489169150354237 -1.6732677568625902
81 6.128294194290364 -0.5193378815884286 -12.951313269092486
82 2.431092012189244 0.5186438380117884 -7.323871697104513
3267 3.094647600480111 0.9749214032795924 2.8378062231089287
3376 -3.5291058115488734 6.046465731941983 2.6403797001842304
86 -1.4230676110743148 1.6999020671503051 -9.65219494541826
3401 -8.842148863742954 -1.6809701610913828 -1.733833233237309
3380 4.169397429488914 2.9162475521706153 -1.9609003547119117
85 0.9818536627159719 2.413054847167408 1.6120507713058116
3140 4.003252099101299 8.167172458045119 -10.43540420198278
89 2.2150556654870646 2.583239483146204 -3.495948289615606
3303 -1.2578053809480458 -0.21815561830398517 -9.929459030549223
90 6.887748963802807 -1.5515493169651031 -5.067778014858187
3234 4.93476892605205 -1.9324966372571595 -4.743315617279176
3427 6.705600699154346 -12.2706984303634 1.342209883699734
3429 -2.9807854168914494 -0.8858005705453565 5.02403761026995
97 -2.5610948151942385 -5.2410025020509785 -1.630671203553963
101 -7.651516063706371 -0.35518432209519396 13.09287838524899
3172 2.811043431866093 6.754367076902118 2.1007520612021677
78 -3.869960830180778 5.535776586950108 -2.350581854514337
54 4.258646763874481 -12.04058103391218 3.0238087835052325
3416 -12.56316457714422 2.011925856010522 -1.1428064032234182
105 15.595244303330201 -0.5826082521946205 -1.1378155001111154
3419 2.3220673383348176 8.370435158464103 0.7962140744032433
3424 -2.4864184968989123 6.702321994582632 2.894137873580024
3404 -3.3323414925356056 1.5191495922538771 -7.032038213583654
285 -9.1441704224055 -0.49578948194351413 -1.5295266769211944
120 1.3674910970024283 -1.4187864932214203 -5.347635524054288
139 -7.040269760071636 -0.16570047489041612 0.37464817108686294
143 0.9259221903813667 -6.13723903792515 -6.059613493181517
100 -0.6838778041797837 2.2081154967550978 5.265666288280276
265 -2.037361362454169 10.350234914398776 -3.024482230810752
262 3.9572817578716437 1.9415403030522183 0.543788998441909
123 5.915698129387249 3.2783881903626404 3.3742498709352913
242 9.655914428610263 -5.9107866542189775 1.467121059731305
269 -5.358555221360651 -5.054831389620349 -6.32793528998712
104 -4.156614186885465 -3.4865382233855153 12.5180504180684
127 2.798049723186586 0.007514420142286919 -2.053427971270383
246 -5.781994138821767 4.907230370164418 2.649167893368199
273 1.5811504500564078 2.8391499323745846 -1.9281592960917786
131 -6.494993436835127 10.114165078926074 4.87605412484969
108 -1.0100469701880677 0.7691673031545166 -1.0162859975016196
250 -1.212407791986488 3.710421167883825 0.8801873439847889
135 -2.752668903853027 -1.701068193226287 3.7198055088148445
277 -7.47781119009165 -0.6353709134910651 -3.919435943777734
112 -8.761158190185855 -6.13061553248241 -3.087604718432585
254 -9.763183788193732 1.775964640777955 1.4212274190725787
281 -0.7945786504542975 -1.709388031627746 -4.295797757543465
116 -1.1005321192546553 6.947215280250247 4.4307852660321405
165 -1.1298812528755073 1.2160410981203527 3.537246278393542
282 5.314339247287683 1.2719190187090648 5.233044450657897
19 -5.638708894571876 -6.820912438565524 -4.223563533252095
144 -15.094774824940355 -7.48868801979793 -3.8762585593013297
124 -7.815265518980845 -8.021403997310776 -12.713870364861629
23 0.6479740226843863 -1.6116027195546534 2.730740653757169
145 -7.953114398100285 -3.602979210640753 8.104761438881036
286 -9.10544620168041 5.515374117164167 -2.2782399420267945
3 -9.30299052703359 -14.686468813054763 0.2439955380794256
128 -1.2789796795399249 -5.024534865863317 3.4652340121849585
266 0.2975071612005511 -6.17188873074674 -1.0374349489260442
149 9.517686267295124 -8.724778868420637 -4.684086276728636
7 0.9318800456356613 -4.63990788932747 0.5068770999508367
270 4.449343809920603 -7.374499461531002 3.8343628376750747
132 -3.7797761367234446 2.1211884387862265 -2.475353303348007
11 -7.843708730232119 0.34312577512010145 4.635619207229504
153 -1.5214443766686472 0.02886984157439914 -5.168654722976624
274 0.03753239835297731 -5.039070244469246 -0.8504405065659993
136 3.120674966774861 0.15708939925924784 0.971930017310482
15 -1.6718289025998452 3.666718426219545 2.4581211220504984
278 -3.651979593460242 -1.3701116337765165 3.710050466256947
157 3.965240751468781 -3.0626618404261485 -7.227339992498144
140 4.727486625368172 -5.0813319286491225 -6.36765068429522
161 13.154083313513034 7.55803436997843 3.4320824370980842
24 0.10928903800752714 3.6359321847023596 -5.306347744119124
162 2.964490518930236 1.985015194602079 -5.309726647106611
4 -3.1699791606169416 0.22614559265161346 -2.2081753605177377
166 2.23964228830862 -1.940608108447588 0.9697570720829398
8 -6.68290056560622 -7.29262227504857 2.2223571227170895
146 11.48898731829585 -1.7500048000251813 -3.468063897175716
150 12.721092839138773 3.7109280158646194 3.334164895732884
12 7.9359385456365 5.7060310696858805 -3.858419580801735
154 -3.515119814072055 -1.4773253358544176 -11.034489293116353
35 -1.6672429544389566 -3.87617106674854 1.6608572585558163
16 9.719181948701848 -4.672975175557836 2.0556245568382296
158 -1.4525684349557444 2.076455287066203 14.294856588242386
181 -6.322691493248746 -5.824018323963825 0.44151759303013255
20 0.23764248869727675 5.4606026209570055 2.5406402841333326
189 1.448635471701976 2.0289900305949744 -1.3710464613403053
43 3.30230600314484 2.5827462622063595 -0.9309508967195615
48 1.1837165020044385 -1.6047877187599195 3.14256640215652
47 -6.968140644334077 3.9485087903281855 -1.7569888692593263
169 11.11643219110826 2.2115912248409817 -0.2768645006018993
28 0.8266546313361741 -8.739537763428785 2.095432837721888
190 -1.026750259449791 4.088872658584747 -6.165725199721068
27 -1.26901893622509 8.95739588733259 7.769272061343938
173 2.4339379573676143 6.995274426105683 6.786096701296822
32 -6.154221605542757 -1.1236284234905376 -3.91619283862373
170 2.0904416146076295 -2.5104066977424373 -8.134171548935798
31 4.541744493906932 4.073164915012534 -6.6690883717731095
174 0.22582274398955804 -13.074064993972206 2.8612281872851186
177 -7.0718696840289 -3.9121312228479783 -2.009214339118238
36 -4.016663115165971 -4.13328655408283 4.054409505390049
178 6.627547594939288 2.795235827818215 5.929363693880983
39 -0.18700078524351932 -1.7847521924262204 0.028894755169907447
40 1.4245406948734018 3.5842411105025613 -15.66806092746824
182 3.751077062973792 7.913426276924696 -6.141752583080432
185 -9.281226533363917 2.3580778070331387 -5.422109370530331
186 2.9349438169946644 4.4639988043967715 0.710439296441726
44 -4.693686160598397 10.483186538664464 -7.631186149708964
72 5.421374383484095 2.824403668666058 0.9811514455253235
213 4.303353344828044 -2.2693910229652996 10.429348161971657
210 2.4715542069994667 7.27614643520092 2.9388426697828884
67 2.2702642254023524 -2.4675557624498787 -3.4113049258667028
71 -6.638144848863665 -6.4140869536606715 -6.794022975185802
52 -8.907624850941692 2.6140740398694953 8.413975011824814
193 4.56468705323567 -0.9250720355248595 -6.801946355213809
214 2.0873390400460052 -1.5876525877784218 3.1318508744839666
51 1.2422817247192999 2.765546623075466 -2.9856562640790996
194 -2.2995925788807847 1.3580389996747018 -0.84872283363291
197 -11.830566612527646 -1.9106953786752747 -11.485290579206671
56 5.063540625352122 -2.9618757919333802 -9.636836606389389
55 11.831699787348917 5.158351207687408 -1.0021664893710884
198 -0.13919410025543716 -2.551123421401385 -2.8689120723799557
201 2.9126412840103897 -0.5453286350583044 2.722211902369591
59 -2.2486917120939705 -1.4472066820653802 0.9837064835685195
60 -2.275713668225492 -1.9345058685652103 9.218700444622167
202 -1.2973667598631107 2.3778962352618307 6.909102653102206
63 -1.9522534785991965 -1.9482127599483974 5.613807574028125
64 -7.352244113788112 -12.773243781453033 2.5818629975335665
205 0.3165776544552127 -2.0599261986437836 2.094505119048955
206 -6.083199714188788 2.80138915647192 -4.850815703743201
209 -7.431956882770569 -0.691615456341494 1.7509231393448483
68 2.2682978675600785 4.6848139537097175 -0.8104280173806433
96 -0.7516799584650927 -2.7181477248986683 -1.7159882858092406
237 3.3511555094758596 6.6859381122453865 -7.668905776756178
91 5.02183342362501 -2.9804162065343722 4.4873168131274275
95 -3.689240534810418 3.6280320408724234 2.5667117302434
76 4.559373930506886 1.0407721094239397 -5.795662663222544
217 3.0927882300085368 -3.102138480066528 2.2430960443091776
75 6.745733141157704 -13.540820043087908 -0.10439973837263035
80 6.745745281139094 10.938460980502875 6.563019725410236
218 -8.82083931512375 -5.094925886986316 -4.622500287375323
221 -1.2818740801189923 -2.6583526690997 -1.5744964703472033
79 0.3360535039034512 4.942004608146691 1.9847284638537281
222 -6.417431078466787 -4.682427851364285 -3.1247211706750337
225 1.5114493898283503 0.6295035882859037 0.2222695276037036
84 -0.6265588134520054 -0.17579957748271663 -0.5776365895003982
83 -2.036138355895959 -7.226456790346145 0.9198013569604392
226 -4.226594728083036 -5.620276314007022 -10.533749061145382
87 -3.306007551371833 -7.174916340475044 -8.864045867705286
229 7.22571881242648 -5.977492530987684 -11.613047711277671
92 5.496666065190578 0.3276796875644084 6.77441611287247
233 -7.185353323359786 -3.4746135956332393 0.1186783649957558
258 -0.3441306883916962 -9.03403109996656 -1.957969546027159
261 -6.966206064092334 -0.7298122382033685 -4.453253596422445
238 -2.538144773292148 -2.2543123100067812 0.6052232300311544
119 -1.2249614622867386 -7.316298785596004 0.3370246483180933
241 10.373062845170827 -0.10210678808104512 -2.1557503207990276
99 10.174324271643373 2.666043242606249 4.3265314143280005
245 15.18945639539441 3.091980314299153 -8.881680325052505
103 6.795449965611163 -6.072770513326687 2.852067501918999
107 3.178661712658154 -5.64832458132221 0.7242513317719095
249 0.4520227738541517 -9.365307387062314 1.6792307579284518
88 3.1843317490668674 -0.6970234244237822 8.771958829158033
230 -10.40766193334443 -3.597879606582124 0.0027559297552344694
111 -7.243740255121492 -5.261848440834367 -2.428116876554017
253 -10.248444467849064 0.3747299063677332 -9.317978576096387
234 2.159664415300119 7.354639014795506 5.815084315322167
115 8.376097514910613 -5.63941842773404 -2.611569341243084
257 0.13089393461255452 -0.027750565188868266 -4.318096834790651
429 -6.818038097198721 -3.981805239060913 -5.576853863554904
283 4.523417121857378 -1.1111910407747363 0.379462688239069
264 -2.550466419005225 0.4353014178020422 -10.277805763653074
287 -1.2856480454145873 1.9009177251304257 -5.322727569745405
409 4.327981316001715 -3.5625462409158613 6.305392903346987
406 -0.4018710684870933 1.693505272895808 -3.391297996065541
244 -4.520121655063949 1.7468230992957918 1.3019058301957387
267 0.822057858306806 -3.8609789133415204 -3.8969641352355504
413 -6.653143096660911 -11.561019296445533 6.510539216470499
386 2.224081040507928 -1.7236960096008862 -5.705781115095538
248 -3.7058063584581595 0.36690149260542165 4.55041325028766
271 5.415518596333796 1.9658489275922386 -6.338791764067019
390 -4.995025533060743 -3.4743412225938246 -4.208613160463705
252 4.0250577001289685 5.170740150359863 -5.698307690305407
417 -1.229122958915656 4.741647059065369 5.272076776883357
275 -2.3204914181429506 4.627907301233933 11.564494092747516
394 -2.4004864076691628 3.976451670222843 4.072323584340601
421 3.9774377981940976 -7.787594562275417 -6.751756352282092
279 -2.522412476573426 -4.359471283562026 5.699160613045127
256 -4.9383687685507995 1.7231469428921837 -16.882095021686368
398 -4.137909169353172 6.7643822030856 7.705396865387156
402 8.235428472070655 8.600103140536394 2.7836174823142654
425 3.9603962715963337 0.22077285391795334 2.3888038739561055
260 -4.8269712527215844 1.064047531268514 5.667930426060768
288 -9.450233826300606 8.175256101458857 -2.9912107659575047
309 -4.375463709930833 2.5542447120756946 1.8193011005464113
163 -10.42347166260312 -0.0930822115934909 0.673692575046823
430 0.0017896984954406292 -1.5756051056188258 6.8716320289545045
268 7.692431714790515 2.8167823821415263 -7.161440646772945
289 -4.702627271041013 -0.9996873093928231 5.266435111671572
410 0.944430468033558 10.65849660406502 3.608529300854654
293 5.694361663976517 1.5315504257805552 0.449916583660578
272 -1.7413592526192867 -7.369682759361124 -2.81486043579622
151 -8.09536581157694 -12.294072242031506 -10.846598737760115
414 4.043412094564209 1.1134644470055213 3.4593683383652234
297 -1.6501830754681106 0.5017050995129404 15.62962065364941
276 -0.36590839697579824 -2.3216071432013554 3.6706871998975945
155 0.44879065867993706 3.551525269027568 -2.309571781326676
418 -1.239793856869551 3.8848364704551024 2.3858245616866554
280 -1.1347513868401637 6.492626814385419 -4.116159004422754
422 5.7157286245110805 2.3615150038670683 12.849233617767199
301 3.878678365243958 -2.5491107832167974 -6.019671273981898
426 3.225303796909045 3.629589859045015 0.45060501449744855
159 4.547329246664532 14.934884413266657 0.0883081201506388
284 -12.571632480738119 -10.488749069953808 -3.2748189963577783
305 -3.5327367913351684 7.923655171208638 7.968837390457991
168 0.22829011106657215 -3.298571223962694 -0.7867731304594826
306 -5.87365687223354 -3.404301666599099 -6.584326895679552
167 1.726096400079773 -12.334063126123016 -6.168612437447804
148 2.5601765875670393 3.5507822333713492 -5.463592565362476
310 0.6386581346322446 -2.1616232394556496 -0.37437866466912606
147 -11.781885178459111 1.3456303761383286 -3.405266368718705
152 -11.052721236447072 -8.160420007619456 -5.948657589856591
290 -6.8170258331071985 6.3086529381325755 -2.524466932593867
294 1.636766285862863 -2.688074911305099 -0.9937990007033126
175 -10.05752738910978 -0.4626812782701266 5.467972030889586
156 -5.3469728842536695 0.17289430714500031 0.9490056890159211
298 0.41456372037653627 -1.9053314625383815 -0.3124563621407503
160 -3.4675049557494515 0.3553723914887765 6.358163709755061
302 -1.9310322322222182 -3.090842974069543 -6.973414599876082
164 -4.924445353172039 -3.526661370670501 0.6131669565883162
329 -8.388239891099383 9.269575489347536 0.5455198230651308
333 0.8983199219929192 4.995571063933439 -5.447215553028832
187 -4.689688274758833 -5.909978145741664 8.907903227989996
192 -8.279482965657914 4.8522542046558685 -1.5170413649720451
330 1.7479301358024015 6.715848443474306 3.7241363238014586
191 -5.428169152846777 0.577212194394656 -7.690729041170273
313 -3.0372622839068018 -1.2726683765690232 0.007207251126580097
334 -6.791307860838128 5.370108846907668 -0.7073051123808219
172 -0.779093872229862 10.60081793494428 -0.8804674246920784
171 -4.8621312345493735 0.8566675827703708 2.6181936971278823
317 6.72362574811503 -5.381426204478785 8.41409833578734
314 5.390181979961234 -2.5189678316165844 1.6242859763567683
176 -3.304136811335315 1.9456295403254735 1.4325711006530613
318 0.5691445400169819 -4.690305926015423 3.014260653111671
321 -2.4463038813376907 -4.122257833180132 8.735158892338179
179 1.0457322941514198 4.428444164962493 -0.5758052055958733
180 0.8363241673460748 -0.361229991980925 -2.4002401080344273
322 9.934835760405832 0.4658229915405613 1.607471799755818
325 2.7835137006093738 1.0901824867099625 -9.169982711910183
183 -2.4409207388921117 6.339912391364837 0.3116111141210547
184 0.7648996134335163 5.135070361406274 -4.713274250164749
326 1.0949229952778876 -3.69956139058341 1.5302144079219353
188 12.882708327229386 -7.992091925297935 -0.9611810043069903
211 -8.740812898187487 -4.5596976776263105 -0.7465583616216814
216 -5.88282196410812 -4.085683704462781 -11.597123393673256
357 10.348620297746086 -7.533180990113215 0.5733572465228621
354 13.598476371020027 -0.706433978477246 10.324211407698533
358 0.6604942900937941 -1.3938702688167677 -3.565032454463033
215 3.0505454580885507 -2.5306728940914076 -4.542418945347626
196 2.5340303602553003 3.8638741755626187 4.009791631473731
337 -3.9307303982385515 3.4823004723017115 3.710925710106504
195 6.523330676519283 6.574527476938387 0.8970723735906395
200 12.803390805820543 -5.104883043563943 -2.9818202916149024
341 -0.5106740645763712 4.568750488315872 3.221836651148842
338 -3.038929051463743 1.7717480806132113 0.8567759640467136
199 -3.6595272497251083 -0.06200251779452898 -0.15159181733474328
342 1.963939931619504 -2.5483006649585005 6.39787080512204
203 8.557181744310382 8.10666789970999 -6.8825789961637165
204 -7.4258177663882226 4.19729285187431 1.320931249187728
346 3.532109662135393 -6.59639342757537 -5.203765079570919
345 2.0455008331921714 -4.493623552468477 -2.261710352696474
349 -1.863405711462543 5.512868228611363 -9.052475019520623
207 -3.8060165368495147 1.1040520011141068 -4.643433334848139
208 -7.517752066408042 -2.421852827334245 -1.9684741494741922
350 2.3450488805848213 3.4951718748367355 -1.9963705589800433
212 4.906420905190357 13.35763011865235 2.9277556485076035
353 -3.9598504271266335 -4.516137984569154 -3.476617020147854
240 -2.1870648203639504 2.9329618089812697 -3.24747060241383
381 -7.647826317703708 0.5579409017077287 -3.035617776772307
239 7.0718595736009835 -0.1953488932258458 4.0030219855622695
220 -0.5388850666162892 4.88323684647912 3.6808886515315153
361 -3.700451673729594 7.229411782405605 1.319454860011832
219 -5.326443039405783 -3.4115472272948715 -0.013503970577632926
224 -10.786811913318617 3.9263509300498574 -5.825132922325949
365 -1.041138579479309 -2.543458610638224 -7.873266836147508
223 -4.006894420407129 -0.554643953754408 1.3133282467321497
369 6.768261323235034 -0.3249475168290413 1.2348912209486906
227 -7.081527049305546 1.6790646902222555 -6.547100560088599
370 5.896194072675359 0.1078635335197326 8.083003393336922
232 8.59538760449986 -0.2419548256021048 -16.254671238924097
231 -18.476599900935685 0.5345960969620933 0.4926921907565785
373 -10.000128269924216 -2.6226553980582876 7.340623689945675
374 -4.725015872732743 9.494697532028662 0.1614415685624544
378 1.6713801638312638 -1.9229636127252683 7.648641779869694
235 3.4914291462060256 -6.070429545681829 -2.317013808935995
377 -1.5625928617975577 -0.9130228761144946 7.631799639288128
405 0.9110220431788458 -0.2603199549879087 -3.575343208526521
382 -3.984340468557834 -8.364390497681551 -4.638866012776927
263 0.4888733057520471 0.6166043283861766 -6.070395255277674
385 1.5344944035210732 -1.157802668051648 -0.8382011775240292
362 4.202742289315596 1.5305857179792202 7.966039943057915
243 4.292142117432371 -0.7953509801960301 -4.098172272759381
389 2.175545915164031 -7.18565027050382 -6.9261513417366265
366 0.28871101176468106 0.2916050814954844 0.3761757022345625
247 -7.881738798785227 2.8355930312604833 -12.124607739672022
228 4.753695570781381 -0.8646714350274953 1.5849111366530853
393 1.5489470420067637 0.7875410430222788 -2.1902490738943143
251 -1.2629096415591958 -12.976768716145038 3.421303917169577
397 3.4866441272093827 3.1278749480060317 -6.60559008205344
255 6.744853883324026 -1.6184184507915649 -1.4290034397705937
236 9.977494593968201 5.061417211448232 8.867533953926033
259 -5.32138319858996 -0.08239063276189951 8.265489533016458
401 -0.0010734243204501542 -8.291807836016572 -6.779395900594689
573 -7.172496494007198 7.998216838277059 -0.1658279501245882
427 -0.4266374468329175 -1.9135563039550925 -8.840313144183753
408 4.348323971999653 0.21739948945615695 6.405252842672871
546 5.478376733746392 9.517435754389846 6.1271873637700915
431 3.349999257991758 -5.858711387474109 -11.387980067582387
553 6.320191109645015 5.904332748570711 -1.7395933249005104
550 5.3438090034642 -12.026211604107152 -10.031685069243998
388 5.130422278084417 -0.6046733527232103 -7.834628112839661
557 4.098183759306438 5.134455592376309 6.766971558693997
530 -1.057105190303111 -4.280259592592818 -2.622852389007593
411 0.4152331644948518 1.8338296116546082 0.5327928252153434
392 3.312162083598072 3.601439053819453 1.8112062647466527
415 3.06677690416431 2.8694923123394576 3.266002638786828
534 -1.8015421508659708 -2.4243590345131456 -3.688057346896926
561 -2.998484789983312 -4.141209323069541 0.6152223906203865
419 -2.8771945476742253 1.2461080416010324 -0.23264108784417226
396 -3.709658306967555 -5.557336623003844 2.3516738986189596
538 3.14711182289259 2.17629958455427 2.7812141383785423
423 4.863173038955028 -1.4540237923640942 1.4214376579527936
565 -7.152842886020369 3.9301845560333843 0.19160265328492976
400 3.275676214808315 2.459531687333063 2.7058779439869234
542 5.754451862288416 2.727455107164669 6.754779945143078
404 3.0324392363446133 -5.1641462678238765 -0.6712236082182934
569 3.3653219798048473 5.635625080675527 6.33100168247948
432 -4.231107604040505 8.663954270007668 -5.54479866224903
453 3.319351180600199 4.601628481715394 8.819647586166656
311 7.933820094501493 4.317110217013191 5.260738753760971
412 -8.363131343681252 -3.052452311721786 10.338306314966509
574 -1.4010185040104959 0.331813984850329 3.9421847003339976
416 -3.754155932461182 -3.06765214791663 -0.1775010647818696
291 1.472629750812097 1.029687262325244 -0.6822742292434493
554 1.8803497352882674 0.46994436035597476 -10.828909675106846
437 -0.45285437000569384 -4.192426331964785 -2.1671706209216364
295 5.16097077805612 2.7364494633000365 -2.275344539975739
558 1.9309602541757058 -9.412653686873773 0.8713350531302101
420 -2.176371082385456 -2.5650728708139 3.1990950103686133
441 -0.32469399212416594 2.351605278681893 3.2059582338924644
562 1.3731540262349893 -2.7093922800478496 1.641109677355534
299 5.873058064260728 1.2443296956051233 5.279068257588075
566 5.967058029152578 -6.730394621961415 0.26261349825034414
424 1.8371783477981973 3.032255557649686 -7.70662726179694
303 1.5957746662713697 1.7213067721984507 1.7053340724462476
445 -15.31104614551665 -5.349983751444394 -1.2824870478324866
570 20.025842311118915 -6.0562432466770275 -6.624231501923009
307 -4.190170201440104 -5.948230429237427 3.2242667903943962
428 -5.576422787437508 3.915189828916462 1.8052262534406072
449 10.953561067941198 -10.287775194012168 -2.560482264179997
312 11.098606298132186 -16.747864736205173 -2.0683199451190095
450 4.307674818000577 1.6590499832089771 -1.6539262165217865
433 5.5530939125323915 -2.1428758155486705 -9.607763110785974
292 2.106092382083051 6.4647624015489855 0.8349654282303882
454 -3.0830315997292286 -11.317297858374145 -2.027266681760509
434 -11.786981542696289 -3.8408059318003773 9.479938178180774
296 1.3756020544306051 3.1313437841860114 -7.245722660077386
438 8.254032921872994 -0.49903925406974714 -1.432506548441459
300 -0.7657863050065691 -9.26825343719374 10.263704214219812
442 1.606496087592352 -4.935241050324233 -3.3809738136440277
304 -1.6667005115287212 -0.2487138164838374 -4.044995103837778
327 -3.7373355733434 2.955813548456885 -0.0802991159426347
446 1.2718377478435317 -4.573463715805381 11.565647355803925
331 -6.428539370280687 5.941465454763203 -0.46616818650495895
473 -2.154234340750625 1.3617870603505413 -5.866347557595477
308 3.092750743944079 -5.228740365586448 1.6752315764343475
477 0.12231264732253751 4.635409003233304 1.31924099527367
336 -9.860878184156498 -1.3041454286267598 10.575317624616208
457 -7.332030344263379 -8.836565432723603 0.11416277887666126
335 3.7485722634011798 9.259368058286885 -0.25577647536912557
316 -7.299869949056113 -11.053429664165053 -7.014795752231949
478 -7.767184273540748 3.76215197923071 -7.332788744836028
315 -4.184172619873989 0.9540451436412837 -2.299322924769157
461 12.188122929065432 -0.9100197502456491 0.6866032253172734
458 -5.286692939711082 -4.888193698561096 5.830656342901436
320 -6.254899649218959 -4.042211532287609 -3.198707854632039
319 -1.0624065645820073 -12.724792712328938 1.1568366203003289
462 2.9391433053190728 -4.595341956342991 1.4512140653065517
465 10.560355505794721 -2.688037835744225 -4.987159943460097
323 0.09810226370731337 5.664597550115793 -6.850403581399709
466 2.2167448705333803 -11.54642890951341 4.246127827686378
324 -5.488772314269457 -9.189893890820082 -9.441428634048808
469 -9.486716700559924 7.828500080552763 5.150648980393934
470 6.697236078363657 2.106985269241139 -3.9102259910861075
328 -0.405389016690338 5.170850536739398 -11.819803446590193
474 8.727919244273272 -3.754241864692427 0.9044405011713667
332 2.9196430483829414 -4.557732961113772 -1.31090911155901
360 1.0164507332598782 -2.2897321713893932 -0.7016080260461671
498 1.0247781102676663 -9.553377279322532 -11.487196906970166
501 4.4897488780016985 -3.539581213002978 -0.9377690242742193
355 5.105984197359049 0.5500863398651181 6.668877179482273
359 -1.7025186607219125 -1.9446851471429383 0.8341402948009696
340 -8.040778392205077 -5.710950954082459 0.10548300447494628
481 7.767794034263847 -1.9759968898204963 7.552216350972533
502 -5.106364893780558 -11.11333292345774 3.1243304624287496
482 5.806024209611951 -0.17600726587261545 5.693566270357666
339 2.8624057103922587 -7.341671655395001 -3.119805122813826
344 1.5841351992600612 2.9529739393043193 -8.10559174659781
485 -7.011844237698598 0.4808650352472958 3.161268323150472
486 -1.3968518526323712 -3.9808851777411802 -5.795884617116333
343 -6.389738797812282 0.49550150797801534 -2.6623103299756212
348 8.890658202339322 -2.4708500927865504 0.004949810587252987
489 1.8317530964739 -6.7756558723576 -2.7274743018082974
490 -1.2860323745535578 -5.343064442023195 0.25234418640796136
347 -3.785844515145287 1.7348075424590284 3.2588141917852305
351 2.134803565282585 -3.662437544420164 -1.9548457710018212
352 7.997316234788509 -5.154497151401057 -10.094014016303554
494 10.265304216445308 2.865439841755346 -10.998553183464471
493 -8.15347503501869 -3.887057569170997 -0.6749406402923728
497 5.867032476123298 0.6220853363096779 9.211383599891398
356 2.6720256200561776 -2.4663978885727635 -2.2390399317400753
525 2.0096634511456832 6.058359331478798 2.338851813281831
384 -0.45520863362307745 -4.520034229076484 -2.349196765757076
379 7.96782445703923 12.109395775063232 -2.997430516790165
364 7.405086287976717 -1.9005996963675393 -4.732827888177494
383 -8.06434548752899 0.6976239865350218 7.093631295018738
505 1.3982048076693965 2.1997624830192715 -1.687184370743543
506 -2.4522858964717456 0.27055171517197274 -4.158385000637934
509 -6.048593865659514 -8.388653625976147 1.0644566174984325
363 -4.942282259414055 1.4924836055244017 6.382364292766773
510 -1.1569532000156397 5.6512247938912115 -1.7138607403873445
367 2.5829487945928586 -2.61247743129672 -10.566047086198953
513 10.345609050412941 1.3174556463302118 9.374985186617609
372 6.58960728062847 4.822739380366842 -4.3041437605757835
371 -3.4798012032316725 3.094587217973679 4.751354708192803
514 -0.7332653264563436 2.035384349256868 -12.98392810751052
517 1.135917941809827 -6.300384584638304 -0.4506664926389357
376 -1.704669257503269 1.214150810195539 0.5160097662911356
375 10.567619535331977 -5.42128540121476 0.9023675087680708
518 3.4192806273335616 -3.8603944958153953 2.4323543626123425
522 4.408809710189168 1.7432684641459664 -0.8992863980631491
521 -5.6933355421826874 1.7712983418633463 -2.7890276850709497
380 10.09855789943856 1.207221541195442 6.0749750375483345
403 -7.174937490015168 -4.737056548061352 4.576852561250655
549 7.2895079717685745 8.596241655100897 3.1834982472547866
526 -2.672364165600913 2.3784216743613604 4.681366427857365
529 -1.3758436577692486 3.5684088561093326 5.558158880293178
407 -3.143473865649131 6.677819382411528 7.494014712015086
368 1.9514976073898873 -22.730645888789038 -8.7367666320369
533 -3.1399864164579125 5.038580030033485 -8.898962931782108
387 1.5276796926929996 -1.9590498371535197 7.157320374670848
391 1.5183274479999382 -6.77780790640524 -5.616337600679152
537 3.2878592026077733 -7.978734191818945 1.8870970205867261
395 -1.1045510695115124 8.967906100366116 0.16873380323167234
399 -2.716126069273313 4.183920781342731 3.185668191909535
541 -1.5237224694128495 -0.8295815605088805 -10.107374437263985
545 1.809961541079785 7.119586449976205 -1.6360348315259547
