LAMMPS (10 Sep 2025)
  using 1 OpenMP thread(s) per MPI task
# Latent heat: <H>_liquid - <H>_solid at T (NPT, P = 0), pure Al.
#   mpirun -np 8 lmp -in in.enthalpy -var pot alnb -var T 930 -var phase solid|liquid
variable pot   index alnb
variable T     index 930
variable phase index solid
variable seed  index 7211
variable n     index 8
variable neq   index 10000
variable nprod index 25000
variable Tmelt index 1700
variable a0 equal 4.05
if "${pot} == alnb" then "variable a0 equal 4.0447"
if "${pot} == borovikov" then "variable a0 equal 4.016"
variable a0 equal 4.016
if "${pot} == mendelev" then "variable a0 equal 4.045"

units        metal
atom_style   atomic
boundary     p p p
lattice      fcc ${a0}
lattice      fcc 4.016
Lattice spacing in x,y,z = 4.016 4.016 4.016
region       box block 0 ${n} 0 ${n} 0 ${n}
region       box block 0 8 0 ${n} 0 ${n}
region       box block 0 8 0 8 0 ${n}
region       box block 0 8 0 8 0 8
create_box   1 box
Created orthogonal box = (0 0 0) to (32.128 32.128 32.128)
  1 by 1 by 2 MPI processor grid
create_atoms 1 box
Created 2048 atoms
  using lattice units in orthogonal box = (0 0 0) to (32.128 32.128 32.128)
  create_atoms CPU = 0.151 seconds
mass         1 26.982
include      pot_${pot}.lmp
include      pot_borovikov.lmp
# Borovikov, Mendelev, Zarkevich, Smith, Lawson, Int. J. Plast. 178 (2024) 104004 — EAM/FS Ni-Al-Nb (NIST IPR)
pair_style eam/fs
pair_coeff * * ../../potentials/NiAlNb_Borovikov2024/Ni-Al-Nb.eam.fs Al
timestep     0.002
thermo       1000
thermo_style custom step temp press pe enthalpy vol

if "${phase} == liquid" then    "velocity all create ${Tmelt} ${seed} mom yes rot yes dist gaussian"    "fix m all npt temp ${Tmelt} ${Tmelt} 0.2 iso 0.0 0.0 2.0"    "run ${neq}"    "unfix m" else    "velocity all create ${T} ${seed} mom yes rot yes dist gaussian"
velocity all create ${T} ${seed} mom yes rot yes dist gaussian
velocity all create 817.75 ${seed} mom yes rot yes dist gaussian
velocity all create 817.75 7211 mom yes rot yes dist gaussian

fix          eq all npt temp ${T} ${T} 0.2 iso 0.0 0.0 2.0
fix          eq all npt temp 817.75 ${T} 0.2 iso 0.0 0.0 2.0
fix          eq all npt temp 817.75 817.75 0.2 iso 0.0 0.0 2.0
run          ${neq}
run          5000
Neighbor list info ...
  update: every = 1 steps, delay = 0 steps, check = yes
  max neighbors/atom: 2000, page size: 100000
  master list distance cutoff = 8.9
  ghost atom cutoff = 8.9
  binsize = 4.45, bins = 8 8 8
  1 neighbor lists, perpetual/occasional/extra = 1 0 0
  (1) pair eam/fs, perpetual
      attributes: half, newton on
      pair build: half/bin/atomonly/newton
      stencil: half/bin/3d
      bin: standard
Per MPI rank memory allocation (min/avg/max) = 3.559 | 3.559 | 3.559 Mbytes
   Step          Temp          Press          PotEng        Enthalpy        Volume    
         0   817.75         6962.2129     -7299.78       -6939.299       33162.791    
      1000   832.61732     -221.58761     -7062.7574     -6847.3781      35628.131    
      2000   819.75101     -1828.279      -7084.8097     -6908.3948      35480.529    
      3000   814.18561      532.19109     -7063.5564     -6836.3044      35590.638    
      4000   805.63726     -924.10565     -7075.1807     -6882.5122      35541.237    
      5000   801.31321     -1859.0353     -7070.2215     -6899.5246      35616.863    
Loop time of 309.732 on 2 procs for 5000 steps with 2048 atoms

Performance: 2.790 ns/day, 8.604 hours/ns, 16.143 timesteps/s, 33.061 katom-step/s
44.9% CPU use with 2 MPI tasks x 1 OpenMP threads

MPI task timing breakdown:
Section |  min time  |  avg time  |  max time  |%varavg| %total
---------------------------------------------------------------
Pair    | 182.9      | 206.25     | 229.59     | 162.6 | 66.59
Neigh   | 3.7636     | 4.4045     | 5.0455     |  30.5 |  1.42
Comm    | 52.033     | 73.893     | 95.754     | 254.3 | 23.86
Output  | 0.0053097  | 0.0081494  | 0.010989   |   3.1 |  0.00
Modify  | 19.719     | 20.628     | 21.536     |  20.0 |  6.66
Other   |            | 4.551      |            |       |  1.47

Nlocal:           1024 ave        1030 max        1018 min
Histogram: 1 0 0 0 0 0 0 0 0 1
Nghost:         4287.5 ave        4294 max        4281 min
Histogram: 1 0 0 0 0 0 0 0 0 1
Neighs:          86724 ave       89112 max       84336 min
Histogram: 1 0 0 0 0 0 0 0 0 1

Total # of neighbors = 173448
Ave neighs/atom = 84.691406
Neighbor list builds = 172
Dangerous builds = 0
variable     h equal enthalpy/atoms
variable     v equal vol/atoms
fix          avg all ave/time 10 100 1000 v_h v_v c_thermo_temp file H_${pot}_${phase}_${T}.dat
fix          avg all ave/time 10 100 1000 v_h v_v c_thermo_temp file H_borovikov_${phase}_${T}.dat
fix          avg all ave/time 10 100 1000 v_h v_v c_thermo_temp file H_borovikov_solid_${T}.dat
fix          avg all ave/time 10 100 1000 v_h v_v c_thermo_temp file H_borovikov_solid_817.75.dat
run          ${nprod}
run          15000
Per MPI rank memory allocation (min/avg/max) = 3.559 | 3.559 | 3.559 Mbytes
   Step          Temp          Press          PotEng        Enthalpy        Volume    
      5000   801.31321     -1859.0353     -7070.2215     -6899.5246      35616.863    
      6000   821.55236      163.83342     -7076.2567     -6855.2477      35498.628    
      7000   837.79719      564.72057     -7079.4969     -6845.3202      35461.882    
      8000   794.94945      1291.3293     -7066.2525     -6827.2697      35537.572    
      9000   806.03424     -2313.5438     -7067.1009     -6905.3206      35659.727    
     10000   830.1642      -4236.2677     -7069.966      -6944.7379      35713.734    
     11000   834.84559     -1028.885      -7068.9497     -6870.9268      35618.538    
     12000   807.18884     -463.06276     -7064.345      -6861.0564      35602.7      
     13000   801.96811      1928.6342     -7076.4543     -6821.5805      35452.83     
     14000   826.81302      564.35019     -7061.183      -6829.8708      35604.126    
     15000   799.13396      849.87186     -7070.7357     -6840.46        35495.198    
     16000   792.67309     -3481.3435     -7078.5263     -6946.1465      35601.51     
     17000   835.97293      1243.1093     -7068.8501     -6820.078       35543.114    
     18000   834.1379       1825.6031     -7069.3078     -6808.1424      35504.963    
     19000   816.70434     -1572.525      -7076.7943     -6895.6053      35565.46     
     20000   810.45811     -1088.987      -7071.799      -6881.5333      35571.942    
Loop time of 1064.07 on 2 procs for 15000 steps with 2048 atoms

Performance: 2.436 ns/day, 9.852 hours/ns, 14.097 timesteps/s, 28.870 katom-step/s
44.7% CPU use with 2 MPI tasks x 1 OpenMP threads

MPI task timing breakdown:
Section |  min time  |  avg time  |  max time  |%varavg| %total
---------------------------------------------------------------
Pair    | 632.26     | 714.8      | 797.34     | 308.7 | 67.18
Neigh   | 12.031     | 15.051     | 18.071     |  77.8 |  1.41
Comm    | 172.61     | 252.09     | 331.56     | 500.6 | 23.69
Output  | 0.14902    | 0.20776    | 0.26651    |  12.9 |  0.02
Modify  | 65.569     | 68.782     | 71.995     |  38.7 |  6.46
Other   |            | 13.14      |            |       |  1.24

Nlocal:           1024 ave        1033 max        1015 min
Histogram: 1 0 0 0 0 0 0 0 0 1
Nghost:           4288 ave        4297 max        4279 min
Histogram: 1 0 0 0 0 0 0 0 0 1
Neighs:        86906.5 ave       90806 max       83007 min
Histogram: 1 0 0 0 0 0 0 0 0 1

Total # of neighbors = 173813
Ave neighs/atom = 84.869629
Neighbor list builds = 539
Dangerous builds = 0
Total wall time: 0:23:10
