LAMMPS data file via write_data, version 10 Sep 2025, timestep = 5000, units = metal

3456 atoms
1 atom types

-0.19450711058451198 24.49450711058452 xlo xhi
-0.1518913003830864 24.451891300382975 ylo yhi
-0.6244412069293048 97.82444120692944 zlo zhi

Masses

1 26.9815

Atoms # atomic

4 1 0.3120592505690123 2.0135942232631083 1.261631973860099 0 0 0
8 1 4.330060740302389 1.496323386529916 1.245586671481002 0 0 0
7 1 6.433876007556618 23.843675712459074 1.6631659918714958 0 -1 0
12 1 7.919631804647317 1.622316722489601 1.447223203023864 0 0 0
16 1 12.045620905602808 1.9469302273286475 1.3570418070502872 0 0 0
20 1 16.17972251181174 1.9517524745304011 1.5678512166362824 0 0 0
15 1 14.333896356241706 -0.14140494065253234 1.1929989473152822 0 0 0
24 1 20.469648669009544 1.9589473473630958 1.209877425596622 0 0 0
117 1 20.5339678606042 16.096330183162472 -0.619922078677265 0 0 0
94 1 22.187888833998684 14.114642318251198 -0.6156969812341718 0 0 0
23 1 22.544464723114544 24.352561355040642 1.495168717771607 0 -1 0
78 1 5.704608585253238 14.361149820218687 -0.447830278438356 0 0 0
27 1 2.02214249520779 3.9116427048271776 1.277604753482312 0 0 0
28 1 -0.06192547495514758 5.814100105061877 1.5266295782780874 0 0 0
31 1 6.109323961253415 3.500372730062081 1.4631535500776498 0 0 0
32 1 3.786875624786581 6.187061027502577 1.279110741007228 0 0 0
36 1 7.941262088287976 6.070191500313889 1.325003044749003 0 0 0
35 1 10.250416600765154 3.948531005140686 1.1862722678742206 0 0 0
40 1 12.188747177569832 6.027939285811555 1.3146805948261369 0 0 0
39 1 14.170889789174012 3.9477997056570837 1.384268426373029 0 0 0
44 1 16.257931866591115 5.8973841572918095 1.4380984280557985 0 0 0
110 1 14.25567772404956 18.36970639119979 -0.4740014330555713 0 0 0
43 1 18.364906493876695 3.9994250216132876 1.3779869850138735 0 0 0
48 1 20.449294318644995 5.8181164354674015 1.3287577588010449 0 0 0
743 1 22.35110768997192 0.06361027082789375 22.075540655637116 0 0 0
47 1 22.683887802192963 3.943741832242031 1.740012329100788 0 0 0
102 1 6.051258572550336 18.36052280364654 -0.4761000513521115 0 0 0
66 1 18.03599572420628 10.307550902865305 -0.4652101293283522 0 0 0
51 1 1.8331870587705446 8.265960369045617 1.3312705991192397 0 0 0
52 1 24.45950097598113 10.363890417426378 1.3093458108710023 -1 0 0
42 1 18.502063707396964 6.123817246535872 -0.5381178491895213 0 0 0
55 1 6.0723592444328744 8.365270147475545 1.494125641608965 0 0 0
56 1 3.8869333686125422 10.234203326650599 1.2771741066750832 0 0 0
844 1 24.079716674741917 22.263182659332344 22.15599936736486 -1 0 0
60 1 7.995983311594461 10.286478456531125 1.4595287069987912 0 0 0
59 1 10.015336291239702 7.783514968602401 1.6729307726304987 0 0 0
64 1 11.866117493463607 9.95095293915728 1.5647951511965954 0 0 0
739 1 18.186120718052173 24.304243516749388 21.961825225870708 0 -1 0
63 1 14.115759224834745 8.120816333672366 1.3956970578245183 0 0 0
68 1 16.079947917284493 9.934161783025969 1.280479571206561 0 0 0
10 1 10.145851049733297 1.7459035540311283 -0.5961571024758388 0 0 0
67 1 18.786054452242226 7.932432449840864 1.389112813876403 0 0 0
72 1 20.539162947521355 9.931387315680286 1.3872535605117347 0 0 0
30 1 5.898110001435733 5.803796566757629 -0.32432168840984615 0 0 0
71 1 22.489720892455274 7.9774010846245655 1.2154093699332542 0 0 0
1 1 24.37467088085545 0.20005704823293513 -0.3721581080689964 -1 0 0
74 1 1.5104735551084418 14.275864875839247 -0.6061109345417012 0 0 0
75 1 1.669730502282965 12.36897090173183 1.3041330258485155 0 0 0
79 1 5.661128139400933 12.190159130572896 1.3162100142269118 0 0 0
83 1 10.031532155648623 12.317546010805001 1.2818475523115436 0 0 0
87 1 14.0350027099026 12.066529973629098 1.3639464477504277 0 0 0
864 1 20.418438762779104 22.58347280064217 21.998223537942113 0 0 0
91 1 18.524801919508242 12.225741449715725 1.4388625142677332 0 0 0
95 1 22.591914762816458 12.048116159784986 1.8891790571321638 0 0 0
99 1 1.6910241738976026 16.060523484077862 1.511005748963357 0 0 0
76 1 24.35635365662013 14.264785691601022 1.5281778593024455 -1 0 0
860 1 16.07278809693412 22.339233409429653 21.851062434063696 0 0 0
80 1 3.7421695148668106 14.075115521302775 1.2400483171251353 0 0 0
103 1 5.947408225251118 16.430965656821435 1.5145151746906587 0 0 0
84 1 7.791617288533755 14.329172660640568 1.1917227670156165 0 0 0
107 1 10.585233289732917 16.12034914961363 1.426775894813424 0 0 0
62 1 13.956613545637195 9.980336854413892 -0.569290068511369 0 0 0
735 1 14.137597644840008 -0.022647006110742246 22.064217040730572 0 0 0
88 1 12.245289119017025 13.974179777503965 1.2142247634871421 0 0 0
969 1 8.154324327195178 16.284648023530032 23.72739368771801 0 0 0
937 1 24.35415928312768 12.471613685570444 23.87102605092112 -1 0 0
92 1 15.886457128746981 14.406355423448398 1.2498820689751728 0 0 0
111 1 14.070583075914643 16.237628187284734 1.510470326020405 0 0 0
922 1 10.05899846185337 9.703847669788065 23.655625606326222 0 0 0
921 1 7.588500302373252 8.009981088140684 23.888736158396615 0 0 0
96 1 20.30805635879541 14.19895624094655 1.2874246932895448 0 0 0
115 1 18.13786885105207 16.18999149439548 1.1719483186578465 0 0 0
856 1 12.220225869869758 22.416268828863657 21.673283841466805 0 0 0
731 1 10.155105920143564 -0.06650480786970683 21.948640306623652 0 0 0
119 1 22.446145031995982 16.256271598263403 1.3617645560319074 0 0 0
123 1 1.8149533862816365 20.1932694548656 1.276632567940573 0 0 0
100 1 -0.16175886224639768 18.198151277210023 1.3093224550421871 0 0 0
104 1 3.804525307908963 18.38397367507185 1.2338750837767585 0 0 0
127 1 5.855606002599192 20.215358196196213 1.415576346338773 0 0 0
852 1 7.727341194148862 22.49619155811594 21.72972318618943 0 0 0
108 1 8.519943925358307 18.2424123886679 1.4430693395564473 0 0 0
131 1 10.352418399451757 20.148166524531703 1.3146329709710685 0 0 0
112 1 12.249810797542903 18.216035717543548 1.5958395367728908 0 0 0
994 1 9.489352606035546 22.7302723894947 23.9559004803617 0 0 0
827 1 10.184513203360446 16.34005810609421 21.60107323384762 0 0 0
135 1 13.930122340653082 20.445909933182264 1.1891383734982093 0 0 0
116 1 16.231553674967806 18.371094515715313 1.4566071210014915 0 0 0
823 1 6.061866366549525 16.39360553996172 21.976903424646558 0 0 0
120 1 20.656564768663856 18.34834886800966 1.2433923467185173 0 0 0
139 1 18.281185816425598 20.099572163564346 1.2976873601119883 0 0 0
934 1 22.50938685703352 10.217006359306284 23.855697088183607 0 0 0
143 1 22.512336685178084 20.137255945345196 1.9157466280493338 0 0 0
3 1 2.0088361695404853 -0.05085634378368553 1.5486161130383382 0 0 0
124 1 24.406226633634418 22.216561649903497 1.30451075747972 -1 0 0
128 1 3.849763233149287 22.46475019146156 1.183011125297904 0 0 0
796 1 24.10305502933693 14.156196649067779 21.854387224911985 -1 0 0
11 1 10.146399933717683 24.109826973967717 1.349561432504869 0 -1 0
132 1 8.157370832059966 21.933581400635923 1.4219237011021448 0 0 0
727 1 5.597053265295355 0.006015992939323839 21.933987016932377 0 0 0
136 1 12.49992850458241 22.596293905512347 1.414085715019675 0 0 0
848 1 3.970321875607376 22.309961923296747 22.049156281974927 0 0 0
819 1 1.5144863228925725 16.315787602574943 22.36305027889922 0 0 0
140 1 16.405434744252325 22.45511686258142 1.0600800849282592 0 0 0
723 1 1.7989023361279257 24.28934153840018 22.532256126323258 0 -1 0
19 1 18.36905644395941 0.12570909383477868 1.3969812333734524 0 0 0
144 1 20.43332474918475 22.527088614011312 1.114767981565588 0 0 0
146 1 2.006198786100234 1.6705987473438806 3.589769875138357 0 0 0
148 1 0.161442124127685 1.7881563820674944 5.633068535021343 0 0 0
150 1 5.998721550124799 1.5744081459592079 3.411409941820236 0 0 0
152 1 4.236794746848768 1.8919825879918033 5.872640018552055 0 0 0
151 1 6.0266351871463675 24.276266323261083 5.294072968874488 0 -1 0
154 1 9.956885847767664 2.2224038179547354 3.5545284501461527 0 0 0
156 1 7.833199822123088 1.8406222453478436 5.489824145870147 0 0 0
155 1 9.93042601683363 24.34510171344583 5.708725996272929 0 -1 0
160 1 12.14150522689626 1.7273719528732763 5.47903677346255 0 0 0
157 1 12.065633331944326 0.10072587992624438 3.3596285120816742 0 0 0
158 1 14.080952632317418 1.9326058403970658 3.1975626427058406 0 0 0
161 1 16.288318224601603 0.01953721291337729 3.2616071506825226 0 0 0
164 1 16.368542657337017 1.9910055801483204 5.351410540497475 0 0 0
162 1 18.189188764171774 2.0954870336361693 3.217269948463351 0 0 0
168 1 20.59053451450334 1.8331190469338565 5.212765556847496 0 0 0
163 1 18.198948623535756 -0.07211874589013227 5.48806472188489 0 0 0
166 1 23.153979344358454 1.5995406110298702 3.5127019220368396 0 0 0
145 1 0.083056410274567 24.11557881257312 3.3120111730016326 0 -1 0
170 1 2.124262004022278 6.3280399859513805 3.238545664772944 0 0 0
171 1 1.950709368622626 3.7709494391070284 5.339482211853099 0 0 0
169 1 0.1830097998262804 3.848707433405985 3.5785338570350147 0 0 0
172 1 0.19567606357991008 5.869746950244535 5.469767381714868 0 0 0
173 1 3.856891169225465 4.011206956762907 3.6400675747120257 0 0 0
174 1 5.983612580372422 6.113101575885875 3.303351175606422 0 0 0
175 1 6.072317280094492 4.050570146478757 5.376570188127064 0 0 0
176 1 3.7202624851393846 6.1101442600704665 5.556629940013292 0 0 0
177 1 7.934297242478392 3.9206349057364616 3.4652083323424687 0 0 0
178 1 9.977206705558505 5.766253867187151 3.4468429991773144 0 0 0
179 1 10.224786177201633 4.127695126822149 5.450007574900686 0 0 0
180 1 7.976961028161531 6.02207490942791 5.139814643677538 0 0 0
181 1 12.097976094576989 3.9638526975327917 3.373897136883808 0 0 0
184 1 12.174150467897967 6.277981486957231 5.3948161260639464 0 0 0
182 1 14.45964438319192 5.995469971034795 3.509055972437115 0 0 0
183 1 14.239975071646514 3.9922250539971573 5.7522173244812445 0 0 0
185 1 16.20966464000187 3.9431182033250263 3.584597274259658 0 0 0
188 1 16.189060622586133 5.942367657142033 5.414342167952049 0 0 0
186 1 18.47861449250751 5.971446028239444 3.5918402477281663 0 0 0
187 1 18.606340947969173 3.777632707864452 5.551730118906521 0 0 0
192 1 20.639736559517964 5.943480630984381 5.7082695137004436 0 0 0
189 1 20.232167428195154 3.919530753988284 3.2282805060757673 0 0 0
190 1 22.314013799859758 5.853870246170871 3.4269125205814435 0 0 0
191 1 22.70345872232526 3.8134445099304717 5.61583690044153 0 0 0
194 1 1.7155233422473442 10.164812120836197 3.2881050285641 0 0 0
195 1 1.883995800841371 7.956275517179236 5.471130943674119 0 0 0
193 1 24.413787418368273 7.69072723604549 3.2230647464113766 -1 0 0
196 1 24.479156065202154 9.87875625082692 5.45973742568715 -1 0 0
197 1 4.130881664142346 8.399445091043207 3.59525498051483 0 0 0
199 1 5.915947003236223 7.95272615737257 5.448475340274476 0 0 0
200 1 3.918849387984105 10.109517096895727 5.661368041552084 0 0 0
198 1 5.862952290959638 10.25112172569096 3.5818680531228866 0 0 0
201 1 8.062923777781203 8.30957262010481 3.6165482021089455 0 0 0
202 1 9.847402208371504 10.17949348253428 3.4689519900294767 0 0 0
203 1 9.837895179078762 8.01138887896251 5.81729164509524 0 0 0
204 1 7.816245065305461 10.166241320041722 5.450973735520114 0 0 0
205 1 12.311492535050835 7.99064519041942 3.4496530494755424 0 0 0
208 1 11.957347261349277 10.02577402362297 5.323058767114743 0 0 0
206 1 14.322172869812508 10.19699868659324 3.3739864024211523 0 0 0
207 1 13.964150251490866 8.245332614108229 5.5414364955410775 0 0 0
209 1 16.373846061905894 8.182258026938047 3.1766870951560118 0 0 0
212 1 16.13177904938948 10.123775850046695 5.53403595342284 0 0 0
210 1 18.154085973851593 10.290665872372978 3.331087316489683 0 0 0
211 1 18.35231859352797 8.37941007516182 5.297970808265731 0 0 0
213 1 20.584969370730832 7.937357675747256 3.5416183663815373 0 0 0
216 1 20.5308335426297 9.854144084036072 5.822658776560647 0 0 0
214 1 22.652343892736553 9.838121697237783 3.5085266207039743 0 0 0
215 1 22.71016082032466 7.813482783967902 5.541112516174774 0 0 0
219 1 1.9106952134866897 12.126699067670032 5.316582637797557 0 0 0
217 1 24.43972720125943 12.43848701285954 3.630239964241497 -1 0 0
221 1 3.7256270766723563 12.400264711405319 3.4548093006670113 0 0 0
223 1 5.913206465958965 12.199926151526652 5.497429074232798 0 0 0
225 1 7.957459721250446 12.205136444779718 3.416047418759189 0 0 0
227 1 10.119545653043497 11.886566653838852 5.444391601506945 0 0 0
229 1 11.745526985804286 12.139778130742895 3.4757485748059667 0 0 0
231 1 13.915784392205449 12.044368723807182 5.268302257668081 0 0 0
233 1 16.163487804645662 12.140546043211721 3.3066878711749363 0 0 0
235 1 18.675193186514683 11.912918942401824 5.820056641734457 0 0 0
237 1 20.46636364954734 12.127240533768601 3.750423944824697 0 0 0
239 1 22.287843944596887 12.287622182504403 5.715322614181984 0 0 0
218 1 1.7380935495619334 14.30337542621939 3.4640066078581615 0 0 0
220 1 -0.19292300125847342 14.069173416543066 5.986428735525492 0 0 0
243 1 1.752880327597563 16.220067533261897 5.467802878985327 0 0 0
241 1 24.29132226079534 16.583468101482374 3.458348479764008 -1 0 0
222 1 5.817769922119074 14.287007498913372 3.340422093896354 0 0 0
224 1 3.7727045373887194 14.068450368254029 5.375331112667569 0 0 0
245 1 3.926005562561188 16.283320158869174 3.3317723057659574 0 0 0
247 1 5.798308564355204 16.013068810890715 5.4717268222352065 0 0 0
226 1 10.121907162718193 14.48145158896387 3.176146367152649 0 0 0
228 1 8.21651903083551 14.194648150906856 5.45691320788283 0 0 0
249 1 8.184962136754915 16.141146898761875 3.49140212265738 0 0 0
251 1 10.185409252950356 16.30863661628345 5.687525140962397 0 0 0
232 1 11.97641157319734 13.920322600800743 5.741525482377381 0 0 0
253 1 12.19116777945169 16.32241340252653 3.895071663904913 0 0 0
230 1 14.254760511924806 14.33580313187145 3.432412119331783 0 0 0
236 1 16.06663053334269 14.13774419766984 5.312639095756444 0 0 0
255 1 14.326260137964931 16.208762633014132 5.723626878045008 0 0 0
257 1 16.324294896072054 16.31838236291277 3.4190418395158018 0 0 0
240 1 20.41959685007256 14.420839079059288 5.429165445801142 0 0 0
234 1 18.32333669094279 14.114010290589507 3.680447060981999 0 0 0
259 1 18.32843493494375 16.09324401635186 5.440763321082958 0 0 0
261 1 20.24114679861784 16.16237167494281 3.255265155066344 0 0 0
238 1 22.250652996322614 14.25492479034838 3.6448723687269053 0 0 0
263 1 22.603724047644626 16.283231611923696 5.620329759592052 0 0 0
242 1 2.0160898488679995 18.203327994177094 3.3855940880948436 0 0 0
267 1 1.727331288702224 20.29258333655858 5.735119782209933 0 0 0
265 1 24.48064217460849 20.282527883322636 3.7946980650353535 -1 0 0
244 1 0.033130075870062115 18.19518619374722 5.428555560175558 0 0 0
246 1 5.9983393399613405 18.178342397163846 3.733370860653639 0 0 0
248 1 3.794425082622044 18.252284360920108 5.713515478198607 0 0 0
269 1 3.68462898009596 20.066069338226228 3.509543043029269 0 0 0
271 1 5.750827441948006 20.317726051385193 5.56201905296458 0 0 0
250 1 10.148211878080824 18.34094085681015 3.638847105864264 0 0 0
252 1 8.04414440401261 18.42961085635764 5.3676120091279484 0 0 0
273 1 8.080577166304016 20.19827280668686 3.3854231550710914 0 0 0
275 1 9.701286624144654 20.322081109085843 5.866081271216359 0 0 0
256 1 12.126451238261593 18.60361477350655 5.548905204285295 0 0 0
277 1 12.258393651008678 20.535081777442954 3.3628412280443234 0 0 0
279 1 14.304563900986667 20.42049360340996 5.579643333717521 0 0 0
254 1 14.174235611035074 18.11899035696247 3.5016035141019755 0 0 0
260 1 16.392071693995504 18.459085838772438 5.308750913621225 0 0 0
281 1 16.368210379868337 20.377427463059504 3.29877998990558 0 0 0
258 1 18.254733676973203 18.27873009540575 3.435825085621797 0 0 0
264 1 20.30799861022504 18.160384265200086 5.360828532951342 0 0 0
283 1 18.3258409393342 20.308578802555246 5.458344782520628 0 0 0
285 1 20.06868610099957 20.191354353628185 3.0940784836876185 0 0 0
262 1 22.19409623153276 18.243400054267482 3.5119291971493602 0 0 0
287 1 21.89976054631407 20.34401013896249 5.115664807590774 0 0 0
147 1 2.158899415593644 24.42220329041362 5.634185676462754 0 -1 0
266 1 1.9940009695817915 22.285317651030766 3.491353241060458 0 0 0
268 1 -0.13097075975548036 22.428455626977325 5.473551150798637 0 0 0
149 1 4.10039893357261 24.075809461618398 3.442416547581951 0 -1 0
270 1 5.848785112368832 21.805150084715386 3.6255424734013344 0 0 0
272 1 3.9684196900681536 22.469244574119948 5.722576651535164 0 0 0
153 1 8.288011373966693 -0.14161733979364044 3.6048777307670754 0 0 0
274 1 10.326772192819009 22.380842268610884 3.3976062857007836 0 0 0
276 1 8.16845392524106 22.287743519659273 5.416069301846911 0 0 0
280 1 11.964406770251212 22.420989640476712 5.485644478886356 0 0 0
159 1 14.10230134401031 -0.10353222020262384 5.139784347879992 0 0 0
278 1 14.383350194376256 22.32858327759253 3.2055287572427043 0 0 0
284 1 16.10446964734941 22.436785160766966 5.33390099431552 0 0 0
165 1 20.493006700982633 -0.023637221209597797 3.3759317658307264 0 0 0
282 1 18.125255181900805 22.455511125612034 3.323675001067559 0 0 0
288 1 20.41651710148909 22.752254122332765 5.303903494948858 0 0 0
167 1 22.920731370439142 -0.07900796880934499 5.523588515998504 0 0 0
286 1 22.14092021279138 22.306473107031067 3.3245917923099695 0 0 0
290 1 1.7493982325421293 1.983763964930052 7.891466058444514 0 0 0
292 1 24.366951634976914 2.0257802920515404 9.876086573392664 -1 0 0
291 1 1.769024117186622 0.21074675980995805 9.673376885294314 0 0 0
294 1 6.429725057330623 2.1811943256862882 7.475876442383612 0 0 0
296 1 3.9351236832557754 1.9446683126054176 9.841532266089363 0 0 0
295 1 5.612616025980115 -0.039877672469842196 9.785515014839868 0 0 0
298 1 10.038089010402658 1.908355653800958 7.405733257284872 0 0 0
300 1 8.033501983033226 1.9047365823324158 9.349746176881373 0 0 0
299 1 10.158867553537375 24.324070942694025 9.580064005382882 0 -1 0
297 1 7.759897858611154 24.179167607395335 7.64667000006213 0 -1 0
302 1 14.403271699276035 1.872016529789235 7.489695595809724 0 0 0
308 1 16.31450451587522 2.006898332452658 9.658420167653619 0 0 0
305 1 16.14278007119286 -0.06599346298134379 7.270456475024989 0 0 0
306 1 18.056937216709805 1.9328812843990533 7.507774745784992 0 0 0
312 1 20.092131368533273 2.066293282003776 9.485095294596738 0 0 0
307 1 18.211356040202674 -0.12456206632181525 9.477327088541744 0 0 0
310 1 22.479004575652446 1.8861849116100315 7.683143402306037 0 0 0
314 1 1.829997264560951 5.902263172290421 7.812174617016527 0 0 0
315 1 2.0360021698425546 4.1349822070308475 9.908270704850288 0 0 0
313 1 -0.16132669292337984 3.8990612469697448 7.652142309570497 0 0 0
317 1 3.7581549999829598 4.074433093148917 7.554610199758169 0 0 0
318 1 5.850146393347264 6.051165530255355 7.327458627001312 0 0 0
320 1 3.947861934574271 6.038313408236019 9.596900197491866 0 0 0
321 1 8.246461876388558 4.273442127626017 7.86956065230069 0 0 0
322 1 10.282301362291491 5.98741219638884 7.578098363200539 0 0 0
323 1 10.18986112897895 4.046964112576334 9.730747853621848 0 0 0
324 1 7.783739371042372 6.212156052651562 9.548891930533006 0 0 0
325 1 12.285620872468165 3.8553053429154467 7.4213481090684095 0 0 0
328 1 12.493861779505037 6.025294843417317 9.35136778162279 0 0 0
326 1 14.365660555506583 6.225797178141035 7.316084272551137 0 0 0
327 1 14.22214785092525 3.8753997620817158 9.530217247685604 0 0 0
329 1 16.600268018199344 4.233846191680653 7.477906797844453 0 0 0
332 1 16.39509874756368 6.155564863944614 9.478333952864597 0 0 0
330 1 18.382156697474244 6.2785843340293175 7.69440987478983 0 0 0
331 1 18.378977759826633 4.042310920319688 9.656388603090626 0 0 0
333 1 20.19488264199088 4.043000224627089 7.400594794372763 0 0 0
336 1 20.716588381713777 6.014622419620976 9.419111617771968 0 0 0
316 1 0.025801468490655566 5.918971100141566 9.874615751227495 0 0 0
334 1 22.46639333314345 5.83022655319153 7.434037041017321 0 0 0
335 1 22.68688860310374 4.062786107074814 9.729552083132136 0 0 0
338 1 1.7377124780394446 9.726952084860518 7.3997821416481155 0 0 0
337 1 24.49051701952554 7.713697229427673 7.329661593534705 -1 0 0
339 1 1.9042417697620784 7.7740030360689785 9.886065550686727 0 0 0
341 1 3.806525254717112 7.878011780769098 7.615598140494296 0 0 0
342 1 6.1725895377077995 10.138918622045308 7.645236900203258 0 0 0
343 1 5.895146271526115 8.18746923513151 9.46893912103076 0 0 0
344 1 3.846292335633099 9.927845232756471 9.733811368765698 0 0 0
345 1 7.869265044830245 7.966471346014778 7.684025246090018 0 0 0
347 1 10.13252812496613 8.164947265514307 9.578201825549462 0 0 0
348 1 7.895382486878908 10.154332602872065 9.840382883249994 0 0 0
346 1 10.047510138053317 9.925771302275537 7.509337825336633 0 0 0
349 1 12.198485657594837 7.8933012511028195 7.552739454145081 0 0 0
352 1 12.162505390959158 9.979920723056958 9.617222817849214 0 0 0
350 1 14.250835270692793 10.290654939339344 7.48121393134473 0 0 0
351 1 14.534138180059479 8.288536007622701 9.608475132354991 0 0 0
353 1 16.300843890172715 8.320041144750764 7.497164289236014 0 0 0
356 1 16.582194243828894 10.426844093276934 9.665384257546132 0 0 0
355 1 18.089997377763552 8.127596971524282 9.533194185782506 0 0 0
357 1 20.34482581296554 7.8514486819609335 7.806996534678282 0 0 0
360 1 20.64089029622437 10.184458477243242 9.711206360164583 0 0 0
354 1 18.227289604224573 9.963018573692523 7.665814750725447 0 0 0
340 1 0.05097277169955969 10.014452117597031 9.70189168050476 0 0 0
359 1 22.69094813885321 7.888120580008268 9.667862346989473 0 0 0
358 1 22.6088808471212 9.840094688551874 7.733878726826449 0 0 0
361 1 -0.06614869881267538 12.001894244612622 7.531556833523929 0 0 0
363 1 1.6378315165435915 11.845970507296121 9.593539149856499 0 0 0
365 1 3.784527588191746 11.889561358095223 7.433644627096845 0 0 0
367 1 5.655694928241298 12.067963761511747 9.218259160816253 0 0 0
369 1 7.960529607150985 12.33753722238312 7.597732679425361 0 0 0
371 1 9.967409240309308 12.162892974946683 9.595275124729453 0 0 0
373 1 11.838287283303101 12.075028611929651 7.543867733538676 0 0 0
377 1 16.33608868334712 11.854916846780887 7.500240875596241 0 0 0
375 1 14.156213327814326 12.105214344452651 9.555947155245654 0 0 0
379 1 18.581885825886175 12.107226956827697 9.58352912534015 0 0 0
381 1 20.312443047836915 12.133355296944297 7.620369430530246 0 0 0
383 1 22.501318691938792 11.953824029923663 9.77876437566262 0 0 0
362 1 1.9111652951255667 14.080298872648166 7.901968247969201 0 0 0
387 1 1.8783517658677829 16.097730665602064 9.462389657005472 0 0 0
385 1 -0.009538743595598476 16.339841820844143 7.6040388166661295 0 0 0
364 1 24.441996678325527 14.091223558508885 9.415610127674219 -1 0 0
366 1 6.075855526248306 14.12510061363229 7.491583042993497 0 0 0
368 1 3.7572491910626336 13.950976621788367 9.438119867912903 0 0 0
389 1 3.915454382360628 16.033088107696152 7.465300324753549 0 0 0
391 1 5.712601786045488 16.063747492805383 9.635879892421752 0 0 0
370 1 10.003474150676734 14.13234254304827 7.548509253282543 0 0 0
372 1 7.713626890000961 14.286885716085841 9.586772521240414 0 0 0
393 1 8.045472126571363 16.34317361454088 7.622040250280717 0 0 0
395 1 9.646464813156578 16.139188469600214 9.694267409552127 0 0 0
397 1 12.357370029371165 16.115845751788086 7.607839597914106 0 0 0
376 1 12.038548788263107 14.170229301424788 9.47645489663409 0 0 0
374 1 14.058037936289873 13.90369025671266 7.536797442491864 0 0 0
399 1 14.317481018386395 15.995632589658937 9.16663866790168 0 0 0
401 1 16.32678723202406 16.229894749889795 7.469037040273685 0 0 0
380 1 16.318961481787184 13.961821180048705 9.509933010892116 0 0 0
378 1 18.131810916593274 14.10888152816802 7.398128934162516 0 0 0
384 1 20.185113727735455 14.402710043981372 9.402213059709718 0 0 0
405 1 20.22774735492969 16.295085366409552 7.437495414356752 0 0 0
403 1 18.126870716481022 16.259070066326153 9.365720477700808 0 0 0
382 1 22.37562788787718 14.184975649190324 7.633550784526069 0 0 0
407 1 22.285168641210795 16.208928498444088 9.511823968052907 0 0 0
386 1 1.6025642128589601 18.545127898001844 7.733315583892201 0 0 0
411 1 1.6466638180956483 20.11605027197595 9.643263007283288 0 0 0
390 1 6.183046875604956 18.093237621796895 7.300035179159273 0 0 0
392 1 3.918405087555896 18.03677910037171 9.53781745663099 0 0 0
413 1 3.865627432241869 20.125552155574987 7.647692558893141 0 0 0
415 1 5.990383306449703 20.203714304214174 9.447063189596042 0 0 0
394 1 10.13287047538024 18.214466121156732 7.782168795048863 0 0 0
396 1 7.854981035310416 18.023803831483335 9.745150829827345 0 0 0
417 1 7.877772904327699 20.15480908674516 7.622769514673912 0 0 0
421 1 12.067534363471726 20.210656143269894 7.5604945077986 0 0 0
398 1 14.285737831970915 18.206395788005608 7.574230498815659 0 0 0
423 1 14.074391663220231 20.353894508701067 9.636848098151312 0 0 0
425 1 16.46452960206163 20.117552257450846 7.57566518796537 0 0 0
404 1 16.237371609612346 18.427818225504872 9.415223686711355 0 0 0
402 1 18.35300692931859 18.230889972812314 7.190549433294714 0 0 0
408 1 20.133915935235997 18.286293977140637 9.071922212294698 0 0 0
427 1 18.266526212880613 20.530659922550505 9.391566433982106 0 0 0
429 1 20.2236032639318 20.543568308326975 7.448469531136949 0 0 0
388 1 24.032818615879258 17.989819057471664 9.606944317158703 -1 0 0
409 1 24.126881231224054 20.397104438968036 7.760396319983421 -1 0 0
406 1 22.334754773411717 18.37173190890006 7.1813200641784904 0 0 0
431 1 22.22051373779808 20.352493021716427 9.636989808533492 0 0 0
410 1 1.9564877903477633 22.511853766359152 7.73484589556676 0 0 0
412 1 -0.19329972273431273 22.50276300906095 9.524342090468348 0 0 0
293 1 3.9367315823413573 0.130608286551805 7.6364168331764155 0 0 0
414 1 5.826574394072482 22.343851319204326 7.720438641973585 0 0 0
416 1 3.8379573192768017 22.401750049633293 9.467894296932757 0 0 0
420 1 7.837075039935282 22.17837134264157 9.569528192735126 0 0 0
418 1 10.144316717605063 22.43159899415862 7.396626506488451 0 0 0
301 1 12.03682921444097 -0.05026099282778773 7.552270559111371 0 0 0
422 1 14.07641491541379 22.586338417812698 7.264714303848209 0 0 0
424 1 12.06813469725398 22.451994624937257 9.314838956113054 0 0 0
428 1 16.178527427428676 22.254153836185992 9.152437747900013 0 0 0
303 1 14.125166611104955 -0.009602849187182017 9.612577821753472 0 0 0
309 1 20.13607751748338 0.021940075485415295 7.155519253130888 0 0 0
426 1 18.19399524990709 22.704504692866536 7.38070000639113 0 0 0
432 1 20.45730206401749 22.646842151363536 9.29132706232291 0 0 0
289 1 -0.051624336151201794 24.367242853170097 7.503171521799455 0 -1 0
430 1 22.25886155623448 22.508755159892083 7.230544960469077 0 0 0
311 1 22.393272764190357 0.02926666355718055 9.283726049552794 0 0 0
434 1 1.749685684212629 1.747361777781816 11.78079951123003 0 0 0
438 1 5.994735175670034 2.2611979985211623 11.5813914821207 0 0 0
442 1 9.884428814366737 2.0586298086232477 11.60096243330297 0 0 0
304 1 12.099673155909322 1.857318332309231 9.599669882720749 0 0 0
446 1 14.068649467314966 1.9229178801443956 11.581681371030472 0 0 0
449 1 16.210455194595838 24.22577076333627 11.434198826576177 0 -1 0
450 1 18.485232311241106 1.9275631939948736 11.629865319161015 0 0 0
454 1 22.108604540333168 2.057457872670396 11.409038770618066 0 0 0
458 1 1.8092287616699148 6.200822645923553 12.154809609052407 0 0 0
319 1 6.038985793204825 4.148781667780392 9.600412811169067 0 0 0
461 1 3.8917721651297903 3.9439793711042057 11.868647946791405 0 0 0
462 1 5.890395202207725 6.225539430326048 11.596729359610242 0 0 0
465 1 8.137134111823014 4.008380988489572 11.490196076636309 0 0 0
466 1 9.884277293041952 6.0103902880559525 11.47884816038502 0 0 0
469 1 11.980352895273564 4.160051691398405 11.641606496549382 0 0 0
470 1 14.45823203254675 6.387952931556415 11.777876351838387 0 0 0
473 1 16.24186194302665 4.0910585540517905 11.593696330861738 0 0 0
474 1 18.451136041182096 6.222819955289743 11.305778903007797 0 0 0
477 1 20.296317839921528 3.990540872103985 11.582613073492942 0 0 0
457 1 -0.1526028644397861 4.150224514380609 11.711656640271272 0 0 0
478 1 22.480719990266927 6.074495936774017 11.974116923105074 0 0 0
460 1 24.24021391825727 5.753466925966463 14.341546383163282 -1 0 0
481 1 -0.014138710593698534 8.217567672368906 11.962583095137475 0 0 0
485 1 3.750675098532773 8.002497414304843 11.726411816123884 0 0 0
486 1 5.884102951868059 10.058600688280801 11.772580482239066 0 0 0
488 1 3.797846092206039 10.25585408906506 13.759601540888614 0 0 0
489 1 7.839936535281328 7.758287842583952 11.757618225889845 0 0 0
490 1 10.262003015901229 9.745962122974944 11.437610067118623 0 0 0
493 1 12.28325798234386 8.176246614984457 11.693231571322833 0 0 0
494 1 14.550484571656122 10.418992947163527 11.789229907020403 0 0 0
497 1 16.349682365380765 8.301983001251902 11.728310955804885 0 0 0
498 1 18.372094836266463 10.032972562791258 11.547643416617035 0 0 0
501 1 20.674918534119612 8.18627565768955 11.68600510409833 0 0 0
502 1 22.543052423500917 9.877536148890432 11.702787245481844 0 0 0
482 1 1.867364037596532 9.967515894136389 11.714093424573687 0 0 0
505 1 -0.11821885720021122 12.062557629937746 11.882551309029804 0 0 0
509 1 3.7788291131570837 11.995415082806169 11.67903827335043 0 0 0
513 1 8.0103022571617 12.011182754795104 11.567395564824288 0 0 0
517 1 12.052339588197553 12.079937714615523 11.363351639165398 0 0 0
521 1 16.465798712628605 12.13940608510144 11.886470843389587 0 0 0
525 1 20.218623941870028 12.339595540830285 11.728932218242988 0 0 0
506 1 1.5571478962060126 14.089237268917579 11.44629344928425 0 0 0
510 1 5.793622201605276 13.86168522741913 11.640870838611834 0 0 0
533 1 3.7407450257987964 15.854103226154502 11.73587359391309 0 0 0
514 1 9.84076672359163 14.148322905421209 11.566471217688186 0 0 0
537 1 7.981588839992218 16.14994338051315 11.662811533612249 0 0 0
541 1 11.934417083420536 16.141238520772717 11.550345906330872 0 0 0
518 1 14.028544575088672 14.337350267566581 11.331216199380988 0 0 0
545 1 16.047375170915714 16.4379768163398 11.193784113305831 0 0 0
522 1 18.26664614611792 14.347998584279559 11.55790163514794 0 0 0
549 1 20.086631017389116 16.326115267884646 11.278439528910383 0 0 0
526 1 22.151577105289988 14.06153453186748 11.45610988118273 0 0 0
529 1 24.3866782576357 16.245643058059798 11.591827384950559 -1 0 0
508 1 24.468053376662006 14.154153388496258 13.516639941145888 -1 0 0
530 1 1.8846347198892128 18.22410433593528 11.613097771892607 0 0 0
534 1 5.94245205714993 18.155712585933642 11.370076299388655 0 0 0
557 1 3.62031818502357 20.49955321167503 11.539313368300128 0 0 0
536 1 4.1168611765666645 18.037563852182643 13.401923525267847 0 0 0
419 1 10.038221604663732 20.375992580650397 9.732206865717432 0 0 0
538 1 9.938874157549023 18.25092333874531 11.810133468812714 0 0 0
561 1 8.156942158896712 20.218169960057423 11.683344856900826 0 0 0
400 1 12.163152381392987 18.0707451637782 9.438420691487178 0 0 0
565 1 11.835282450674102 20.52988281490694 11.825044393291241 0 0 0
542 1 14.306565251314113 18.48366937950621 11.599040274477034 0 0 0
569 1 16.306387336997858 20.365519421406304 11.23875177314555 0 0 0
546 1 18.34099757731658 18.518146462049906 11.23376044895676 0 0 0
573 1 20.37321864650903 20.465645735441242 11.427383661360327 0 0 0
571 1 18.163912938032297 20.51399699930873 13.372300565146798 0 0 0
550 1 22.567850211253422 18.38951810344154 11.786761379492667 0 0 0
553 1 -0.1803401006891292 20.443878506127902 11.408933868230482 0 0 0
554 1 1.5666006104410994 22.4630867578187 11.801993018768332 0 0 0
437 1 3.8432833481909103 24.393273913658604 11.941576831471961 0 -1 0
558 1 5.859060323977194 22.378039632423935 11.573139998629431 0 0 0
439 1 5.889395893383318 0.02029293560772638 13.354871320051345 0 0 0
441 1 7.848896147640824 -0.10255602589756938 11.527766081434581 0 0 0
562 1 9.864569521042663 22.495600652002977 11.6347963388023 0 0 0
445 1 12.070303878764278 -0.08153394287857318 11.692323991868827 0 0 0
566 1 14.351146245893375 22.042324019485747 11.687690669853525 0 0 0
453 1 20.39368807645343 -0.0358255399161838 11.35143856391377 0 0 0
570 1 18.412912787346272 22.335047924193034 11.462116965574529 0 0 0
433 1 24.247531662346894 -0.10695779967692472 11.56330250173784 -1 0 0
574 1 21.98163366748014 22.65515724809044 11.581862099508182 0 0 0
578 1 1.8983720710739718 1.9477712626170476 16.10421681839907 0 0 0
440 1 3.915343465882162 2.1310416217030235 13.849665121901394 0 0 0
582 1 5.8491024989125 1.9051996462314467 15.783845329551554 0 0 0
463 1 5.687343247351973 4.067399822599023 13.862775894382724 0 0 0
444 1 7.782745117130772 2.0108370473132218 13.54513656747161 0 0 0
586 1 10.231034878789849 1.7198267724513112 15.822362521217727 0 0 0
585 1 8.034802056475895 -0.007191949000697528 15.436597052709494 0 0 0
448 1 12.078313052095014 1.9816718018789259 13.551906391480138 0 0 0
590 1 14.047737762119802 1.8284307394842387 15.59809100768451 0 0 0
452 1 16.276545754156544 1.9655766657470544 13.622444312070067 0 0 0
617 1 16.034798119128283 4.140291177407228 15.67270778850482 0 0 0
593 1 16.064651688467656 24.425501410569467 15.57063339387691 0 -1 0
456 1 20.41559180897699 1.887303601404855 13.73326476019582 0 0 0
594 1 18.151771378846504 1.807617427736073 15.568438149190442 0 0 0
577 1 -0.11119493372081267 0.06057250931663402 16.092604483426776 0 0 0
436 1 -0.12154890021177055 1.9402213162631972 13.69818201107075 0 0 0
598 1 22.38116639217133 1.7701447879344878 15.567146131281618 0 0 0
459 1 1.8726503226600673 3.9503967721806355 14.062496132061627 0 0 0
602 1 1.8694435993640206 6.026736028384992 15.672818285219009 0 0 0
464 1 4.035699502345833 5.905022438953232 13.736129218315156 0 0 0
605 1 3.9271857226878426 3.869571572232127 16.072636914595634 0 0 0
606 1 6.096759043306122 6.104053053295752 15.819493383278406 0 0 0
467 1 10.254161835580081 3.846104789016719 13.930443985486392 0 0 0
468 1 7.9470756351494884 5.845068741205445 13.732546216490476 0 0 0
609 1 8.262321359801769 3.9336271701239482 15.926914306040768 0 0 0
610 1 10.284339134371804 5.776764570143606 16.001159377689287 0 0 0
472 1 11.932864012983835 5.95673289825106 13.477699428188464 0 0 0
613 1 12.153722793860803 3.6389323526369113 16.008504474914588 0 0 0
471 1 14.15469062440412 3.9176143985930887 13.622020275438494 0 0 0
476 1 16.636065482940133 6.046524250047504 13.695539118965232 0 0 0
614 1 14.120030399820402 6.3195028616266224 15.71238355918208 0 0 0
475 1 18.210281290665762 3.8617864101781496 13.74773205971335 0 0 0
480 1 20.41437590720672 5.830496163400859 13.562633408359218 0 0 0
618 1 18.34664618943198 6.175354735272217 15.688131611048558 0 0 0
621 1 20.446646516363998 4.185343254876025 15.792883931837835 0 0 0
601 1 -0.014546602052455171 4.050814889626449 16.025879109350292 0 0 0
479 1 22.302772514584028 3.7307594023705115 13.538495558688432 0 0 0
622 1 22.253606196954912 6.012432946279774 15.841908032010778 0 0 0
483 1 1.7856542597950174 8.078452706104303 14.011537117976127 0 0 0
626 1 1.628723126846751 10.216394597769519 15.855100774828653 0 0 0
625 1 24.25067027533234 7.946143902491134 16.309433463609892 -1 0 0
487 1 5.641077969019107 8.189438240034136 13.734015983877276 0 0 0
629 1 3.939625704699954 8.180480887170111 15.962962255791048 0 0 0
630 1 6.174780493674384 10.70560664940366 15.781447766129443 0 0 0
491 1 10.135358316407498 8.036737743407654 13.797481006400377 0 0 0
492 1 8.131888409324183 10.028535950474552 13.742915857516637 0 0 0
633 1 7.829697180019361 8.098827758609964 16.005224233643478 0 0 0
634 1 10.107212611643224 9.973526914374697 15.908121784924951 0 0 0
496 1 12.002350732424382 10.28658711884274 13.487149091544794 0 0 0
637 1 12.176891405534041 7.91651735123598 15.709134973445611 0 0 0
495 1 14.27371772967138 8.015625482393494 13.871846321292988 0 0 0
500 1 15.95205902596801 10.068599020976519 13.796734114968691 0 0 0
638 1 14.307178736837137 10.311601591990845 15.906296815162136 0 0 0
641 1 16.173085613189123 8.295878387537012 16.06180933865993 0 0 0
499 1 18.235267522236335 8.541433737920256 13.555544412742366 0 0 0
504 1 20.058230219965402 10.530293580129126 13.605719203357523 0 0 0
642 1 18.394827749262 10.32128831773242 15.951143526427689 0 0 0
645 1 20.369083969585162 8.10126046064986 15.923791027037765 0 0 0
503 1 22.40804266297016 8.297849012004447 14.095148988816506 0 0 0
646 1 22.602446259703115 10.268097233826138 16.012973935988594 0 0 0
484 1 -0.14047589089864232 9.87155126599319 14.05489369961771 0 0 0
507 1 1.8701457077277244 12.171973298043582 13.830214117900235 0 0 0
511 1 5.843931723708082 12.28854382313998 13.760210799329803 0 0 0
653 1 3.8122889643495395 12.287508650167029 15.910618460027717 0 0 0
515 1 10.12557116484016 12.208577948440839 13.650759635621652 0 0 0
657 1 8.21984243319077 12.324034100483242 15.70314077657731 0 0 0
516 1 8.074769448405714 14.204295782431561 13.797679208808512 0 0 0
661 1 12.093696212516639 11.929567645757887 15.77560969315168 0 0 0
519 1 14.263020581919335 12.461497654569568 13.530767762422357 0 0 0
665 1 16.142610364265614 12.455917944814697 15.663971753675206 0 0 0
662 1 14.228158525150045 14.426848637119633 15.6351327725562 0 0 0
523 1 18.05708968980894 12.396463635875817 13.81014495335923 0 0 0
669 1 20.358851828069234 12.181578446800716 15.707849452242701 0 0 0
528 1 20.51815350385779 14.615167160269051 13.615353811783736 0 0 0
649 1 0.09752548251186205 12.29340379971839 15.844830889367724 0 0 0
527 1 22.284553342186847 12.027405269299999 13.471183960461083 0 0 0
531 1 1.7322198690028154 16.215973191379796 13.644850582318622 0 0 0
650 1 2.0073533598057307 14.533736511361145 15.829979285447589 0 0 0
654 1 5.9905240389204435 14.387619736588366 15.908204805180848 0 0 0
512 1 3.7396233324486565 14.205574976698582 13.781346703525832 0 0 0
535 1 6.158866041195684 16.32032824877767 13.765205287730659 0 0 0
677 1 3.9297499208542677 16.33353020458331 15.635573759422986 0 0 0
658 1 10.158427609933208 14.292834329951564 15.695102001287854 0 0 0
539 1 10.095161080896451 16.409421487263565 13.46616213862745 0 0 0
681 1 8.358658041944686 16.279029781842233 15.743101083014892 0 0 0
520 1 12.200791531981894 14.07144647203557 13.665307999363709 0 0 0
685 1 12.169521164891465 16.222324232936927 15.395303555333271 0 0 0
524 1 16.23046412900488 14.453273046021122 13.390038547144249 0 0 0
543 1 14.28155578928009 16.137779030349435 13.433383439968145 0 0 0
689 1 16.433977638108225 16.577852210837328 15.702966183664486 0 0 0
666 1 18.24911390040674 14.601382874042171 15.573428587149444 0 0 0
547 1 18.07091906688916 16.509823206387487 13.006801838660706 0 0 0
693 1 20.397561257403105 16.489399877007543 15.300069693821486 0 0 0
673 1 -0.07405896603301262 16.42148523015343 15.635923756443383 0 0 0
551 1 22.475653766291856 16.4337824672373 13.467156408660497 0 0 0
670 1 22.55582535582353 14.37940488878965 15.717034956430258 0 0 0
555 1 1.8932512518007383 20.44262519630687 13.642678941907215 0 0 0
674 1 1.869818545092353 18.284738828288823 15.592369099735073 0 0 0
559 1 5.695652958442469 20.24881310951379 13.717596579456556 0 0 0
678 1 5.930725061268656 18.385346529944307 15.833224461035936 0 0 0
701 1 3.741597434727669 20.155831287998332 15.681144313602204 0 0 0
540 1 7.781248222384072 18.42513628405328 13.906514509892574 0 0 0
563 1 10.158760134927363 20.332910027221153 13.6135749989544 0 0 0
682 1 10.208917710763505 18.3397112184306 16.080734048331927 0 0 0
705 1 8.24355415327277 20.35225455035411 15.799163890811538 0 0 0
544 1 12.539374871667816 18.220547727372576 13.557456306171913 0 0 0
709 1 12.015190579376101 20.39541751087758 15.622934351827858 0 0 0
548 1 16.42865435546735 18.324116107651733 13.889188170495252 0 0 0
567 1 14.385799615774628 20.32898942701226 13.755582668473263 0 0 0
686 1 14.031791842014695 18.255966396673024 15.51426048442967 0 0 0
713 1 16.506459296495265 20.554045813598727 15.860246382168949 0 0 0
552 1 20.36720434815011 18.50249002700624 13.281544400320453 0 0 0
690 1 18.528974928770275 18.37562817243993 15.420166899203135 0 0 0
717 1 20.27630324103226 20.414239441727325 15.53493017846537 0 0 0
575 1 22.530085529010073 20.60326412601662 13.679964979326 0 0 0
532 1 24.47089486304942 18.449005258580875 13.682585743107992 -1 0 0
697 1 24.402175239954722 20.271387221851917 15.532141640199317 -1 0 0
694 1 22.559950079413674 18.489182315838548 15.586101037263134 0 0 0
435 1 1.8394859969153443 -0.06807882642317668 14.013193592156076 0 0 0
698 1 1.8185880318841705 22.130520971634382 15.650051435528077 0 0 0
560 1 3.5555627932394978 22.30966538767924 13.717642067064068 0 0 0
581 1 3.982719235822926 24.325256550766937 15.846637240264084 0 -1 0
702 1 5.958703214321691 22.432628080379914 15.296746751796261 0 0 0
443 1 10.006392560033444 -0.12199406564582346 13.422353745391753 0 0 0
564 1 8.051881654506637 22.212526771854094 13.705822727181245 0 0 0
706 1 10.234663191332443 22.30964325740762 15.682522421957643 0 0 0
589 1 12.235963166155708 -0.0899663143170216 15.482492685395595 0 0 0
568 1 12.243340731173594 22.611924161673855 13.413342981741785 0 0 0
710 1 14.14844806351823 22.232598546425173 15.644463989522148 0 0 0
447 1 14.133198579884784 24.408078234885878 13.512816170112142 0 -1 0
572 1 16.261172610288398 22.24537515559441 13.652670989498104 0 0 0
451 1 18.1684396656498 24.40046501546756 13.404578658125722 0 -1 0
597 1 20.31631695117793 24.339680011230506 15.881931997581333 0 -1 0
576 1 20.322728865798595 22.291933082481385 13.525996822516726 0 0 0
714 1 18.404921822549383 22.488710419138407 15.399329257906047 0 0 0
455 1 22.46471104980386 -0.062078909494189996 13.461897607123731 0 0 0
556 1 24.295654970751606 22.667315908592435 13.723028269051884 -1 0 0
718 1 22.49696759207295 22.584821694562606 15.75121973913771 0 0 0
722 1 2.014532994281585 1.7451365619197436 19.95388883134545 0 0 0
584 1 4.353242098195802 2.132009896214784 17.8357744734186 0 0 0
726 1 5.710541368054447 1.9917462935419077 20.050142741538057 0 0 0
583 1 6.13307729547336 -0.11352078901488491 17.858643319125452 0 0 0
588 1 7.910686883586109 2.0128881713354954 17.83947755995969 0 0 0
730 1 10.21072123289774 1.9653601143795094 20.034475663559036 0 0 0
592 1 11.979893287957163 1.514871827061896 17.82893108118859 0 0 0
734 1 14.438018614911744 1.737204820913418 19.96811657683843 0 0 0
596 1 15.945600513308785 2.0690639056417868 17.72861186958556 0 0 0
600 1 20.451714671876687 1.9865996573019635 17.466451927797493 0 0 0
738 1 18.302245394123446 1.8609643108715441 19.636838127487415 0 0 0
580 1 -0.0010602571839397334 2.0059674855119654 17.790507157961198 0 0 0
742 1 22.39065249128344 2.0366449882054942 19.971818970793297 0 0 0
603 1 1.8863809315684033 4.281520757810915 18.316548297440768 0 0 0
746 1 1.8227850887417998 6.1526430184184955 20.545449811437404 0 0 0
745 1 24.402319098754827 4.07965495943633 20.106942237079892 -1 0 0
607 1 6.108317588179021 4.136857265454649 17.81523390293632 0 0 0
608 1 3.8103804133685246 6.19813342543838 17.732862610183716 0 0 0
749 1 3.767220475608024 4.301042634195323 20.020609846350883 0 0 0
750 1 5.982279465624118 6.170514077680788 19.749502187746405 0 0 0
612 1 7.969228800335234 6.134484765333195 17.796833492748135 0 0 0
753 1 7.857351213053962 4.198129215169065 20.06889928752988 0 0 0
754 1 10.419694405064446 5.470421332786878 20.210914628814432 0 0 0
611 1 9.867207709715686 3.8375067281779276 18.093453625935783 0 0 0
616 1 12.069441617947033 5.974546165762624 18.049217956255518 0 0 0
757 1 12.429090185293376 4.061224218110056 19.86650883414588 0 0 0
758 1 14.171449813044081 6.207291017416008 20.047438719237533 0 0 0
615 1 14.137728115546961 4.042028514843161 17.922981872797955 0 0 0
620 1 16.253955211692677 6.255333565822492 17.707225194984527 0 0 0
761 1 16.279564026217955 3.899553917443641 19.71271771670185 0 0 0
619 1 18.105202934383748 4.032448892241761 17.61707926776894 0 0 0
624 1 20.227861219849608 6.205555781401414 17.778832762787225 0 0 0
762 1 18.237184700608537 6.084404147185748 19.837340740038762 0 0 0
765 1 20.144091534708323 3.8184359239860775 19.70491908189744 0 0 0
604 1 24.409275382468437 5.931477493338168 18.01518672825182 -1 0 0
623 1 22.50146652102775 4.00540271952019 17.970638341764424 0 0 0
766 1 22.191514294518278 5.927476316133767 20.06182301005077 0 0 0
627 1 1.7662623563322142 8.260369371416868 18.154765787395228 0 0 0
770 1 1.9295484785958723 10.17588983577177 19.968830000454677 0 0 0
631 1 5.81401711801428 8.171594876542908 17.78245150093618 0 0 0
632 1 3.692910096940096 10.182885867116237 17.761968069517643 0 0 0
773 1 3.7608839202235016 8.159945972958903 19.932378567187904 0 0 0
774 1 5.972982603012119 10.344503068482233 20.0287395954305 0 0 0
635 1 9.999348757962718 8.174867810814295 17.506985937939742 0 0 0
636 1 7.914143329771859 10.232259105592814 17.790885909344862 0 0 0
777 1 8.23273552410305 7.968725071119547 19.84105624610405 0 0 0
778 1 9.968728560401285 9.998407106311971 19.619091379946866 0 0 0
640 1 12.080192387689587 10.096063164264562 17.87271551739107 0 0 0
781 1 12.05242927429815 8.04882287328022 19.861430108737483 0 0 0
639 1 14.325544355287823 8.101642035192878 18.09282438669954 0 0 0
644 1 16.184258235595443 10.146700502231571 18.06477518901015 0 0 0
785 1 16.05082641658999 7.963964588938049 20.213723880528335 0 0 0
782 1 14.241384369086392 10.19291437827072 19.930541602611164 0 0 0
643 1 18.223491057038373 8.083732933403994 17.759524312202785 0 0 0
648 1 20.216698893284622 10.261449377600137 18.030646849293447 0 0 0
789 1 20.286705513651192 7.987282875584079 20.06029661390363 0 0 0
786 1 18.332599905366926 10.119805899774233 19.95307977752061 0 0 0
628 1 24.40639093381958 10.340829955106331 18.00299127878276 -1 0 0
769 1 24.29710437174024 8.025445902198301 20.204760981595047 -1 0 0
647 1 22.238866800320658 8.090149676669885 18.02475177604607 0 0 0
790 1 22.348615268749377 10.175207847372752 19.757057067480186 0 0 0
651 1 1.9517709170297541 12.214048817054767 17.75667806197338 0 0 0
793 1 -0.045407723096482916 12.171970297963624 19.7765623560052 0 0 0
655 1 5.8717435386681265 12.421037550056568 17.950639780299973 0 0 0
797 1 3.9276148579431505 12.262904180529343 19.804845329830037 0 0 0
798 1 5.762119583250411 14.256929927695952 19.869786296238882 0 0 0
659 1 10.147355129065769 12.129154755639282 17.564498457076244 0 0 0
801 1 7.844722847488077 12.34434078007894 20.05994582866752 0 0 0
805 1 11.988995463752394 12.196761765686249 20.073893463112277 0 0 0
663 1 14.11774699131422 12.253949959243482 17.83041374076366 0 0 0
809 1 16.227538894303265 12.198165127947068 19.754653731252642 0 0 0
667 1 18.215867405066376 12.090520724773114 17.948914012830386 0 0 0
813 1 20.264977483577596 12.313025337299857 19.7250497151049 0 0 0
671 1 22.575977534921805 12.461461271615061 17.75669499473238 0 0 0
814 1 22.166708437564417 14.23593296123312 19.818460659978925 0 0 0
675 1 1.9565898133870965 16.256020766505934 17.770739991031714 0 0 0
794 1 1.89749908245127 14.213144623275396 19.835624405849742 0 0 0
821 1 3.976089960990781 16.46685270276013 19.688937893237522 0 0 0
656 1 3.8802601869931443 14.322065945034515 17.88734714496855 0 0 0
679 1 6.137747131852745 16.538821701896424 17.838443901050542 0 0 0
825 1 8.071689269361523 16.48415853111598 19.778187523870063 0 0 0
660 1 8.049836021876763 14.178215486593945 17.952944680615843 0 0 0
683 1 10.268304367256 16.171623618691633 17.553511482716324 0 0 0
802 1 9.883338389207848 14.120309094332745 19.67963843005345 0 0 0
829 1 12.008427371952667 15.94165783860903 19.66992805599791 0 0 0
664 1 12.280051185872372 14.272632744218818 17.56686056888033 0 0 0
806 1 14.274179182106703 14.15152624431877 19.875227377307915 0 0 0
668 1 16.262783313859643 14.537117305521523 17.70807252422567 0 0 0
833 1 16.371578780867033 16.190937980185787 20.061942958919285 0 0 0
687 1 14.282797221450124 16.520019851670007 18.089585512575695 0 0 0
837 1 20.506513379838673 16.535266844664854 19.50736740063922 0 0 0
672 1 20.138249239583082 14.603922760231997 17.434486528989623 0 0 0
691 1 18.32491030703097 16.623336513806436 17.802155291985837 0 0 0
810 1 18.358918187808726 14.330775789615785 19.64400585114367 0 0 0
817 1 -0.0845382811518455 16.240935153494924 19.978340616959628 0 0 0
652 1 0.10478156918224568 14.403568039879676 17.710607771302005 0 0 0
695 1 22.480026840683173 16.195791566286594 17.733033122317813 0 0 0
818 1 1.9918287123137106 18.442345911207426 20.198859582985268 0 0 0
699 1 1.82313328172657 20.513339733255435 17.73237555563193 0 0 0
822 1 6.033629160434118 18.543854490286222 20.05263338709251 0 0 0
845 1 3.925999200012714 20.641787231382857 19.824811156288025 0 0 0
680 1 3.9205027163976762 18.434097031609873 17.59577735653145 0 0 0
703 1 6.077732820183283 20.35265506140965 17.82485263654722 0 0 0
849 1 8.112061495258434 20.598270482937252 19.636069456738646 0 0 0
826 1 9.991711994159708 18.50635830766614 19.997432319789127 0 0 0
684 1 8.064417944124664 18.590625410082637 17.500377410178775 0 0 0
707 1 10.278855524415597 20.518812682073495 17.809386485520626 0 0 0
853 1 12.236788223942778 20.513051004150014 19.48147724069304 0 0 0
688 1 12.089128517049952 18.01486037040401 18.115292377492516 0 0 0
711 1 14.01864633126979 20.451624919032497 17.836386257294034 0 0 0
857 1 16.3988009659301 20.613733033640216 19.7220901674626 0 0 0
830 1 14.299234161848032 18.692324869300215 19.69761802742058 0 0 0
692 1 16.161823225716603 18.438294105346564 17.64683666305995 0 0 0
861 1 20.302338011536413 20.31428131739832 19.667362435066075 0 0 0
834 1 18.27399901422914 18.36106135905375 20.00515599365134 0 0 0
696 1 20.151257444916887 18.260657734093783 17.132096796792045 0 0 0
715 1 18.410326128815463 20.460605925451702 17.946419950090604 0 0 0
841 1 24.289171992102048 20.56044670742188 19.83200164982198 -1 0 0
676 1 0.16360826692001706 18.31272411622193 17.95180400169748 0 0 0
838 1 22.45692322482693 18.37959883567678 19.90209271048032 0 0 0
719 1 22.719459620728962 20.134385571224307 17.734751135081623 0 0 0
579 1 2.197570982503322 0.09435532771183255 17.95790672796242 0 0 0
842 1 1.7254953422142532 22.58402085268996 19.92023491417282 0 0 0
725 1 3.854461781245753 0.055462231593949696 19.974498850205094 0 0 0
846 1 5.945230384827393 22.745329911528735 19.835569552882045 0 0 0
704 1 3.827345956369915 22.46558089515102 17.60309566809291 0 0 0
587 1 9.968581531235088 24.41261906831265 17.784101020989848 0 -1 0
729 1 8.082769459372956 -0.016400750679292114 19.98908204615374 0 0 0
708 1 8.111692478450436 22.320704673672616 17.536604678202217 0 0 0
850 1 9.932727594119692 22.616251812683238 19.889981722996875 0 0 0
733 1 11.895694074156182 24.35250215185691 20.065980332041843 0 -1 0
712 1 12.073328466479078 22.4040127056345 17.471184708952453 0 0 0
591 1 14.033581861023341 24.42536351746578 17.9492474485627 0 -1 0
737 1 16.65272104027987 -0.06662707201914486 19.818303618886453 0 0 0
854 1 14.30406294645218 22.92912348278101 19.965031036931826 0 0 0
716 1 16.033081883174795 22.844650689665926 17.77790100133492 0 0 0
741 1 20.450362620325393 -0.06828253022832342 19.743607693369523 0 0 0
595 1 18.443223685305014 -0.05357087766554969 17.49300864633623 0 0 0
858 1 18.388869599448874 22.504334418649712 19.98250028798666 0 0 0
720 1 20.750882601889316 22.511565253024017 17.66728851533457 0 0 0
721 1 24.438177604402792 -0.06190040148532762 20.08249129562369 -1 0 0
599 1 22.64885284820396 0.020959059514017886 17.700423526082094 0 0 0
700 1 -0.008271951839468272 22.499424746762244 17.924489219882847 0 0 0
862 1 22.508106079940255 22.341148405055733 19.842040462846427 0 0 0
877 1 11.921779568176747 0.04463060907012972 23.98302253411619 0 0 0
728 1 3.912017069800001 2.201234135833378 22.502375067974835 0 0 0
815 1 22.210616627115584 12.086913542248064 21.87907031624201 0 0 0
732 1 7.888198802869743 2.0548178745170813 21.727862913930526 0 0 0
863 1 22.001034405516812 20.366769671876384 21.749706508170963 0 0 0
736 1 12.455620784025262 2.1267723444082574 22.034783695571896 0 0 0
859 1 18.301684051671188 20.346716584168192 22.097695838545903 0 0 0
740 1 16.436498189852557 1.7635932377722814 21.97111130723986 0 0 0
744 1 20.151421184281936 1.9264158120610153 21.906441544871917 0 0 0
840 1 20.39158793339098 18.247031337974164 21.71511794115999 0 0 0
724 1 -0.19401160760072653 1.7229454760408922 22.28135458748259 0 0 0
953 1 16.23539764204495 12.621368439591995 23.806416842356896 0 0 0
747 1 1.8184808012350748 3.8057664937357947 22.057034559894557 0 0 0
950 1 14.092887068024805 14.310483153530463 23.811996230937947 0 0 0
751 1 5.972740590152645 4.049390207095656 21.98084894665153 0 0 0
752 1 4.18842220913772 6.437642494423187 21.819009138006503 0 0 0
873 1 7.737715731115824 -0.0645577192232078 23.64941346645805 0 0 0
755 1 10.093046748711481 3.739424821995601 22.21912907179644 0 0 0
756 1 8.118410765981055 6.197137427580238 22.00744812178452 0 0 0
855 1 14.331561609034834 20.40426037737985 21.693929248620368 0 0 0
760 1 12.27083263162337 5.79126051000399 22.191344890358778 0 0 0
836 1 16.274324770107008 18.47651075377432 21.87816699014066 0 0 0
759 1 14.522937009833976 3.8086769255933466 21.97265435174433 0 0 0
764 1 16.3984392598366 5.866248938661571 21.735560132929496 0 0 0
811 1 18.50916110120273 12.058905196424172 22.12129151223905 0 0 0
763 1 18.15736279447198 3.891967691348297 21.836156909109373 0 0 0
768 1 20.105913875602567 5.92675580284456 21.90715650894411 0 0 0
832 1 12.008883015831513 18.418900607836164 21.75152825145903 0 0 0
748 1 24.150424376590486 6.07720389090848 22.17204870330962 -1 0 0
767 1 22.589926421951596 3.6216406292336996 21.943536923281574 0 0 0
816 1 20.147114705588656 14.194374424149963 21.593385867898657 0 0 0
771 1 1.711478165233463 8.12966249515359 22.14993990893157 0 0 0
831 1 13.838838983147594 16.47754668331452 21.754630602709014 0 0 0
851 1 10.08464233097261 20.746602953066905 21.902809490719797 0 0 0
775 1 5.941865240132854 8.173903471486538 21.852414082583753 0 0 0
776 1 3.9545628163074857 10.111147326092976 21.857331727965423 0 0 0
828 1 7.865337271571093 18.485962429490407 22.018202276723585 0 0 0
779 1 10.246126523080456 7.819381864412863 22.046740798234953 0 0 0
780 1 8.131391368767837 10.048714621022286 22.01223058500409 0 0 0
808 1 12.328545089624008 14.26718032370395 21.81064652532181 0 0 0
804 1 7.927253793724244 14.473228946948966 22.06089588540595 0 0 0
784 1 12.25171968349297 9.938852700913898 22.008537950966907 0 0 0
847 1 6.064631553358763 20.536116872769348 22.074921231227925 0 0 0
788 1 15.951974729422025 10.152449134027624 21.95492487295209 0 0 0
783 1 14.284804716572806 7.990845451247637 22.457761506957855 0 0 0
792 1 20.480161482601517 10.060769396762534 21.900143733972442 0 0 0
787 1 18.09009411038116 8.048056984413234 22.017421675621865 0 0 0
772 1 -0.15747500109612184 10.408895257185124 21.8855912181707 0 0 0
791 1 22.46022753767629 8.149909782014797 22.09016764986604 0 0 0
824 1 3.8760516214739296 18.380203838204203 22.21570742241351 0 0 0
795 1 1.7959408025701862 12.502278788021414 21.98026486767911 0 0 0
843 1 1.5308319253013103 20.60038558447816 21.761859709654825 0 0 0
800 1 3.9894272343661212 14.5064597238851 21.779209984405185 0 0 0
799 1 5.867717399611085 12.24584763080095 21.8644933322724 0 0 0
820 1 24.051416482617583 18.402324133154366 22.226091700019445 -1 0 0
803 1 10.101325532948197 11.960283761040886 21.863910381435424 0 0 0
835 1 18.276661595665168 16.394513301512802 22.06922735548426 0 0 0
839 1 22.35399875640386 16.38805694247388 21.800128165147385 0 0 0
812 1 16.275675849657354 14.307647451465883 21.687208204565827 0 0 0
807 1 14.207635388794097 12.098449937628995 21.916418992719613 0 0 0
913 1 24.465184050560183 8.408810953334134 23.986796041028413 -1 0 0
974 1 13.999235052702693 18.43168359505666 23.479395598473754 0 0 0
993 1 8.051898088991173 20.34241797486689 23.88280601516584 0 0 0
954 1 18.654701704562513 14.440934301161874 23.75444366223861 0 0 0
946 1 10.118814999184272 14.0440467299635 23.762900241301505 0 0 0
962 1 1.6979086916072852 18.569987231960177 23.89238882065141 0 0 0
1001 1 16.261555465539878 20.496171120404696 23.811721261437693 0 0 0
945 1 8.04974994850688 12.288768387428519 23.51054829734088 0 0 0
918 1 5.987227293762796 10.380795041646694 23.88280808420277 0 0 0
865 1 24.439952928818876 24.256610004605612 23.958542552028074 -1 -1 0
958 1 22.031841528314132 14.342249873860819 23.78325229729377 0 0 0
981 1 20.235588425847368 16.551060671374714 23.96234556483605 0 0 0
874 1 10.00607586959065 2.0001682539787056 23.82656648797815 0 0 0
894 1 5.887066879803021 6.096492121978085 23.794171545342927 0 0 0
870 1 5.893908710458319 1.9000102390731692 23.939412744018174 0 0 0
998 1 14.269316857841376 22.694045445318366 23.731031057894462 0 0 0
982 1 21.993053448213722 18.3066460629382 23.890075103188778 0 0 0
973 1 12.123731391441387 16.203829803418166 23.72946686261437 0 0 0
34 1 10.025863159512358 5.7096233665433695 -0.5934527713271507 0 0 0
126 1 5.9352058709936 22.281893558710053 -0.41501144827140024 0 0 0
73 1 24.43559726280217 12.054402791837898 -0.5049336064975591 -1 0 0
122 1 1.8812948496051871 22.57453564961625 -0.5888669863977185 0 0 0
137 1 16.360259591074374 20.588391223269376 -0.5426025077209147 0 0 0
141 1 20.49593503789538 20.492725185349407 -0.5105218600224788 0 0 0
85 1 12.186598157979772 12.206447568590173 -0.4783908560709733 0 0 0
114 1 18.52776639846229 18.276552421901677 -0.597257811120798 0 0 0
97 1 24.09701254179822 16.045426457555614 -0.5304062767150839 -1 0 0
21 1 20.22210636251795 0.08921239142814494 -0.5969343058325336 0 0 0
54 1 6.123188087521953 9.936574693262887 -0.6118110135725914 0 0 0
61 1 11.892184865994823 8.027751320320606 -0.4657608399447639 0 0 0
867 1 1.9695436427589001 24.41552212138344 26.052052765660783 0 -1 0
872 1 3.7419890179628688 1.9045134656884635 26.27794572645174 0 0 0
871 1 5.759220496149764 24.432848493377744 26.180733090427665 0 -1 0
876 1 7.947810601279993 2.2854485306770345 25.76765895579311 0 0 0
880 1 12.217489665940139 1.6171938459378346 26.024462939184335 0 0 0
884 1 16.584292781525235 1.9306204883193607 26.351328413685266 0 0 0
879 1 14.288781698694711 24.336214548537654 25.880909609893436 0 -1 0
888 1 20.48471614004336 1.8847593964603853 25.9847335345729 0 0 0
883 1 18.50028357681802 24.4191191905594 26.11351348146407 0 -1 0
868 1 24.306697156339307 2.1044259310486892 26.15947305560859 -1 0 0
925 1 12.434450914486012 8.080667405474463 24.26748244189702 0 0 0
891 1 1.7837036865030769 4.057242089042718 26.230977183301444 0 0 0
895 1 6.04369137917441 4.209501983914388 26.05546821359227 0 0 0
896 1 4.02381140385699 6.091777788012967 26.15386471181162 0 0 0
1708 1 24.424691746161088 22.616188678639602 46.679210037408545 -1 0 0
899 1 10.478681066493863 3.9049702174743404 26.209766303024878 0 0 0
900 1 8.109972146809348 6.230611032753587 25.91590249551919 0 0 0
904 1 12.158888089441326 5.83762752910715 26.087347404317196 0 0 0
903 1 14.257713243842506 3.501190091363196 25.917732548864333 0 0 0
908 1 16.62224055696035 6.247981153564024 26.134288799538286 0 0 0
930 1 18.095295590887943 10.065754623369475 24.045566150344158 0 0 0
902 1 14.39581682743024 5.877225446047871 24.173567483304787 0 0 0
907 1 18.484276972882093 3.975851241360406 26.28241830762915 0 0 0
912 1 20.5483950464712 6.155748047397645 26.20208670524287 0 0 0
914 1 1.9033441774313165 10.408801389944909 24.102172649767063 0 0 0
892 1 24.33119321573333 6.276548590933139 26.34949513445862 -1 0 0
911 1 22.646997417123913 4.02900757906436 26.366235410395493 0 0 0
933 1 20.350756500678365 8.086725944449261 24.005943722369693 0 0 0
915 1 1.435469483141636 8.218214361541115 26.036996493892673 0 0 0
919 1 6.211230210796562 8.175623496179544 26.042632775343744 0 0 0
920 1 3.91248628356018 10.015860096510481 26.19971269584053 0 0 0
923 1 10.596108397232873 7.944607616312959 26.262861614429536 0 0 0
924 1 8.127984896690375 9.815877694465971 26.019703533883416 0 0 0
928 1 12.291847215011286 10.118997234169937 26.200352716039625 0 0 0
927 1 14.447685875588075 8.13519483957866 26.16403974860275 0 0 0
866 1 1.4969982911926532 2.1830930512031697 24.28787214555164 0 0 0
932 1 16.34840988497077 10.220268331799105 26.25023707383853 0 0 0
890 1 2.1105834320574735 6.121793904528459 24.23937864220779 0 0 0
931 1 18.510261332635423 8.147257282497183 26.30821849346253 0 0 0
936 1 20.33707139365429 10.087880422568729 26.057187942312733 0 0 0
1603 1 18.20772657666653 24.397710693494744 46.630250289331464 0 -1 0
1728 1 20.2323561436597 22.4195627117602 46.56512966059591 0 0 0
916 1 -0.14284232473865188 10.616588921692328 26.032649433326792 0 0 0
935 1 22.45734581859118 8.221663841024299 25.905975779116893 0 0 0
939 1 1.8965276047373574 12.40007033413417 25.92498387277975 0 0 0
1724 1 16.037459225772707 22.087034318458876 46.3059908749193 0 0 0
943 1 6.114092376609651 12.546607665056873 25.727468579118867 0 0 0
947 1 9.807961929285556 11.586284471099297 25.74475252094897 0 0 0
951 1 14.194715234189939 12.021475787552317 25.882695938326325 0 0 0
966 1 5.847217937516047 18.456875649475208 24.038157521236258 0 0 0
955 1 17.765860810974488 12.364292290371981 25.976792978674744 0 0 0
960 1 20.290458172238417 13.778631954679453 26.082670356434775 0 0 0
959 1 22.296059328619712 12.134980094454166 26.03391093749575 0 0 0
1720 1 12.021868726186586 22.76596750703453 46.335260932533345 0 0 0
963 1 1.8277441081638468 16.309118514847334 26.145160239644753 0 0 0
944 1 3.9761094152481595 14.365995424977502 25.960341725861618 0 0 0
967 1 6.119988333791542 16.158876454294266 25.57839839692628 0 0 0
886 1 22.4982731478647 1.982122488540461 24.104091351723984 0 0 0
893 1 3.8782837333392823 4.004921116051434 24.234460789564576 0 0 0
948 1 8.299984230384933 13.916282278894327 26.24930841221901 0 0 0
971 1 10.0325673937305 16.044751069588294 25.793905310123286 0 0 0
906 1 18.53865780064372 6.1447018391306845 24.000697025112096 0 0 0
1002 1 18.400431524161085 22.298479641420883 24.09178343903219 0 0 0
952 1 12.076545841790455 13.805747453008673 25.88764570255805 0 0 0
986 1 1.6951333010713237 22.25033088761456 24.12676475326814 0 0 0
889 1 24.362893592328057 4.225421346950501 24.104510044189468 -1 0 0
956 1 15.774779525900586 14.095068313835515 26.00319637798619 0 0 0
975 1 14.198062758460964 16.585088418392935 25.795767694684596 0 0 0
1005 1 20.337376416885277 20.3017605109292 24.019675300706826 0 0 0
979 1 18.251402520181358 16.307569156092526 25.803298609069717 0 0 0
940 1 24.37838630792728 14.41207228433009 26.268563487408525 -1 0 0
983 1 22.243993964324666 16.442558887225033 25.948515349968943 0 0 0
987 1 1.8951558574034815 20.427805024700014 26.12570590532883 0 0 0
964 1 24.28593831477712 18.371382912426775 25.999595628029127 -1 0 0
968 1 3.823104312626578 18.311002224328107 25.894325322839023 0 0 0
991 1 6.016709413902242 20.502120650432843 26.138579200255652 0 0 0
909 1 20.573196498111834 3.924912586301608 24.137379382560958 0 0 0
1716 1 8.104334651534353 22.649359596645603 46.99457992319136 0 0 0
972 1 8.054564685413137 18.741593461239376 26.01479495292242 0 0 0
995 1 10.125340930179062 20.413461769016074 25.78045996710863 0 0 0
976 1 12.20222916973361 18.557031449147402 25.608098023055902 0 0 0
999 1 13.98152117917373 20.62189088147398 26.03432690703436 0 0 0
885 1 20.42236893492325 24.36917946240502 24.05218988842222 0 -1 0
901 1 12.516106886970553 3.5182685380237477 24.028845579040308 0 0 0
985 1 24.222910063442434 20.32672118776985 24.111137515418903 -1 0 0
980 1 16.08456953049606 18.68754087448273 26.12917917698642 0 0 0
957 1 20.125870950432123 12.149503402530096 24.24377108146831 0 0 0
984 1 20.217637472627487 18.26458319693726 25.957054709696536 0 0 0
1003 1 18.350908280716162 20.29244184670727 26.223935930825572 0 0 0
869 1 3.822915286687863 24.379307997060316 24.07122732989865 0 -1 0
1595 1 9.922914617419275 0.27237439956577686 46.70855133848041 0 0 0
1007 1 22.217192344681322 20.135792038354296 25.997866246118512 0 0 0
989 1 3.7915946671064717 20.408291360484576 24.028527726190642 0 0 0
1591 1 6.063951288028207 -0.008728274195895835 46.51855664887421 0 0 0
988 1 -0.02619813718416797 22.36482494212806 26.35513292255957 0 0 0
992 1 3.895644192644502 22.312402785041094 25.98974818962447 0 0 0
978 1 18.320264335557795 18.389507751934943 23.99152863672186 0 0 0
1773 1 20.15747214342268 4.411866930689322 48.49513286708464 0 0 0
875 1 9.967957863645 -0.06237769989071719 25.705433568045212 0 0 0
996 1 8.084352322284092 22.323955440696906 26.107683320433715 0 0 0
1712 1 3.9766755515926118 22.61843759274999 46.62127406469006 0 0 0
1000 1 12.158908533132509 22.415839402007734 25.83316265576144 0 0 0
970 1 9.99330731082508 18.08966442320274 24.20438340752336 0 0 0
1004 1 16.25238282882323 22.29386011374404 25.877384345037868 0 0 0
1664 1 4.117135551413029 14.404504793154931 46.638644119290056 0 0 0
1691 1 10.370190722255844 16.322497771219368 46.70525609143572 0 0 0
1668 1 8.079929363592571 14.032303592792472 46.69338879888784 0 0 0
1008 1 20.28105879106748 22.274012080262878 26.240247602410573 0 0 0
887 1 22.557101643615844 -0.00845870019823991 26.121266664994085 0 0 0
1010 1 1.8677574268737231 1.9605805861585304 28.462389930559315 0 0 0
1011 1 1.7972861258178994 0.08475276777980939 30.165010982041256 0 0 0
1014 1 5.712345011360753 1.7066151832534628 27.833150338135717 0 0 0
1016 1 4.136776422413746 2.036630111995772 30.545436649853947 0 0 0
1013 1 3.7552449727553827 24.256834582736197 28.21398006060113 0 -1 0
1015 1 5.598082928882495 -0.03847277321706742 30.114789316862034 0 0 0
1018 1 10.061374145540023 1.9757774628650262 27.679791160849987 0 0 0
1020 1 7.88254374753596 1.9011654123256396 30.537430232987795 0 0 0
1017 1 8.114473861310744 0.009651274222960637 28.02060938926239 0 0 0
1024 1 12.066357562055474 1.8269189657872325 29.877107451192924 0 0 0
1022 1 14.109742126873558 1.7292300842328914 28.06945070007794 0 0 0
1028 1 16.36335794521254 1.6928940843523852 30.01733383982675 0 0 0
1025 1 16.479716039391114 24.165828733924528 28.120438247275203 0 -1 0
1023 1 14.383049073768273 24.329767859028898 29.708486353442193 0 -1 0
1026 1 18.74377114464039 1.8732345364143126 28.108118808851373 0 0 0
1032 1 20.450953416311265 1.8886342451105445 30.29894654020145 0 0 0
1027 1 18.212376043283676 24.194746021486743 30.1365675787853 0 -1 0
1029 1 20.446378337432257 24.241964931467194 28.235528762911507 0 -1 0
1012 1 -0.1339983333485351 1.8834565143527056 30.55208351562283 0 0 0
1030 1 22.48193818644002 1.969674921250021 28.088996511524908 0 0 0
1034 1 1.889648035124933 6.071715607163945 28.048179022490256 0 0 0
1035 1 1.9076370258547888 4.133950889336666 30.235247631328168 0 0 0
1037 1 3.846007210895399 4.215792121042775 28.108586864595384 0 0 0
1038 1 5.781866374334359 6.187378034374237 28.22044405270679 0 0 0
1039 1 6.033267573974052 3.8107679430055654 30.288468436454327 0 0 0
1040 1 4.022237453676619 6.546813265846574 30.045107569511718 0 0 0
1041 1 7.9335784655175114 3.425169424070413 28.326949589343883 0 0 0
1043 1 10.393737616347055 3.887366632918094 29.90419271925651 0 0 0
1044 1 8.013509262969187 5.7059927585234265 30.287077997497832 0 0 0
1042 1 9.78680250108029 6.002626957473545 28.15191110164558 0 0 0
1045 1 12.417624404059156 4.025222475590915 28.22953411807204 0 0 0
1048 1 12.038273578502002 6.152955812223385 30.059689380040908 0 0 0
1047 1 14.277694526974559 3.786498393114151 29.96592332380021 0 0 0
1046 1 14.1726684137643 6.057380872351397 28.285091114422844 0 0 0
1049 1 15.938480036942957 4.250119165053069 27.833134610331392 0 0 0
1052 1 16.18776502491739 6.1110113469682945 29.992421242865685 0 0 0
1050 1 18.389487970213196 6.189464352241946 28.072937944760255 0 0 0
1051 1 18.38933919269526 3.68495443719068 30.02390734184674 0 0 0
1053 1 20.33588436555125 4.183132307696423 28.31206629885763 0 0 0
1056 1 20.76092241021493 6.253098184770022 30.25508894595268 0 0 0
1033 1 0.19533788286189946 3.871217691812139 28.357970274081985 0 0 0
1036 1 -0.15787272067071 5.722787808320877 30.134749882559376 0 0 0
1054 1 22.369194606553094 6.277924407280713 28.00203488792049 0 0 0
1055 1 22.33574736041286 3.8193972064286976 30.22779019392184 0 0 0
1058 1 1.699392485473077 10.111590396914044 28.003043167705417 0 0 0
1059 1 1.8161817395187607 8.055609818515899 30.315917117018962 0 0 0
1060 1 24.445698394685202 10.411206826941491 30.208652639194717 -1 0 0
1061 1 3.558607436407268 8.249802765976229 27.97629954464071 0 0 0
1063 1 6.539854834416415 8.04362755164032 30.296038731508883 0 0 0
1062 1 5.7661928987810445 9.983277453305503 28.138264946621252 0 0 0
1064 1 3.8645965803438687 10.128316444207925 29.94797728909736 0 0 0
1065 1 7.7997179543510935 7.867138561919669 28.161920467222764 0 0 0
1066 1 9.922745574346203 10.08660988137083 28.052469086031593 0 0 0
1067 1 10.118165822721643 8.070369948365924 30.255804861160335 0 0 0
1068 1 8.151297367772878 9.954600754876607 30.197320465339526 0 0 0
1069 1 12.111148937594153 7.980978560081724 28.266679708026672 0 0 0
1072 1 11.993263914271385 10.37733465530187 30.290215860750056 0 0 0
1070 1 14.022632385318932 10.170461035097949 28.3086545146763 0 0 0
1071 1 13.847920779061768 7.9835550265449164 30.114333633498468 0 0 0
1073 1 16.0602160024607 8.100478369753343 28.035367483993262 0 0 0
1076 1 16.234519626465847 10.094831886273996 30.073994370207295 0 0 0
1075 1 18.390045691521635 7.925691956087308 30.333965377854458 0 0 0
1077 1 20.263970386275204 7.966006209800792 28.38759549086499 0 0 0
1080 1 20.427375975431822 10.366994227475635 30.070635586205817 0 0 0
1057 1 24.286785589482378 8.00991201121806 28.374581166964827 -1 0 0
1079 1 22.84326951153168 8.225024138641835 30.292476268799035 0 0 0
1078 1 22.361076652971377 9.876289709464617 28.012910124110757 0 0 0
1083 1 1.8897244562466962 12.280897360287408 30.139676328669115 0 0 0
1085 1 3.9678400892577814 12.08519049660916 27.91351935062393 0 0 0
1087 1 5.813010775943729 12.265482992212679 30.17400781822329 0 0 0
1089 1 7.973845672100145 12.014061239386667 28.165874200814663 0 0 0
1091 1 9.864404228607732 12.093263405113321 30.04794656983327 0 0 0
1092 1 7.969843598466982 14.30318815752996 29.813555208641322 0 0 0
1093 1 12.096263511349138 12.33998341648005 28.000604798190167 0 0 0
1095 1 14.245925892810263 12.339080031933708 29.85488476313794 0 0 0
1097 1 16.06171569603179 12.234827673263377 28.101784727624626 0 0 0
1074 1 18.39697139720669 10.142935074865202 28.2558207959989 0 0 0
1099 1 18.152403894726305 12.172626751509318 30.174098653115763 0 0 0
1101 1 19.988159379770153 12.33108211258583 28.163562869356173 0 0 0
1081 1 -0.03000902525239013 12.390915290081885 28.099363084896694 0 0 0
1103 1 22.421983700003658 12.415908284298075 30.098078175922293 0 0 0
1082 1 1.8632951504648343 14.063407400545955 28.028433444713322 0 0 0
1107 1 1.5554419771022334 16.372262379319253 30.14280027849868 0 0 0
1105 1 23.95077518132878 16.338715807715374 28.25723153876822 -1 0 0
1084 1 -0.17684486714735356 14.3117984388172 30.161670947620685 0 0 0
1088 1 3.69993912228752 14.549355111145468 29.911122013785793 0 0 0
1086 1 6.153416193673188 14.160828000435066 27.892003878761972 0 0 0
1109 1 3.73059139674326 16.31546627415058 27.905946549142246 0 0 0
1111 1 5.943633257777993 16.529874154817804 29.77869695210299 0 0 0
1090 1 10.363149159341274 14.313846182770222 28.00176183852076 0 0 0
1113 1 8.420886657921166 16.150742898497157 28.069359040296252 0 0 0
1115 1 10.457001855542316 16.446408997310826 30.36867921739543 0 0 0
1096 1 12.073103722776473 14.242264429230552 30.01024494520135 0 0 0
1117 1 12.382949769378456 16.05513289868457 27.764444937433737 0 0 0
1094 1 14.183516641432522 14.375002137701458 28.11505172316245 0 0 0
1100 1 16.33316319924255 14.215488653231146 30.565501675012985 0 0 0
1119 1 14.507553787311483 16.240643794702954 29.993028160997376 0 0 0
1121 1 16.405482783377302 16.22481457216385 27.94895146765791 0 0 0
1098 1 18.11131819412511 14.45846786650095 28.029171364235236 0 0 0
1104 1 19.966155792752367 14.32198611992683 30.235878912743274 0 0 0
1123 1 18.36597043128136 16.353880605163127 30.28299160225593 0 0 0
1125 1 20.319163765457226 16.084216980838207 27.96913876205567 0 0 0
1102 1 22.43579149153596 14.10009604542849 28.03905897601821 0 0 0
1127 1 22.469854896078644 16.38003829782921 30.336326916589847 0 0 0
1106 1 1.7458197307318606 18.234625226089975 27.933805788439063 0 0 0
1131 1 1.6060748499141082 20.2675403456444 30.16111557578603 0 0 0
1108 1 24.29809690541692 18.563677192036508 30.11850977207351 -1 0 0
1129 1 24.442371256320534 20.45291631920204 28.19212766947836 -1 0 0
1110 1 6.009219408380501 18.244956510903798 27.90117463533306 0 0 0
1112 1 3.692819938762143 18.397461226427495 29.613583290816216 0 0 0
1133 1 4.080724664316397 20.378831162603575 27.916322316794815 0 0 0
1135 1 5.782690088624224 20.119645322374012 30.097311343655353 0 0 0
1114 1 10.276221295092954 18.241169809929836 27.730434978193806 0 0 0
1116 1 8.011407675395802 18.464220496146268 29.901683027892716 0 0 0
1137 1 7.941971329568368 20.618215281889704 28.000022594670263 0 0 0
1139 1 10.037523785799289 20.2379946917885 29.94795343554144 0 0 0
1120 1 12.177309661448547 18.226716976644305 30.231518525643054 0 0 0
1141 1 12.053665679147821 20.354359116485128 28.035851242443023 0 0 0
1118 1 14.24883078545742 18.083408297379528 28.042630452366986 0 0 0
1124 1 16.315296297050565 18.4898812425968 30.25577646190459 0 0 0
1143 1 14.212512366906292 20.091716532488846 29.795873574133836 0 0 0
1145 1 16.12530397467495 20.41672996093037 28.14101169488715 0 0 0
1122 1 18.173029855594798 18.21270053044306 28.291286401443532 0 0 0
1128 1 20.36512577118257 18.46773788454481 30.352612826548626 0 0 0
1147 1 18.36170078064525 20.17963048853661 30.087603414624912 0 0 0
1149 1 20.150890495802408 20.349093123911608 28.238217827218676 0 0 0
1126 1 21.878224300473654 18.339459409236056 28.217123232580715 0 0 0
1151 1 22.480717641949752 20.409547729733013 29.84067864660412 0 0 0
1130 1 1.9104739045234438 22.159893746533996 28.412532165371708 0 0 0
1134 1 5.741964089689381 22.672902795466015 28.082597362418415 0 0 0
1136 1 3.937111843712315 22.32218929419229 30.030422316312094 0 0 0
1019 1 10.097680889857472 0.1412763907768948 30.07088430179275 0 0 0
1138 1 9.857348432972083 22.328104719844816 28.088930687900163 0 0 0
1140 1 7.935844646754887 22.534486610153635 30.11116929966976 0 0 0
1021 1 11.6996355597135 24.400890254364363 27.963603146803138 0 -1 0
1144 1 12.346366251284095 22.55146601259886 29.75448419614791 0 0 0
1142 1 14.395484496521949 22.463040769324593 27.893282353453976 0 0 0
1148 1 16.38531830751792 22.240364096580578 30.286133170524995 0 0 0
1146 1 18.37720976998054 22.179919396181816 28.329780668161785 0 0 0
1152 1 20.45252988952012 22.255373911262595 30.058570998549218 0 0 0
1031 1 22.43144471060765 -0.0665920129997984 30.168757115713568 0 0 0
1132 1 -0.19170987692847774 22.489076097419968 30.00597957263068 0 0 0
1009 1 -0.1444534285515372 24.395377093489202 28.183996313203153 0 -1 0
1150 1 22.637865975138347 22.64951006516892 27.932142105889096 0 0 0
1154 1 2.218393783605971 1.901136760679016 32.20507644772086 0 0 0
1157 1 3.7926787340463406 24.21210715924527 32.139365028539665 0 -1 0
1158 1 5.740233242538586 1.4250836029093994 32.33521356729745 0 0 0
1160 1 3.882485099377406 1.998490811137283 34.25385656832953 0 0 0
1159 1 6.303547003044092 24.182129092688264 34.12917562048423 0 -1 0
1162 1 10.179281135855785 1.776190384277835 32.3651565822245 0 0 0
1164 1 7.936210381811657 1.890666277735829 33.9004692337955 0 0 0
1168 1 12.317426196504007 1.7418060087541798 34.12781122424359 0 0 0
1166 1 14.1483050419326 1.8285915581590924 32.00883061723801 0 0 0
1169 1 16.219024790850845 24.254681794982794 32.16496298618799 0 -1 0
1170 1 18.302838003026622 1.6041880696208326 32.27791700816144 0 0 0
1176 1 20.664697533565594 1.7575873811312819 34.288600037021965 0 0 0
1156 1 -0.0536872961672199 1.9814427295132595 34.24355255611147 0 0 0
1174 1 22.570649429546123 1.8751600507837747 32.36259462401494 0 0 0
1153 1 -0.1279562694288927 24.360108124701725 32.31291598825803 0 -1 0
1175 1 22.518276244841893 24.39901373019287 34.502536777558966 0 -1 0
1178 1 2.2458738884841414 5.8466282002313905 32.47118440154659 0 0 0
1179 1 2.0853577995501023 4.020391712378159 34.50798628397105 0 0 0
1180 1 -0.036843054231532335 5.86331530803976 34.46268396225759 0 0 0
1177 1 24.3646019232715 3.825536666978382 32.336730085026815 -1 0 0
1181 1 3.8738469536573126 4.00495026353698 32.076152518979605 0 0 0
1182 1 5.646368882176893 6.3538124733356485 32.317442615738386 0 0 0
1183 1 6.245661513471527 3.908782937567203 34.218544110255856 0 0 0
1184 1 3.95159760770676 6.306959824187318 34.46492489062691 0 0 0
1185 1 8.286615645313422 3.8682140764255237 31.92100231940713 0 0 0
1187 1 10.032302396224054 3.863569254599634 34.28959891609169 0 0 0
1188 1 7.99098261511933 6.277536717082933 33.95525850889135 0 0 0
1186 1 10.207041808343428 5.8392469759874395 32.022184690457266 0 0 0
1189 1 12.122583203617275 3.9742079324884356 31.97073563786875 0 0 0
1192 1 12.086900582922128 5.9846056983524045 34.55567198651012 0 0 0
1190 1 13.96777220720229 5.967173235960688 32.23065664829545 0 0 0
1191 1 14.038463241871634 3.7943645047373633 34.176102877318925 0 0 0
1193 1 16.077712199640963 3.693626490151094 31.788171670488666 0 0 0
1196 1 16.14976420497529 5.800598433181598 33.66243963620035 0 0 0
1194 1 18.267003416579705 5.829511346805417 32.14985249075026 0 0 0
1195 1 18.026389984487913 3.822478379059797 33.91848587811419 0 0 0
1197 1 20.331891419762663 3.7521446510912013 32.56790884797465 0 0 0
1200 1 20.411479236153745 5.857338859252189 33.9593029240528 0 0 0
1198 1 22.690038485387603 5.906642859820909 32.175463124806754 0 0 0
1199 1 22.368765112638954 3.9171275651586885 34.494552180400675 0 0 0
1202 1 1.7481098125931023 10.225759825011147 32.03451649620998 0 0 0
1203 1 1.898814830733376 8.029025804826299 34.39953190293172 0 0 0
1204 1 24.483666435916724 9.996532224843213 34.07940285238006 -1 0 0
1205 1 3.562826269847026 8.283315682500236 32.157530385891526 0 0 0
1207 1 5.864235446458966 8.228274334229676 34.31455419896012 0 0 0
1206 1 5.910066895336496 10.202412775740463 32.1397596300148 0 0 0
1208 1 3.500332601093037 10.286567295849629 34.14200672256818 0 0 0
1209 1 8.28006659213271 8.366694180319245 32.10933605482918 0 0 0
1211 1 10.197296431106505 7.7799838389946885 34.048604517744494 0 0 0
1212 1 7.784595699177611 10.42722571579634 34.21649337434893 0 0 0
1213 1 11.973681269042995 8.05131108606735 32.31712841541204 0 0 0
1216 1 11.900483977310374 10.20683125422852 34.32279979889146 0 0 0
1215 1 14.41650141147417 7.879921298972212 34.2641224724709 0 0 0
1217 1 16.368271758903212 8.2251986472489 32.04332974125773 0 0 0
1214 1 13.903762008808746 9.95048066009849 32.39937001447603 0 0 0
1220 1 16.36482548986168 10.067860456423876 34.15285547368952 0 0 0
1219 1 18.325872983698574 7.982383451149403 34.073649848669014 0 0 0
1221 1 20.40107499018025 8.172169892214745 32.144337454147035 0 0 0
1224 1 20.581569899032864 10.133052325740879 34.155658408090076 0 0 0
1201 1 -0.005607266597900701 7.850837628025776 32.2689109083497 0 0 0
1223 1 22.549941180462312 8.17031197949923 34.225730014583945 0 0 0
1225 1 -0.04428144342803364 12.168064217624284 32.10657729441713 0 0 0
1227 1 1.577296064942223 12.265462107670466 34.345191765316855 0 0 0
1229 1 3.734500395408691 12.368895684152353 32.0242633982085 0 0 0
1231 1 5.894991252308324 12.372766548724046 34.09264006624659 0 0 0
1230 1 5.8467470546902085 14.349660642297195 32.011997294144344 0 0 0
1210 1 9.950438901487843 10.29150251429574 32.40949406436242 0 0 0
1233 1 7.7799187724303085 12.336771242090137 32.07074777202047 0 0 0
1235 1 10.074510049659724 12.35890681343656 34.14167911322776 0 0 0
1237 1 12.136317883250562 12.28412569135483 32.17118601748772 0 0 0
1241 1 16.179289834433916 12.010188742344331 32.03781465809145 0 0 0
1239 1 14.491811399905 11.909660534078213 34.4117996533679 0 0 0
1218 1 18.269618430155518 10.33413820624253 32.335137701087994 0 0 0
1243 1 18.500470517692257 12.047598069172857 34.5532572669683 0 0 0
1245 1 20.61308187963018 12.206174852305047 32.03836470321872 0 0 0
1222 1 22.415114173970117 10.124914921899324 32.272452234511114 0 0 0
1247 1 22.694432080867287 12.118611379776153 34.765449367712996 0 0 0
1226 1 1.9395488089448305 14.35876166153765 32.16027376216477 0 0 0
1228 1 24.460519806443763 14.348958826964665 34.231529188509136 -1 0 0
1251 1 1.663599487597612 16.22314686766441 34.452554147527074 0 0 0
1232 1 3.881005227659667 14.305053258438887 34.19458079485557 0 0 0
1253 1 3.996689370733205 16.46921595451405 32.11559607259136 0 0 0
1255 1 6.107934099059528 16.441408720009505 33.93070898422673 0 0 0
1234 1 9.662157758071023 14.257896139720222 31.862435176482258 0 0 0
1236 1 8.018104540142984 14.383757381512126 34.043702077162635 0 0 0
1257 1 7.815966003165514 16.214288090443695 31.61673246942265 0 0 0
1240 1 12.586166002012911 13.774701777728795 34.22772840536191 0 0 0
1261 1 12.361380086969518 16.07172167116326 32.42019577131753 0 0 0
1238 1 14.200070587231592 14.228900494849398 32.07504320438731 0 0 0
1265 1 16.34774288724487 16.54408772768023 32.40072162146653 0 0 0
1244 1 16.270556842856934 14.1655842704268 34.31408638506573 0 0 0
1242 1 18.464592439766115 14.121614614299807 32.40979207734335 0 0 0
1248 1 20.472638244113682 13.921493746194221 34.1489827956927 0 0 0
1269 1 20.718875421110333 16.506962860491946 32.158793088473004 0 0 0
1249 1 -0.020642978937715384 16.384341921464213 32.34833635711001 0 0 0
1246 1 22.206455524802003 14.198925066230125 32.105725070946406 0 0 0
1271 1 22.522148503503267 16.1267965623465 34.26556220204307 0 0 0
1250 1 1.7450563108651973 18.540237429742675 32.022721227193855 0 0 0
1275 1 1.8538586377513901 20.058650494621645 34.17733870811398 0 0 0
1252 1 -0.09357385488181791 18.27915415550143 34.43443937351448 0 0 0
1254 1 6.1905611176614945 18.420197108299647 32.09315555115419 0 0 0
1256 1 3.9537899684434548 18.358966428800933 34.09829754852285 0 0 0
1277 1 3.499559070812772 20.343726411973385 31.94836753560064 0 0 0
1279 1 5.848440300598597 20.337549549949664 34.078079238339456 0 0 0
1281 1 8.312730151241368 20.56890364840745 32.32929891150288 0 0 0
1260 1 7.91589109944608 18.377113503732524 34.145488708253104 0 0 0
1258 1 9.761651501194958 18.32337356311139 32.40922164832548 0 0 0
1283 1 10.229629086580962 20.172843157372228 34.36860629965096 0 0 0
1264 1 12.355526260776085 18.17947880245344 34.046347800013464 0 0 0
1285 1 12.376410354796956 20.36397062082014 31.875036771342714 0 0 0
1262 1 14.0757475604675 18.309915896267405 32.081082272228976 0 0 0
1268 1 16.647615383329054 18.454800735992137 34.352305954581695 0 0 0
1287 1 14.197379959252883 20.393772803285103 34.01840512204279 0 0 0
1289 1 16.2563283902088 20.357159269683073 32.1791459797804 0 0 0
1266 1 18.445377499040667 18.433105040029304 31.985504433035814 0 0 0
1272 1 20.517603967706627 18.53733695334735 34.092247645527486 0 0 0
1291 1 18.398027106166488 20.325396021691432 34.184650294149634 0 0 0
1293 1 20.25160977825516 20.744577105357045 32.38710945845166 0 0 0
1273 1 24.49372775479555 20.6036804996912 32.09631853512956 -1 0 0
1270 1 22.69561840488477 18.289473032554064 32.14446195644534 0 0 0
1295 1 22.492704853038873 20.352055162458534 34.43050791498618 0 0 0
1155 1 1.9318369123800077 -0.03642049348994192 34.26128466438778 0 0 0
1274 1 1.9684869856352707 22.465396113679546 32.281100075468736 0 0 0
1278 1 5.8679297729930004 22.384740168750767 32.06292008107407 0 0 0
1280 1 4.109827301138082 22.408368375905667 34.341801102737804 0 0 0
1161 1 8.016179372461442 24.435637830972617 31.949614550101018 0 -1 0
1282 1 10.309873788096114 22.279694852599583 31.672093222159113 0 0 0
1284 1 8.100843176249615 22.229798099250132 34.53508813547403 0 0 0
1163 1 9.754068123143123 24.034563855627994 34.198617756727266 0 -1 0
1165 1 12.408887385528752 -0.09075471889856962 32.12396878431484 0 0 0
1288 1 12.0439828651162 22.111736241514286 33.906822108370775 0 0 0
1167 1 14.202906405620688 24.449017086940955 34.06268301565598 0 -1 0
1286 1 13.976078900423982 22.464130547492736 31.818267224497383 0 0 0
1292 1 16.075002691879284 22.28561531969173 34.1099568358854 0 0 0
1171 1 18.461660083482478 24.37294086722955 34.28073003463664 0 -1 0
1173 1 20.66835630664381 -0.04848147040868156 31.896391427085824 0 0 0
1290 1 18.262523774385492 22.652991466974115 32.17725944097052 0 0 0
1296 1 20.536680850021675 22.690432404404582 34.128203440342425 0 0 0
1276 1 -0.16881483319950158 22.196022623407742 34.27239358874706 0 0 0
1294 1 22.45979967360003 22.337872602993137 32.02897954842562 0 0 0
1298 1 1.8922635696743724 2.234197082802466 36.384659348090175 0 0 0
1302 1 5.868605865143864 1.9795687587331097 36.397231819194204 0 0 0
1306 1 10.077656685991013 1.79185542887328 35.99387969730191 0 0 0
1172 1 16.185428124846162 1.8569753338062855 33.98601541403868 0 0 0
1310 1 14.489303680082589 1.894299562081934 36.20896020897538 0 0 0
1314 1 18.08725037400213 1.8579475206679321 36.07488602164155 0 0 0
1318 1 22.436570427078706 1.7997949354716904 36.56857968720089 0 0 0
1322 1 2.174244056600845 6.125635059072498 36.44159062057935 0 0 0
1325 1 4.178441043299307 4.264759212151374 36.40491738723716 0 0 0
1326 1 6.110014033899889 6.193118338770733 36.16640029730448 0 0 0
1329 1 7.976267758040484 4.199550448809518 36.24877429352917 0 0 0
1330 1 10.16124252132071 6.161375790273139 36.10404632918952 0 0 0
1331 1 10.327810913976066 3.931444551442004 37.93430412799376 0 0 0
1333 1 12.314757386419906 3.397371564649175 36.14942325300418 0 0 0
1334 1 14.321240590604337 5.7928796341795525 36.23274924245802 0 0 0
1337 1 16.39983877471166 3.896209957825631 36.37104490261572 0 0 0
1338 1 18.055436829510157 6.129220984891226 35.82735791782417 0 0 0
1341 1 20.333115997547765 3.9101548266616915 36.498432821243355 0 0 0
1321 1 24.460031712847844 4.074869553381494 36.410260407153565 -1 0 0
1342 1 22.306937338480928 5.948672608679999 36.17891798995658 0 0 0
1346 1 1.7649501193283854 10.43468369805644 36.39019510006935 0 0 0
1345 1 0.06493339806418125 7.866393106637696 36.36797615083184 0 0 0
1349 1 3.923045110827771 8.508177950308497 36.22997177903417 0 0 0
1350 1 6.135858326873378 10.032344979138811 36.267758898641894 0 0 0
1352 1 3.819724290796576 9.97715857073617 38.1940944734011 0 0 0
1353 1 8.165683106943927 8.181850732422532 36.30251653843456 0 0 0
1356 1 8.021773821660052 10.402311390787611 38.28502272617754 0 0 0
1354 1 10.106795690749474 10.315502555907523 36.359162804606676 0 0 0
1357 1 12.378359333074576 8.117395703975173 36.381880803195706 0 0 0
1361 1 16.44280683243599 8.275458424069056 36.31948561071698 0 0 0
1358 1 14.150369392596295 10.150195419816098 36.45870213225646 0 0 0
1362 1 18.64966288495799 9.758429407579163 36.2027763236587 0 0 0
1365 1 20.525302428042863 7.790520520658151 36.14259339071652 0 0 0
1363 1 18.135324258527746 8.422475888652057 38.61909150827041 0 0 0
1366 1 22.809400731412524 9.996995885510515 36.48830064016029 0 0 0
1373 1 4.0561491149664 12.37945688121791 36.47475593471473 0 0 0
1377 1 8.007540866360443 12.36310899210503 36.16868147273917 0 0 0
1381 1 12.035400753482042 12.243163581326572 36.479484457865894 0 0 0
1385 1 16.673971167777502 11.993985541170414 36.455672885338664 0 0 0
1389 1 20.547906505766413 11.868759118931392 36.46617375322576 0 0 0
1369 1 -0.15658236305428175 12.511822590231441 36.44154208207358 0 0 0
1370 1 1.926894956542184 14.35262211527456 36.37617721569576 0 0 0
1374 1 5.889614151196592 14.254183688605226 36.4284010052758 0 0 0
1397 1 4.208782357570628 16.094558096489827 36.19313018133165 0 0 0
1259 1 9.822191250445396 16.077053865377174 34.10296277736042 0 0 0
1378 1 10.30544131158316 14.403672410276116 36.08051194311359 0 0 0
1401 1 8.007510859797563 15.967187530654888 36.44799578902597 0 0 0
1405 1 12.200802842696941 16.202261200523985 36.45373729823902 0 0 0
1263 1 14.290276010237998 16.303472379216323 34.22657488561668 0 0 0
1382 1 14.326233107198416 13.829575543830206 36.204568773168326 0 0 0
1409 1 16.355107254343693 16.326678039252982 36.47062742946783 0 0 0
1267 1 18.58924848583905 16.113564479692606 34.27734933289842 0 0 0
1386 1 18.138181893030094 14.230731334986901 36.13195733920702 0 0 0
1413 1 20.356830589812397 16.19326495688511 36.25611926391308 0 0 0
1393 1 24.349521909857145 15.956778089789209 36.399684346978454 -1 0 0
1390 1 22.15594944622574 14.213411024454926 36.45254682387985 0 0 0
1394 1 1.7714893560914948 18.186334238458905 36.679613441325564 0 0 0
1417 1 -0.0780745308982489 20.214748118247208 36.168113049357395 0 0 0
1398 1 6.066705191423345 18.08269089831097 36.08664491380968 0 0 0
1421 1 3.822211398085244 20.44050087169977 36.16172976885905 0 0 0
1402 1 10.12455802591601 18.07323369017162 36.42636086902865 0 0 0
1425 1 8.050560692033669 20.09849775732362 36.35801688243846 0 0 0
1429 1 12.406597504322436 20.104211332440222 36.0522849405194 0 0 0
1406 1 14.238252075716723 18.18455318132495 36.16875919804334 0 0 0
1433 1 16.459032170072014 20.402386219031776 36.39498341482371 0 0 0
1410 1 18.371039614702497 18.418625113685714 36.58884871795101 0 0 0
1437 1 20.01786818397376 20.526310637721764 36.360737661975 0 0 0
1414 1 22.45719544740429 18.041061639849268 36.45023315270504 0 0 0
1418 1 1.7996529148850573 22.354480475316976 36.09942268661266 0 0 0
1301 1 3.915327208023087 -0.019263036576866066 36.345540193398186 0 0 0
1422 1 6.017408050927685 22.490157603933987 36.32964326622529 0 0 0
1305 1 7.806069274694 24.448596392417958 36.26773866792432 0 -1 0
1426 1 10.173150639011684 22.11443549787399 36.13134201633974 0 0 0
1309 1 12.095690206932959 24.270429531506622 36.10162598044603 0 -1 0
1313 1 16.250265431475093 -0.05718011245716474 36.34061551862243 0 0 0
1430 1 14.121841629463702 22.472113697233517 36.26616454416291 0 0 0
1317 1 20.043333463809716 0.03181705847604377 36.55486963032097 0 0 0
1434 1 18.116902735634532 22.53626600881983 36.28744075004992 0 0 0
1297 1 -0.12090623845138274 24.15688061374769 36.2133823065649 0 -1 0
1438 1 22.33072649913909 22.331277897109743 36.496221998737035 0 0 0
1442 1 1.7576060244399305 1.7157035614371956 40.585925272559294 0 0 0
1300 1 -0.1501140726544108 1.9195214027327974 38.24928299647463 0 0 0
1304 1 3.883645594382399 1.774157284459137 38.619419565470636 0 0 0
1446 1 6.25780645420972 1.9839117337223633 40.24678747569219 0 0 0
1445 1 3.8610430801590727 24.216953665104285 40.413559093442764 0 -1 0
1308 1 8.027903122146189 1.7985051492401873 38.20575025312273 0 0 0
1450 1 10.066976333383808 2.1857907019890215 40.271980982812586 0 0 0
1312 1 11.980684036354528 1.6661395232740017 38.29729302386397 0 0 0
1453 1 11.95426302118729 24.429450697728143 40.29566684003745 0 -1 0
1316 1 16.406395933035114 1.9951223589734561 38.16570550517486 0 0 0
1454 1 13.980884933204912 1.8986601175157536 40.42690222980679 0 0 0
1457 1 16.123187008126152 -0.13073635144688467 40.5325413757893 0 0 0
1311 1 14.095717239061493 24.44934091656456 38.27031553332745 0 -1 0
1320 1 20.128062061959675 2.0399326021751794 38.274873882632455 0 0 0
1458 1 18.14566643777094 1.9080881846244342 40.59391330259258 0 0 0
1315 1 18.4691923522308 24.44773944590692 38.4610304084118 0 -1 0
1461 1 20.51048793945907 -0.04154386586105446 40.62948725969785 0 0 0
1462 1 22.1778371947416 1.9111260137079995 40.34878837476937 0 0 0
1323 1 2.027195986563112 3.673509600020891 38.444965972306946 0 0 0
1466 1 1.8046787141213632 5.868505156012191 40.404878845642614 0 0 0
1324 1 -0.1061250891531633 5.868102945273662 38.35500811655611 0 0 0
1465 1 24.351498241691147 3.892855336431645 40.521797769703625 -1 0 0
1327 1 5.943923768198841 4.102695274251078 38.152079353010265 0 0 0
1328 1 3.8685092245141925 5.954127121807079 38.55528222697159 0 0 0
1469 1 3.9974108687374494 3.9934824563070688 40.58001332260601 0 0 0
1470 1 6.158721623447244 5.976986264158611 40.350660776938724 0 0 0
1332 1 8.005051382891228 5.829312463467888 38.43536741407247 0 0 0
1473 1 7.914678045902534 4.015136938177341 40.49549500073527 0 0 0
1474 1 10.107916816638838 6.068899091566791 40.475462128632884 0 0 0
1336 1 12.2373040153668 5.9608883547603675 38.03617879690885 0 0 0
1477 1 11.918928036217615 4.071323392266174 40.22810481534238 0 0 0
1478 1 14.098719904243346 5.748064072076214 40.612496637665814 0 0 0
1335 1 13.993331005274927 3.9635966061591255 38.364207252605006 0 0 0
1340 1 16.514548202907697 5.712351991895951 38.06065089475125 0 0 0
1481 1 16.135725872168194 3.8551636723517158 40.24986112316891 0 0 0
1339 1 18.32417021590389 4.0484262694639614 38.33676362110157 0 0 0
1344 1 20.242462828577743 6.128742125627726 38.11943690379752 0 0 0
1482 1 18.073513803976702 6.175293834464481 40.15025070905121 0 0 0
1485 1 20.335409830110834 3.954454266223678 40.55854853125831 0 0 0
1343 1 22.378974177236735 4.106599235595717 38.4435342763483 0 0 0
1486 1 22.24864931127889 5.994150138275097 40.45464838524739 0 0 0
1347 1 1.8881319965236556 7.936091429616241 38.53910148583098 0 0 0
1490 1 1.7780352684461933 10.237611591215343 40.58606266571842 0 0 0
1489 1 24.406943882231545 8.11020640319705 40.58862102753788 -1 0 0
1348 1 0.36848192978297234 10.128558355988382 38.44311057300903 0 0 0
1351 1 5.941502149197484 8.263185339499259 38.422136746541454 0 0 0
1493 1 3.7525867492813267 7.9401505922387905 40.686193412395426 0 0 0
1494 1 6.0487736966195875 10.132278650085766 40.48566582883877 0 0 0
1355 1 10.204947297442043 8.058569296400266 38.52624591597144 0 0 0
1497 1 7.832844234493086 8.271619518364814 40.64601314896329 0 0 0
1498 1 10.13660601702589 10.106415539428996 40.279416971503586 0 0 0
1360 1 12.285733118296422 9.865967325311708 38.3559831316424 0 0 0
1501 1 12.383594007229856 7.857564699509661 40.33377818373151 0 0 0
1502 1 14.015813690581096 10.332812322116053 40.40195580981409 0 0 0
1359 1 14.538872106161755 7.801512140815534 38.20156036968962 0 0 0
1364 1 16.26457908746491 10.313194785316119 38.36338242625753 0 0 0
1505 1 16.34339461847496 8.207735063881318 40.323120063756505 0 0 0
1368 1 20.760848200375335 10.189956185094221 38.43174743719797 0 0 0
1506 1 18.294219020214847 10.302354340482209 40.52322854597193 0 0 0
1509 1 20.47129283054995 8.149986350055816 40.30836499795751 0 0 0
1367 1 22.477473706656852 8.135251473922203 38.39905456917081 0 0 0
1510 1 22.436081177010017 10.24750412032556 40.617539369296814 0 0 0
1371 1 1.8654821542723155 12.12237127738465 38.558832803971505 0 0 0
1375 1 5.80576643626294 12.202952976203482 38.393265992195175 0 0 0
1517 1 4.008492291663755 12.53976795157588 40.69973703468778 0 0 0
1379 1 9.686763792568302 12.545532400157423 38.31513042887971 0 0 0
1521 1 8.102292274319266 12.204460704600345 40.60568711996179 0 0 0
1525 1 11.928548678267015 12.278032041861119 40.58649162032863 0 0 0
1383 1 14.402229061867132 12.055118585626492 38.51208432772922 0 0 0
1529 1 16.59823301983119 12.288929968080806 40.51710217855129 0 0 0
1387 1 18.497433494664506 11.95046765227227 38.2584839174553 0 0 0
1533 1 20.412366231491944 12.246520112637032 40.03814212704169 0 0 0
1513 1 -0.17835470072227366 12.094446829285673 40.539823726320186 0 0 0
1391 1 22.71408689211019 12.091621084529102 38.49023318101755 0 0 0
1395 1 1.834068112025193 16.398506819001483 38.8935641672583 0 0 0
1514 1 1.7867600026584098 14.407674383226565 40.53328199666205 0 0 0
1372 1 -0.11410475115040697 14.09294180315329 38.70563283675554 0 0 0
1537 1 24.15790050775157 16.504758797124467 40.69800199283525 -1 0 0
1376 1 3.4669232932237937 14.169951074582634 38.532695235380224 0 0 0
1399 1 5.9671894064391156 16.541695375396934 38.327004655842835 0 0 0
1518 1 5.954425953878487 14.5616327810714 40.377356994051304 0 0 0
1541 1 3.7877122735132893 16.56567664066189 40.70545051439409 0 0 0
1380 1 7.86325617370872 14.281013277018845 38.44639201422277 0 0 0
1403 1 10.301969652074277 16.197114784766896 38.53075705564055 0 0 0
1522 1 10.115195658612521 14.502403933855135 40.58694492135021 0 0 0
1545 1 7.664874688179414 16.327817920274022 40.4608546373892 0 0 0
1384 1 12.14608073433788 13.973031151324811 38.54443482797849 0 0 0
1549 1 12.074131101905706 16.297275930045863 40.32811280015275 0 0 0
1407 1 14.10862821443681 15.917551244490918 38.51511878546082 0 0 0
1388 1 15.970009810149142 14.208189959042691 38.229705966303605 0 0 0
1526 1 14.09600713231607 14.236730807940683 40.563322355350564 0 0 0
1553 1 16.312813100580314 16.443557139812647 40.5418166549199 0 0 0
1392 1 20.200717047478783 14.252539315192113 38.1875163693507 0 0 0
1411 1 18.416573892280702 16.182779701601888 38.1901011846476 0 0 0
1530 1 18.289210810815277 14.43138325289925 40.21008312837444 0 0 0
1557 1 20.129880786544653 16.135110803852697 40.438283575845524 0 0 0
1534 1 22.278725949099055 13.959290299215711 40.520387024878346 0 0 0
1415 1 22.36699754103868 16.16385560942669 38.6952977287551 0 0 0
1419 1 1.750331861996229 20.441200732549312 38.127441435162254 0 0 0
1538 1 2.1221429013767694 18.542202411706803 40.82917660204644 0 0 0
1396 1 0.02543344186450014 18.414524238032712 38.57571295267575 0 0 0
1561 1 -0.04567137612756583 20.51126084293876 40.306151830702895 0 0 0
1400 1 3.7645031048454696 18.46543392775944 38.455867064277285 0 0 0
1423 1 5.78055963802872 20.37618384056276 37.884363886253475 0 0 0
1542 1 6.001430940237655 18.400738804320795 40.47047248113305 0 0 0
1565 1 4.2092163071621735 20.53130433933547 40.023379772976945 0 0 0
1427 1 10.115426505726022 20.367204180292887 38.32797266252175 0 0 0
1404 1 7.8821939133646115 18.414472845953455 38.260179444188694 0 0 0
1546 1 10.025282516189408 18.37851908158904 40.465031308554465 0 0 0
1569 1 8.279071225051363 20.37185312006465 40.448579073779335 0 0 0
1408 1 12.221489656013796 18.220434017158702 38.428305935303314 0 0 0
1573 1 12.358396859256395 20.221865622806725 40.225794094491306 0 0 0
1550 1 14.244237399190121 18.299087703022558 40.70491078593994 0 0 0
1412 1 15.924153612263572 18.26824539860909 38.48936857839443 0 0 0
1431 1 13.999751957701497 20.274785501555705 38.26004486089645 0 0 0
1577 1 16.059707326914967 20.51618803409741 40.45914308759999 0 0 0
1435 1 18.195371301618025 20.510512652312308 38.52689828927598 0 0 0
1416 1 20.495252790555234 18.56948716633972 38.03462593612361 0 0 0
1554 1 18.23462663199566 18.354707890492072 40.25086852044781 0 0 0
1581 1 20.19282274204211 20.477979159963922 40.18378662145343 0 0 0
1439 1 22.403540036511572 20.2268156911233 38.51358515840045 0 0 0
1558 1 22.471369723247967 18.424464064085548 40.46927140924777 0 0 0
1299 1 1.5575651719667303 -0.03890363858968726 38.34388333340215 0 0 0
1562 1 1.7334063357069167 22.38422265125717 40.243618391848855 0 0 0
1420 1 24.18495855354945 22.402975515309777 38.34773425618933 -1 0 0
1303 1 5.638135798638745 24.422696789555435 38.051812250363945 0 -1 0
1424 1 3.7494166523360897 22.314404323462583 38.184415350043764 0 0 0
1566 1 5.907934109742224 22.61682179980277 40.069119738454454 0 0 0
1449 1 8.046253478349207 0.15040405803472368 39.9882810697535 0 0 0
1307 1 9.925931103043 24.405550409668862 37.885083680422646 0 -1 0
1428 1 8.025960023372297 22.52671530650896 38.175860347459135 0 0 0
1570 1 10.09446266973055 22.500563957472572 40.44803920261275 0 0 0
1432 1 12.058625342895231 22.33261166818498 38.28362208828131 0 0 0
1436 1 16.242719876340416 22.454325847756806 38.37031286487052 0 0 0
1574 1 14.012573884018025 22.801446785473217 40.4068875930065 0 0 0
1440 1 20.350723314743632 22.613455760155937 38.46404447423504 0 0 0
1578 1 18.353056853283547 22.34768755042269 40.486950883166045 0 0 0
1441 1 24.132953390870455 24.409906762429085 40.21882620257149 -1 -1 0
1319 1 22.350959394186063 -0.15167812703978403 38.546603525266875 0 0 0
1582 1 22.46024639808553 22.302336577095602 40.469618872140316 0 0 0
1586 1 1.8566835355440228 2.441464179279163 44.304895958062744 0 0 0
1444 1 24.480488858570347 1.759621550613522 42.53178229544389 -1 0 0
1448 1 3.8379175820414835 1.9120316487279347 42.45009739579842 0 0 0
1590 1 5.7743507465871895 1.8125595712306561 44.725141445609495 0 0 0
1589 1 3.6931516749366353 24.37543634582179 44.5103493358807 0 -1 0
1452 1 8.07308571644677 1.838680283641705 42.37957255520771 0 0 0
1594 1 10.179540402378924 2.2446634210911665 44.43637574380415 0 0 0
1593 1 7.936246883398399 0.054667363939635394 44.48608144909827 0 0 0
1451 1 9.997348129984116 0.11572452760682089 42.35514616407942 0 0 0
1456 1 12.047191347167805 2.056080530716011 42.403969229705 0 0 0
1460 1 16.577943675066038 1.780345449949575 42.64013569572127 0 0 0
1598 1 13.770458761711968 2.1253499022139786 44.604659678867684 0 0 0
1455 1 14.143956657249717 0.2569986411501048 42.52731188008455 0 0 0
1464 1 20.24701258338822 1.9712468969680699 42.684973698065484 0 0 0
1602 1 18.366063936174534 2.020410959356015 44.73551403276823 0 0 0
1459 1 18.421288643374275 24.358188138690664 42.30594297490469 0 -1 0
1606 1 22.53657739985666 1.957644234934583 44.58185768685996 0 0 0
1585 1 24.364510890156325 24.358878929834813 44.69782598291507 -1 -1 0
1463 1 22.23929085646226 -0.08303524187139288 42.62996374204989 0 0 0
1467 1 1.9582955111277758 4.309634267202579 42.481582021254 0 0 0
1610 1 1.6478382295012441 6.0885775484942055 44.58233207199226 0 0 0
1609 1 24.393911581241948 3.955636020304241 44.391993673541734 -1 0 0
1471 1 6.163071818132784 3.7313152400495584 43.01055827538191 0 0 0
1472 1 4.025287151467723 5.960076836241332 42.45148354992724 0 0 0
1613 1 3.93537572722908 4.106743504652004 44.536991983686825 0 0 0
1614 1 5.912242912153462 6.033031436841054 44.54915973706229 0 0 0
1475 1 10.194105554463365 4.048604829519729 42.49010586415064 0 0 0
1476 1 8.059991264499505 6.311792113659523 42.45067765441726 0 0 0
1617 1 8.421466100931543 4.263673664044513 44.65044911011799 0 0 0
1618 1 10.112013127912405 6.218132729004024 44.43347840156729 0 0 0
1480 1 12.140970155232475 6.049421658421888 42.34302323419055 0 0 0
1621 1 12.167790630154382 4.244994626541999 44.35874100285185 0 0 0
1479 1 14.225659283062743 4.0030311019558935 42.39918010450973 0 0 0
1484 1 16.200140418985924 6.10057411996823 42.295161802433235 0 0 0
1622 1 14.297223021401594 6.140050502215162 44.506181054671565 0 0 0
1625 1 16.31853264765489 4.211984333268722 44.099550866640875 0 0 0
1483 1 18.531265297692933 4.105873411846015 42.175859458200314 0 0 0
1488 1 20.31322273639659 6.198588737638991 42.343217123939986 0 0 0
1626 1 18.25937406944322 6.3378239575745114 44.500660978778384 0 0 0
1629 1 20.211159688964194 4.067961561248073 44.53573284643779 0 0 0
1468 1 24.473812662987655 6.1115713397502605 42.71999722835932 -1 0 0
1487 1 22.346459009378684 4.059508611756195 42.42839848481733 0 0 0
1630 1 22.39512234328624 5.830234756736206 44.51618188546596 0 0 0
1491 1 1.89874429585546 8.180999381424023 42.8377027735845 0 0 0
1633 1 -0.12674446442708387 8.191828684459475 44.660350518496834 0 0 0
1634 1 1.8790799841462293 10.86143248990834 44.55339997035594 0 0 0
1495 1 5.859697717313822 8.18770944245531 42.677270953162235 0 0 0
1496 1 3.8146791769502197 10.343509830636972 42.31578968281423 0 0 0
1637 1 3.818438342061981 8.427100209767524 44.59922052482875 0 0 0
1638 1 5.754461038926456 10.012778737173798 44.60545792881879 0 0 0
1499 1 10.172995764206718 8.501487277894459 42.55641317431754 0 0 0
1641 1 8.123738839025796 8.25029869109158 44.596453773762114 0 0 0
1642 1 9.904240937836324 10.18394366136424 44.73733454718836 0 0 0
1500 1 8.05070982379679 10.40583612256241 42.644442738920176 0 0 0
1504 1 12.102357137133062 10.360416105517539 42.45028899148427 0 0 0
1645 1 12.120186507553512 7.983945561865122 44.418319484227446 0 0 0
1646 1 14.142299113648594 10.240587489433643 44.79530292381166 0 0 0
1503 1 14.202649922535171 8.569795447266728 42.429943886057785 0 0 0
1649 1 16.09894277079139 8.197386171355136 44.413850228084144 0 0 0
1508 1 16.209248550124684 10.150361300636611 42.35377426218486 0 0 0
1507 1 18.341356669035882 8.151024923139103 42.43440183691653 0 0 0
1650 1 18.20980079575571 10.199765533956462 44.39652342251495 0 0 0
1653 1 20.402218009968635 8.136973412707627 44.48845357251047 0 0 0
1512 1 20.420616131219354 10.145719144436043 42.500902253599776 0 0 0
1492 1 -0.051321594552242805 10.478590561777304 42.522801660457525 0 0 0
1511 1 22.51711325021835 8.136121871760464 42.53548646450459 0 0 0
1654 1 22.51925502723182 9.945881749735406 44.407152926478595 0 0 0
1515 1 1.8290971997609926 12.402903227503598 42.327902007181414 0 0 0
1657 1 24.353939063250046 12.449865713306549 44.544453628463486 -1 0 0
1519 1 6.134804313243771 12.315847938422746 42.83977115087704 0 0 0
1661 1 4.029831332445053 12.229636840450427 44.556247838621836 0 0 0
1520 1 3.9135794042534062 14.593486439048744 42.72569520311425 0 0 0
1523 1 9.981942726873491 12.359693215381984 42.67075660550995 0 0 0
1665 1 7.914696741911152 12.37702503414314 44.58365780721097 0 0 0
1669 1 12.153091646980744 12.084254972965546 44.647891481527694 0 0 0
1527 1 14.09969156972271 12.18964553289487 42.6297637504098 0 0 0
1673 1 16.38858953400313 11.922886798912325 44.63969940693649 0 0 0
1677 1 20.279242590488614 12.314841790128241 44.09096573371777 0 0 0
1531 1 18.08208849454467 12.226426065419863 42.39099737257791 0 0 0
1535 1 22.53679105235846 12.094297719547766 42.39634305510544 0 0 0
1539 1 1.9985513728315678 16.450144827851297 42.65872456708509 0 0 0
1658 1 1.7892654408363415 14.22840068756527 44.677222959893115 0 0 0
1516 1 -0.14769589728843582 14.142122149916204 42.51502362759235 0 0 0
1681 1 24.485548092575627 16.384886458598082 44.19740218644467 -1 0 0
1685 1 4.064375348938162 16.423263432406408 44.7330901886812 0 0 0
1543 1 6.10746596327854 16.12229048709463 42.61412169641378 0 0 0
1662 1 5.867825040945513 14.094302192358187 44.653268554576684 0 0 0
1689 1 7.8101147506456545 16.481579511160106 44.82483967204273 0 0 0
1524 1 8.072420094506471 14.271580421720653 42.73213658865258 0 0 0
1666 1 9.855770724022161 14.45259091851347 44.75588627534018 0 0 0
1547 1 10.04135821491016 16.330453990377507 42.75727052794029 0 0 0
1693 1 12.100428015865955 16.662210813332287 44.55714818499593 0 0 0
1528 1 11.936059570104058 14.366821406086688 42.82139484080475 0 0 0
1670 1 14.101403849618116 14.223652398044434 44.71572240050222 0 0 0
1551 1 13.783069395354731 16.27099172989199 42.69051068043139 0 0 0
1697 1 16.07894921840976 16.3265437747798 44.49615570204534 0 0 0
1532 1 15.872849954182284 14.28316170289631 42.484181685415834 0 0 0
1701 1 20.482802359597017 16.522001965952327 44.615850239785885 0 0 0
1536 1 20.348789379001225 14.058371504450529 42.477947798431636 0 0 0
1555 1 18.239934852398804 16.364117477506795 42.32907400795424 0 0 0
1674 1 18.320541264063337 14.284264164400383 44.39886692752059 0 0 0
1678 1 22.490087605202483 14.328905901902607 44.467937453313525 0 0 0
1559 1 22.30545708412393 16.223858632810362 42.70622200537314 0 0 0
1682 1 1.9069150575316538 18.49509877171647 44.7353013857993 0 0 0
1563 1 1.9792694218726896 20.57942205990785 42.443580509423064 0 0 0
1705 1 -0.058010107979647785 20.440706376645267 44.60615153439025 0 0 0
1540 1 24.415007892409932 18.48070312567853 42.534697059332785 -1 0 0
1709 1 4.173432529849598 20.45828288072373 44.25058393558443 0 0 0
1686 1 5.988205118451491 18.44628961414856 44.530396112589614 0 0 0
1544 1 3.8826830439014506 18.310965091961215 42.81938047953841 0 0 0
1567 1 6.004182938396119 20.483571838815067 42.083936196295255 0 0 0
1690 1 9.824475998057903 18.202258951729043 44.66923614372223 0 0 0
1713 1 7.61847632663456 20.79853750278248 44.66087851912208 0 0 0
1548 1 8.349286592164013 18.57208067591533 42.46919280587398 0 0 0
1571 1 10.335148651502829 20.43239585701029 42.610431230949324 0 0 0
1717 1 12.15630881384564 20.450841025900637 44.58655712638093 0 0 0
1552 1 12.370517105960204 18.679405806589017 42.648274769947065 0 0 0
1575 1 14.478384834165725 20.57035706350338 42.54972029989968 0 0 0
1721 1 16.263313439441802 20.390431325929384 44.317371936506376 0 0 0
1694 1 14.338379333628612 18.293171137348487 44.77193796339179 0 0 0
1556 1 16.197596734993063 18.201731684005544 42.53230058001009 0 0 0
1725 1 20.428538777724242 20.32650930814308 44.141808150671906 0 0 0
1698 1 18.313439784619128 18.341075655005163 44.49612348039481 0 0 0
1560 1 20.37827477669903 18.31714055557407 42.135955020291895 0 0 0
1579 1 18.22039322068067 20.285660695723237 42.524731917758935 0 0 0
1702 1 22.369448897830594 18.217859133673834 44.3445451970333 0 0 0
1583 1 22.516906751253543 20.6724164248332 42.40568729860748 0 0 0
1443 1 1.8994232532139574 24.29900001536427 42.57066997939633 0 -1 0
1706 1 2.0455381122789422 22.33981947731681 44.30586997923029 0 0 0
1564 1 24.32882994345975 22.48218509518496 42.46583284748549 -1 0 0
1710 1 5.845611899106004 22.701569416203967 44.27874326984239 0 0 0
1447 1 5.698404441024664 0.04803431451010767 42.294196191335125 0 0 0
1568 1 3.772175901060352 22.445954928777944 42.2170278311329 0 0 0
1714 1 9.926330758500908 22.455975000655727 44.25942584767474 0 0 0
1572 1 8.080038766885421 22.301732258248173 42.377415876788035 0 0 0
1597 1 12.03659506226722 -0.05372311826327027 44.22559674845678 0 0 0
1576 1 12.061797409693892 22.54260978183956 42.17981439603488 0 0 0
1601 1 16.108469107085753 0.09554519139306678 44.56032826915461 0 0 0
1718 1 13.972877363901704 22.592954949424595 44.21266356046239 0 0 0
1580 1 16.109351414085992 22.51821400424756 42.38924345630849 0 0 0
1605 1 20.068241255936734 0.05579977009381984 44.546537867958214 0 0 0
1722 1 18.219521114701863 22.459293077489754 44.53090158826299 0 0 0
1584 1 20.41260785979683 22.54792220212037 42.55037729288138 0 0 0
1726 1 22.365930637297936 22.38044317097807 44.893351785065875 0 0 0
1587 1 1.7436153866928303 0.2871677084187829 46.58810627184697 0 0 0
1588 1 -0.09426076523300253 2.1534408299345476 46.748818087482555 0 0 0
1592 1 4.147391863967867 1.6774097027089525 46.726609310699736 0 0 0
1596 1 8.08760423609165 1.988742656628589 46.28305672972435 0 0 0
1688 1 3.705500957426977 18.49015697286348 46.8317023996268 0 0 0
1600 1 12.073089360956724 2.246700434460632 46.77072153535758 0 0 0
1599 1 14.04555778955879 0.060831509216888485 46.27574345089447 0 0 0
1604 1 15.929781084689195 1.9307478809263592 46.2343515475121 0 0 0
1719 1 14.005482553482071 20.68304837367217 46.62045778662262 0 0 0
1608 1 20.321080053254057 2.1933044673258557 46.698004413531 0 0 0
1607 1 22.417251615858852 0.13027896941258305 46.52310015326763 0 0 0
1611 1 2.0032530731581057 3.891784483018067 46.37290102082819 0 0 0
1612 1 -0.01168610047202634 6.014979096296745 46.39281823334151 0 0 0
1615 1 6.132179402004589 4.029009820119124 46.37878680266281 0 0 0
1616 1 3.8815190993703466 6.087925442198278 46.41641950306508 0 0 0
1684 1 -0.05783285221134804 18.481862608894176 46.54065811685061 0 0 0
1619 1 9.83992007375344 3.976123238462094 46.97658757360164 0 0 0
1620 1 7.798964912705892 6.088707295393176 46.37832560468804 0 0 0
1707 1 1.8995493164693986 20.61662415460851 46.51259792448754 0 0 0
1624 1 11.948860068560275 5.85175878836474 46.57557492730539 0 0 0
1672 1 12.14285200055808 14.079426264240096 46.52849856212473 0 0 0
1623 1 14.30583148645143 4.034030883215654 46.7913062449607 0 0 0
1628 1 16.289859246954677 6.04838111095579 46.31831370361249 0 0 0
1627 1 18.16849777241883 4.022039195463369 46.426858013935956 0 0 0
1632 1 20.468314433827608 5.898789218611388 46.581756881561084 0 0 0
1703 1 22.42780217171213 16.258904464934034 46.69384727029122 0 0 0
1631 1 22.378017110177815 3.8546445067190227 46.56423668621098 0 0 0
1699 1 18.17939643704819 16.315142128940266 46.572559569466804 0 0 0
1635 1 2.111312270613468 8.014005376387708 46.761051707906496 0 0 0
1636 1 0.04959916457177338 10.194408027986654 46.44537930227554 0 0 0
1696 1 12.303475774471321 18.657050789717793 46.47565020034859 0 0 0
1639 1 6.047790375433835 8.29302233017082 46.78341004245836 0 0 0
1640 1 3.7434706955645676 10.366103327130466 46.57883758154437 0 0 0
1692 1 7.901296858527488 18.35664537385957 46.419387634444476 0 0 0
1644 1 7.9084528517332355 10.313575084265995 46.581733695200626 0 0 0
1727 1 22.45059535608995 20.308782363706882 46.46280154330149 0 0 0
1643 1 10.20761846197495 7.710020229230585 46.79524678782154 0 0 0
1648 1 12.034428424430272 10.049411707562863 46.66406664894815 0 0 0
1680 1 20.17673340979178 14.565102880319083 46.654951482787496 0 0 0
1647 1 14.066562084568144 7.786093662212179 46.59956542598877 0 0 0
1652 1 15.858182548038387 9.726345548762902 46.765463079380645 0 0 0
1700 1 16.50964289270962 18.57118258620892 46.840638702576484 0 0 0
1651 1 18.257050227271606 8.345084340866267 46.34595136021242 0 0 0
1656 1 20.179535141360056 10.089319085484926 46.351297571227605 0 0 0
1655 1 22.54324935799118 7.964411078922849 46.43220745685068 0 0 0
1723 1 18.370835403086986 20.418129723147246 46.50908003408252 0 0 0
1659 1 1.6918629785604613 12.395898449996894 46.663510495624465 0 0 0
1704 1 20.31219093579123 18.436413041203373 46.40392689125517 0 0 0
1663 1 6.045038553573382 12.23813146336759 46.77880674325664 0 0 0
1715 1 9.864866984667788 20.386350721693404 46.54709167974037 0 0 0
1667 1 10.209273379921848 12.084678681103593 46.48707230589128 0 0 0
1676 1 16.147202565069705 14.099075677508154 46.58096516934521 0 0 0
1711 1 6.083577812313768 20.63037524929161 46.74280497849845 0 0 0
1671 1 14.073804648384439 11.965790975988693 46.79283724239755 0 0 0
1675 1 18.28633615168375 12.140549249544133 46.41802146830314 0 0 0
1695 1 14.036493779271229 16.621549645586533 46.59898032825056 0 0 0
1679 1 22.396840703656167 12.03821287685117 46.37723071247276 0 0 0
1660 1 24.414854984869756 14.082672951517463 46.78204393515198 -1 0 0
1683 1 2.067621039621589 16.092777186581728 46.544493064901644 0 0 0
1687 1 6.1558014175388305 15.999501035664212 46.76747009914575 0 0 0
941 1 3.915136978882141 12.16826327683582 23.9929617987483 0 0 0
1006 1 22.353411362119687 22.330231776851903 24.30953753390184 0 0 0
917 1 3.781802970272104 8.412571064706695 24.265870529287252 0 0 0
905 1 16.479305276308665 4.118900095988616 24.07612238306929 0 0 0
881 1 16.590892315162144 24.432056545939908 24.283806380869883 0 -1 0
1770 1 18.435032617677557 6.211088175700784 48.48140605163932 0 0 0
938 1 1.6353857672818346 14.347003788795176 24.14731588248907 0 0 0
1821 1 20.18452817900743 12.118334132001094 48.46816038547331 0 0 0
1774 1 22.689520330670305 6.153519826433923 48.442695750467735 0 0 0
1798 1 22.443900450753915 10.028965718102508 48.39197844848811 0 0 0
1857 1 8.102135185238867 20.12226275722888 48.47097932855212 0 0 0
1797 1 20.487958206241764 8.19500991248543 48.21426552455763 0 0 0
1745 1 16.13978684756676 0.023556552108680212 48.37220724472508 0 0 0
1861 1 11.980496446846976 20.411897729706958 48.37365750949273 0 0 0
1838 1 14.032942058373322 18.494614359362608 48.59028662598193 0 0 0
1837 1 12.189988872772691 15.977488208703646 48.45163778786938 0 0 0
1810 1 9.954597666618257 14.317548442583616 48.49655859174608 0 0 0
1754 1 1.7817639373244227 5.883491434131415 48.45509662679381 0 0 0
1833 1 8.259259727727427 16.363138266713662 48.506327956260634 0 0 0
1850 1 2.0053871981923788 22.519393512441653 48.51349461919783 0 0 0
1793 1 16.211229940981923 8.073505994667217 48.56622725421853 0 0 0
1822 1 22.31077412336741 14.187819461301633 48.415812087336064 0 0 0
1730 1 1.9796124814655207 1.9972507613452497 48.572639735633715 0 0 0
1757 1 3.7651234098455353 4.0566331444380035 48.39483525782056 0 0 0
1818 1 18.084241638581688 14.192776484751962 48.361312948237 0 0 0
1841 1 16.270866499946926 16.265408795603335 48.584290603303515 0 0 0
1814 1 14.260641709344682 13.849365124135522 48.55338952374127 0 0 0
1854 1 5.525702030469248 22.477144836101836 48.54241739689993 0 0 0
1846 1 22.624874234918515 18.33878946162804 48.54264152731722 0 0 0
926 1 14.093957862854092 10.250006721137902 24.122681120798724 0 0 0
942 1 5.827609001335346 14.343233139890094 24.01886788114911 0 0 0
878 1 14.463344637768584 1.6575710057121107 24.01678946698068 0 0 0
929 1 16.29073417656086 7.905288128138807 24.17512597146431 0 0 0
882 1 18.345659647541567 1.9618926432028254 24.055287617371036 0 0 0
997 1 12.172375946018368 20.757779902337866 23.99006747624579 0 0 0
910 1 22.22454875149701 5.927454393316114 24.036543786019234 0 0 0
897 1 8.087481442037287 4.2145099565377615 24.162988082756964 0 0 0
961 1 24.165001006035666 16.05376130523561 24.197227339697896 -1 0 0
965 1 3.635365322552973 16.393579774924426 24.014136694392477 0 0 0
990 1 6.208152077117521 22.57995749139483 24.06563011102448 0 0 0
949 1 11.978690251181298 12.145459113125124 24.052721839882533 0 0 0
977 1 16.123786144670632 16.38751419584549 24.117265287702768 0 0 0
898 1 10.128692308344894 5.91179672382672 24.145371644402687 0 0 0
1732 1 24.364083809717407 1.8147834891539947 50.90452347103658 -1 0 0
1853 1 3.550218216406257 20.582776614353058 48.63682846124188 0 0 0
1736 1 3.6849816142484477 2.007497771954267 50.814198781306644 0 0 0
2572 1 -0.08276888317478288 22.38185526166368 71.04175934544261 0 0 0
1740 1 7.974116029563191 2.110192056235776 51.064529537295016 0 0 0
1744 1 12.219163643837796 2.2034844506167612 50.963195876590845 0 0 0
1729 1 -0.08564043013634795 0.0538129746923417 48.894181861000405 0 0 0
1748 1 16.385881440643125 2.0904365512205025 50.47122254702276 0 0 0
1865 1 16.407604636219588 20.43011527034679 48.77940870353324 0 0 0
1752 1 20.50792011016337 2.3654829437478173 50.61261231324606 0 0 0
2467 1 18.182087714058575 24.27867336502036 71.11733870822977 0 -1 0
1747 1 18.18106277584976 24.326393247011673 50.48387815404521 0 -1 0
1742 1 14.015319801204857 2.311456464325924 48.986571946581755 0 0 0
1755 1 1.7256819013148061 3.9210822950469195 50.39411039176642 0 0 0
2592 1 20.487753594706824 22.644626764348253 71.00002270575524 0 0 0
1817 1 16.142390487053895 11.8850846405001 48.81304105781978 0 0 0
1759 1 5.651668444380752 4.370162697939438 50.51433498400394 0 0 0
1760 1 3.6912315354392695 6.1418302107881235 50.436096153301975 0 0 0
1762 1 9.964275930802126 5.989740175478373 48.85786494779669 0 0 0
1763 1 9.912316352332851 3.966842278422427 50.84758335502641 0 0 0
1764 1 8.09804224894643 6.006179774656217 50.93171669337796 0 0 0
1768 1 12.071041024980456 6.2721183902925945 50.64564827146231 0 0 0
2588 1 16.354643729283104 22.322347139158637 71.07794136102811 0 0 0
1767 1 14.266729053500963 4.233182655993114 50.81435425392578 0 0 0
1772 1 16.215832623651167 5.952061445160239 50.576340321305885 0 0 0
1870 1 22.442618754249516 22.67574768909187 48.63972291643379 0 0 0
1813 1 12.044477707799011 12.198185249709608 48.747613744275135 0 0 0
1771 1 18.263522421995134 4.319276104545481 50.61241188475213 0 0 0
1776 1 20.585960109527335 6.250228281599609 50.65094264302439 0 0 0
2584 1 12.31388639044051 22.488827170877457 71.45929302016746 0 0 0
1756 1 24.387051530246907 6.176035078819283 50.48008970893029 -1 0 0
1775 1 22.347618209062148 4.291502633440255 50.66678344479961 0 0 0
1779 1 1.717910371335997 7.749819191125756 50.70072624509087 0 0 0
2580 1 8.035057499579047 22.085157722592804 71.09750818575566 0 0 0
1783 1 6.114500968017819 8.058637006983691 50.61151210576511 0 0 0
1784 1 3.946333486996486 10.119406424315443 50.64359411382244 0 0 0
1785 1 8.294616479116044 8.143019474447076 48.68685001900993 0 0 0
1787 1 10.021018051148918 8.18348342130469 51.16724277173679 0 0 0
1788 1 7.827886840166462 10.15071572415409 50.41765915128542 0 0 0
1792 1 11.940596693416337 9.947031310310592 51.03225630339339 0 0 0
1790 1 14.0166089344695 10.006891577747565 48.92024830277008 0 0 0
1791 1 13.974473084029592 7.996563640007466 50.742799314307256 0 0 0
1796 1 16.212876020666947 9.9618526081535 50.68658589281597 0 0 0
1826 1 1.5431174073966514 18.01231994133846 48.607115384207255 0 0 0
1795 1 18.572662999567335 7.776213925299205 50.56199307326168 0 0 0
1800 1 20.530018864145546 10.385118072188957 50.51442255034424 0 0 0
1765 1 12.102644801055897 3.972062664881941 48.770737114021415 0 0 0
1780 1 -0.17940305299771941 10.211385927981294 50.700566705312454 0 0 0
1799 1 22.478801554848154 8.189076686850507 50.62778085747832 0 0 0
1803 1 1.7528099405220487 12.10455960917843 50.662396191313775 0 0 0
1807 1 6.08293244019893 12.60612411685175 50.93498695018229 0 0 0
1811 1 9.875785843076965 12.171188771490048 50.778869143839 0 0 0
1816 1 11.985197528367257 14.185337875310701 50.65106940045973 0 0 0
1815 1 14.222592846622026 12.046351409729132 50.71482691691772 0 0 0
2576 1 3.895026045550913 22.293088386929526 71.32466094140742 0 0 0
2548 1 0.007313292410141947 18.298858222638373 70.97410903365385 0 0 0
2591 1 22.542413327587163 20.276138343863217 71.19973706410352 0 0 0
1819 1 18.499483004205622 12.016943602306934 50.83519562580846 0 0 0
1823 1 22.584205530033728 12.16763511083089 50.799349700344486 0 0 0
1827 1 1.6875179900906274 16.147428047191447 50.59608205656702 0 0 0
2587 1 18.479851895598124 20.557245528106264 71.08015940277956 0 0 0
2568 1 20.174328163983 18.617678454761666 71.18216629507867 0 0 0
1808 1 3.693218626704235 14.199798706009341 50.962466267811045 0 0 0
1831 1 6.27860574463775 16.17570440572006 50.83762960833814 0 0 0
1812 1 8.351910979639005 14.300609609444074 50.74937223311755 0 0 0
1835 1 10.274444524761469 16.282782366830915 50.59073577339628 0 0 0
2564 1 16.214917452716968 18.51484134144046 71.23287694925321 0 0 0
2560 1 12.241005120286685 18.209094343566242 71.19962557692112 0 0 0
1839 1 14.311442902885737 15.856600113272924 50.52822077094376 0 0 0
1820 1 16.389199078933984 14.079753270480877 50.541926370550925 0 0 0
1753 1 24.19699930493502 3.9957259089487422 48.643447855306164 -1 0 0
1842 1 18.298058993035617 18.508263035105664 48.6715863756947 0 0 0
1824 1 20.369611086969776 14.207934118455979 50.390047244236385 0 0 0
1843 1 18.225160669771014 16.359912545991918 50.454043930953276 0 0 0
1804 1 24.203421379652205 14.299943698380508 50.7544339115083 -1 0 0
1847 1 22.198742256634503 16.269397716377412 50.60008526417843 0 0 0
2583 1 14.249717754239034 20.382953386050936 70.86061447399356 0 0 0
1851 1 1.6541654435436954 20.397280119856788 50.66637386935836 0 0 0
1832 1 3.891966285724637 18.152074160649804 50.46172624052071 0 0 0
1855 1 6.031499238722132 20.080576883179205 50.53764485055066 0 0 0
1741 1 12.370332973946123 0.018506171650965908 48.64326378861783 0 0 0
1866 1 18.317048471273665 22.52007249620511 48.61796452194118 0 0 0
1738 1 9.926372650829624 2.1101783608330518 48.959205605747044 0 0 0
2556 1 7.850802184300154 18.519227103020434 71.16091210861335 0 0 0
1836 1 8.251222508234047 18.622996883354418 50.557739725958335 0 0 0
1859 1 10.288921158049334 20.61829756477964 50.96429839527259 0 0 0
1840 1 12.489353294496109 18.30834632783342 50.5799161424541 0 0 0
2579 1 10.471368453266294 20.304106007007384 70.9632812840022 0 0 0
1844 1 16.249101383667124 18.211777385445437 50.63568817726356 0 0 0
1863 1 14.278257797344493 20.526285400566813 50.65179233092436 0 0 0
2575 1 6.017253387813162 20.402839297438447 71.12722120846621 0 0 0
2552 1 3.8968469745207415 18.474976803797333 70.95707587577039 0 0 0
2571 1 1.920150565706214 20.079094165744536 71.18508012358602 0 0 0
1848 1 20.239157510982118 18.201885870152516 50.67063382427688 0 0 0
1867 1 18.48150582531438 20.277168610897178 50.64595545983693 0 0 0
1828 1 -0.13716285888836666 18.53791556750368 50.89093463022425 0 0 0
1871 1 22.09192818254806 20.354824298942923 50.936277442667766 0 0 0
1731 1 1.9690986569895803 -0.1202800013578127 50.86475298396338 0 0 0
1852 1 24.360196752061775 22.36330928119019 50.78782478864348 -1 0 0
2524 1 24.432428441325495 14.14962051658585 71.35522811947787 -1 0 0
1735 1 6.122771586784935 24.236407110994612 50.523047485902616 0 -1 0
1856 1 3.782569700290835 22.220478964405203 50.76343048594225 0 0 0
2629 1 11.96432521652571 3.7614532960552487 72.85850133532192 0 0 0
1739 1 10.224761299562783 -0.07779946490006855 50.75140938593735 0 0 0
1860 1 8.052164838838006 22.338224641551406 50.45500342468318 0 0 0
1864 1 12.14294003341907 22.2285421451229 50.39108084422161 0 0 0
1782 1 5.934548926497331 10.346758673492273 48.64029185533375 0 0 0
1743 1 14.36991501701384 0.3602216556008031 50.69498176035216 0 0 0
1868 1 16.52578722709105 22.561845728447686 50.93658858343015 0 0 0
2567 1 22.418081927518593 16.39407557050602 71.20249008778298 0 0 0
1872 1 20.212629669101325 22.491648510324097 50.71825560327262 0 0 0
1751 1 22.31431685635281 -0.04502460173339326 50.70929628353886 0 0 0
1874 1 1.7971723168619143 2.0359274194088792 52.832891805260445 0 0 0
1877 1 4.074223864520769 24.367921244375232 52.810069949649495 0 -1 0
1878 1 6.0738880989859485 1.7444452357337177 52.80201232180091 0 0 0
1880 1 3.8046943748759183 1.8124242879088805 54.84060851653616 0 0 0
1879 1 5.918635799563795 24.266160240511372 54.649727659283585 0 -1 0
1882 1 10.220545974563178 2.083439866657578 52.75857268108019 0 0 0
1884 1 8.06246330361999 1.8458994148828496 54.993224632655966 0 0 0
1881 1 8.281549205310352 24.37374000292524 52.50270076033223 0 -1 0
1888 1 12.18771180645531 1.945919345166736 55.00932064386244 0 0 0
1886 1 14.261491951882126 1.9953707136138408 52.75555554369857 0 0 0
1892 1 16.171262936312672 1.4723630749271754 54.961312584039064 0 0 0
1890 1 18.579165938661838 1.76093628656112 52.41285796167624 0 0 0
1896 1 20.346746424818896 1.697034767873248 54.90800385052815 0 0 0
1876 1 -0.09466453790421328 1.9001474783829995 54.895033054119196 0 0 0
1894 1 22.432857576230496 2.109179860782498 52.55504720963061 0 0 0
1897 1 24.34951594924423 4.05012959811626 52.526343483501975 -1 0 0
1898 1 1.7139170243771182 5.963305113722578 52.68856601606932 0 0 0
1899 1 2.0014172518616573 3.8305577400610376 54.92174373203718 0 0 0
1900 1 24.25166206805809 6.255449134380064 54.627211213841974 -1 0 0
1901 1 3.7330173131805573 3.9578398008033444 52.552021511546435 0 0 0
1902 1 6.027486372110684 6.160352841413808 52.66199641646348 0 0 0
1903 1 6.0080431476833205 3.8089526458521874 54.650341719141274 0 0 0
1904 1 3.871768580301876 5.843886235292909 54.537542198770446 0 0 0
1905 1 7.913873312888665 3.9320265142335016 52.96155120538511 0 0 0
1906 1 9.996183966597933 6.012026383151976 52.91028929272901 0 0 0
1907 1 9.952176281305988 3.7393653484021074 54.89838273121685 0 0 0
1908 1 8.179960600060117 6.107914990108501 54.77221925855646 0 0 0
1909 1 12.221887743956229 4.218579090485173 53.22190581492688 0 0 0
1912 1 12.089460651650352 5.827833952837316 54.90562244933788 0 0 0
1911 1 14.451095777902596 3.894355687931804 54.89563198373609 0 0 0
1913 1 16.396570174621623 3.652941056484981 52.6236639218673 0 0 0
1916 1 16.155671138053393 5.919135972651383 54.85005792570359 0 0 0
1910 1 14.220351580330693 6.15347034021578 52.76936371823152 0 0 0
1914 1 18.27326753831747 6.120731626235465 52.628693557427255 0 0 0
1915 1 18.379751225714095 4.0376922285274555 54.459077526603224 0 0 0
1917 1 20.365378954441653 4.019592669571219 52.83738014514244 0 0 0
1920 1 20.29130707058131 5.831573636079876 54.67940115866055 0 0 0
1918 1 22.597350170244717 6.288200010721771 52.802193897798354 0 0 0
1919 1 22.447419415336164 3.760637906786396 54.52508580641081 0 0 0
1922 1 1.7269987343903455 10.371752198437976 52.70263793010866 0 0 0
1923 1 1.8433759290577059 8.288406613459475 54.694568063556126 0 0 0
1924 1 -0.19294699729896791 10.177514885780615 55.058325180371845 0 0 0
1925 1 3.7199820365925467 8.100558346507935 52.67373024026905 0 0 0
1926 1 5.903894555129658 10.351656612808167 52.70979565227962 0 0 0
1927 1 5.9116091261691635 7.948070444393121 54.89054148109965 0 0 0
1928 1 3.778425121587126 9.915939984432564 54.92728133809227 0 0 0
1929 1 7.874611902458117 8.326411331880761 52.95814355040373 0 0 0
1930 1 10.010267710543646 10.125844511644562 52.88025990584222 0 0 0
1931 1 9.787200513825562 8.351236147122764 55.167854195603496 0 0 0
1932 1 7.946853820261627 10.258301169033539 54.96077744785817 0 0 0
1933 1 12.43529062762047 7.997956481927163 53.113083950999 0 0 0
1936 1 12.123724987769489 10.170303057978275 54.963883635375794 0 0 0
1934 1 13.997546715673737 9.990924720493709 52.641129685278855 0 0 0
1935 1 14.403220952429688 8.337436109959791 55.07746250590837 0 0 0
1937 1 16.255215271411714 7.93685110711848 52.47952912359136 0 0 0
1940 1 16.42193564084767 10.29066319675151 54.74596436530629 0 0 0
1939 1 18.244282362394777 8.191980967593905 54.70453023759651 0 0 0
1941 1 20.36480044098655 8.63649252640886 52.62959036571184 0 0 0
1921 1 -0.07796487735365787 8.254070866304682 52.75190284386154 0 0 0
1942 1 22.390176200360834 10.09424627553651 52.78059251649121 0 0 0
1943 1 22.30406824552111 8.19197044972653 54.765400491307574 0 0 0
1947 1 1.4799613536908478 12.073554204112076 54.98154644515307 0 0 0
1945 1 24.29942188317343 12.433465154779267 53.03760155797209 -1 0 0
1949 1 3.818741164992563 12.201103598678916 53.08568557222462 0 0 0
1951 1 6.032230029791674 12.118501353871528 54.6974558319052 0 0 0
1950 1 5.792670051887608 14.260405023581418 52.86520753531098 0 0 0
1953 1 8.1979076495747 12.428649306681832 53.164480923080646 0 0 0
1955 1 10.30927304664793 12.257985757577645 54.869115857752625 0 0 0
1956 1 8.004401528725817 14.352429262210714 54.69972566939742 0 0 0
1957 1 12.153038688732513 12.106414864514004 52.79414941475115 0 0 0
1959 1 14.233206095912733 12.285629075275645 54.81053826907536 0 0 0
1961 1 16.273274302473396 12.103868390494311 52.58988723351539 0 0 0
1964 1 16.589391863339024 13.973808880042169 55.1592259624109 0 0 0
1938 1 18.075296536714227 10.113027643266461 52.63382142509857 0 0 0
1944 1 20.548667759180873 9.947020039416014 55.00881492494661 0 0 0
1963 1 18.737059143939945 12.024679522254775 55.016149771432914 0 0 0
1965 1 20.119651412175635 11.935504457042605 52.87042374516779 0 0 0
1967 1 22.14763986030654 12.328409305188119 54.924809441974496 0 0 0
1946 1 2.0169467130626413 14.339218332024805 52.97241940214714 0 0 0
1971 1 1.8105476411023713 16.136518631782174 54.90309267898667 0 0 0
1969 1 -0.1666384702734426 16.31029206453408 52.65680339807255 0 0 0
1952 1 3.894893203151309 14.091689814709051 54.992809048776536 0 0 0
1973 1 4.298992514268031 16.254133786065637 52.61207097623189 0 0 0
1975 1 5.874620569236414 16.049319605517326 54.784694286420226 0 0 0
1954 1 10.21587709530986 14.304799558190481 52.74965067434954 0 0 0
1977 1 8.178584638882477 16.504257653937593 52.702717998704486 0 0 0
1979 1 10.05571423408548 16.405282956578745 54.60650521972109 0 0 0
1960 1 12.2665274328913 14.676282932190789 54.7561891050235 0 0 0
1981 1 12.118189218396727 16.486536068801 52.568999306651385 0 0 0
1958 1 14.224256958191889 14.098069910276301 52.63031350785361 0 0 0
1983 1 14.484280400867332 16.283097979360505 55.21346811611416 0 0 0
1985 1 16.3898873194182 15.97307898004029 52.61298837299705 0 0 0
1962 1 18.198513375505648 14.090574709945665 52.90113479040955 0 0 0
1968 1 20.391367782203673 14.142215560618524 54.69288289309808 0 0 0
1987 1 18.179720572145648 16.278030972906393 54.84688503569682 0 0 0
1989 1 20.384987515860367 15.9917459992184 52.60573609539752 0 0 0
1948 1 24.43502046138379 14.462280483515325 54.85551285706084 -1 0 0
1966 1 22.391246637428537 14.188560344884479 52.89820463267791 0 0 0
1991 1 22.35234315607618 16.099577384332463 54.900301542791134 0 0 0
1970 1 1.9017836997433455 18.16546320650731 52.765114182357 0 0 0
1995 1 1.9321650387510831 20.369353332724145 54.91561757660196 0 0 0
1972 1 24.41193294353417 18.170139764633923 54.736486404920676 -1 0 0
1974 1 6.300615330269238 18.523160313941737 52.67055290180778 0 0 0
1976 1 4.0912597787980625 18.114309659161293 54.773224439921776 0 0 0
1997 1 3.8993490138202525 20.24096622167898 52.75763653539659 0 0 0
1999 1 6.149462750795437 20.42218778573853 54.95179765769042 0 0 0
1980 1 8.210005243005943 18.451476872597155 54.93365901942001 0 0 0
2001 1 8.199571601239573 20.576539259747264 52.9675324410925 0 0 0
2003 1 10.534794774180153 20.405844976062177 54.555593630960125 0 0 0
1978 1 10.087264772130988 18.547820021889834 52.468309293630675 0 0 0
1984 1 12.363407189018163 18.42480280128538 54.470292645744955 0 0 0
2005 1 12.356332144625881 20.543492571892095 52.53686909346306 0 0 0
1982 1 14.33581775439096 17.968431712593024 52.82903648190413 0 0 0
1988 1 16.32968055272304 18.296632988594723 54.49884421381175 0 0 0
2007 1 14.387794193694829 20.408253808237646 54.74752753107756 0 0 0
2009 1 16.23503267277961 20.24701813247382 52.574324490085466 0 0 0
1986 1 18.59296220442574 18.300169115411606 52.832389210279004 0 0 0
1992 1 20.574078944778563 18.21170649154044 54.871352202081766 0 0 0
2011 1 18.110015609164932 20.093276876436768 54.95880244378095 0 0 0
2013 1 20.258825171288272 20.569180348056285 52.83141871212344 0 0 0
1993 1 24.317474775536482 20.478384512732738 53.02058517613413 -1 0 0
1990 1 22.128990293932 18.197775981867238 52.88271651418478 0 0 0
2015 1 22.479743401480683 20.353751080835842 54.787373971596026 0 0 0
1873 1 24.164503340662115 -0.11014458586096024 52.96707712468628 -1 0 0
1875 1 1.6741452379211053 24.15028047419991 54.825481727734754 0 -1 0
1994 1 1.892493889412397 22.355044497754797 52.77778525339024 0 0 0
1998 1 6.074500240951136 22.218852290585566 52.82622025545052 0 0 0
2000 1 3.72009925311426 22.28465149982408 54.751793441089035 0 0 0
1883 1 10.21078544078102 0.027632618846431672 54.527982107616324 0 0 0
2002 1 10.151850141346753 22.476915319677893 52.8760341172375 0 0 0
2004 1 8.110644407014112 22.43696893540902 54.924968286071746 0 0 0
1885 1 12.39972276526612 0.11229775356838445 52.505980438066814 0 0 0
2008 1 12.296051437071664 22.523049431325973 54.78214109494346 0 0 0
1889 1 16.633169619243034 24.392296116353098 52.790386010204585 0 -1 0
1887 1 14.126312708501898 -0.09939178001728521 54.807315587123384 0 0 0
2006 1 14.398301094568872 22.58494160033449 52.56943233008937 0 0 0
2012 1 16.46066985355177 22.61375702009159 54.98995610443087 0 0 0
1893 1 20.190528646772847 24.253326538445215 52.890812868494216 0 -1 0
1891 1 18.473958624600307 -0.014663673187534698 54.85770283320237 0 0 0
2010 1 18.435753838715797 22.1756038398156 53.29893784025067 0 0 0
2016 1 20.408166323588425 22.27753197628401 55.04883420376331 0 0 0
1895 1 22.341443672256794 24.082693947114343 55.1624758595941 0 -1 0
1996 1 24.449286464717627 22.45427239678135 55.01845848997933 -1 0 0
2014 1 22.501260082190925 22.480077182416387 53.17423592935959 0 0 0
2018 1 2.0139463450863198 1.5776733240486298 56.879633801764605 0 0 0
2019 1 2.0970457746125595 -0.13309795753998088 58.91299586919076 0 0 0
2022 1 5.883799673244068 2.0468727135743032 57.0434290673331 0 0 0
2024 1 3.8633298728379204 2.1558169854629763 58.73792630204719 0 0 0
2028 1 7.72178312285359 1.9497987418301812 58.96782461327381 0 0 0
2026 1 9.964339936692978 1.6332949150492413 56.80718465444262 0 0 0
2025 1 7.927548834470832 24.275176314833416 56.76675901158844 0 -1 0
2027 1 9.890805489056909 24.384975850918423 58.87983985329072 0 -1 0
2032 1 12.083709372188833 1.8893361902662051 58.70487146496239 0 0 0
2030 1 14.42534561272188 1.9111508847288534 56.98976060216947 0 0 0
2036 1 16.678651968005873 2.0302926951443947 59.016884023024 0 0 0
2034 1 18.382540190231694 1.5490607284234348 57.122467983596366 0 0 0
2040 1 20.40742599542351 1.5098032135435888 58.818531831318694 0 0 0
2020 1 24.445884867957457 1.716798501142264 58.836345916513125 -1 0 0
2038 1 22.551894476288865 1.6145725038547147 56.92163415334019 0 0 0
2042 1 1.8100730142215498 5.97404704142992 56.22065647500467 0 0 0
2043 1 1.7248590810963054 3.983163666009693 58.692743040543675 0 0 0
2045 1 3.79609724117379 4.14893937225458 56.82309505612794 0 0 0
2046 1 5.925539639033195 5.857970882950511 56.75374780967455 0 0 0
2047 1 5.890154685024193 4.001777000342313 58.796786903270814 0 0 0
2048 1 3.7935901620584573 6.197986918235545 58.731487235672496 0 0 0
2049 1 8.02775382789411 3.65366013345166 56.95929982237325 0 0 0
2050 1 10.196182479333244 6.028506512215568 56.84129039062912 0 0 0
2052 1 8.053226103223437 6.0840066159040065 58.926601727689324 0 0 0
2051 1 9.818222499532652 3.8005300677110085 58.87530427941901 0 0 0
2053 1 12.250096887892918 3.7554943990202094 57.01709539241128 0 0 0
2056 1 12.240691570129384 6.073187498863232 58.892528057617014 0 0 0
2055 1 14.460469444722216 4.003709245217692 58.967922218670886 0 0 0
2054 1 14.28817385928347 5.990806597536102 56.83038036523008 0 0 0
2057 1 16.370050565728206 3.7511879026475565 56.754983212345266 0 0 0
2060 1 16.364601493809722 5.831051325240327 59.05548827006277 0 0 0
2058 1 18.266378819612015 6.052984054254397 56.95327605674729 0 0 0
2059 1 18.473908800004473 3.9308649790145784 59.21275285545137 0 0 0
2061 1 20.062059513939637 3.7127051577505803 56.591110308458894 0 0 0
2064 1 20.272722797005684 5.756922449519644 58.77088724253965 0 0 0
2041 1 -0.03685853263444727 3.817657254056166 56.455039941810476 0 0 0
2062 1 22.159624640734727 5.736748380440371 56.90632320016942 0 0 0
2063 1 22.359505779231256 3.5838957405048264 58.90665410514494 0 0 0
2044 1 -0.09995469378055517 5.825062955279755 58.76619086320267 0 0 0
2066 1 1.6658603095225974 10.059480770245829 57.1327478703381 0 0 0
2067 1 1.8773336441499406 7.968061813486811 58.881121758990496 0 0 0
2065 1 -0.12004179872468512 8.053899588423723 57.047395904101904 0 0 0
2069 1 4.134856485179894 7.983519337778752 56.93238998155353 0 0 0
2070 1 5.815886043427116 10.140656784886751 56.88420255187797 0 0 0
2071 1 5.671938516132176 8.543250088415789 59.17046653614249 0 0 0
2072 1 3.5353581697940424 10.296588946308285 58.92582226992341 0 0 0
2073 1 7.61486812169173 8.198458380188603 57.20260515297499 0 0 0
2075 1 10.081264176717317 7.9702072589202135 58.97966065328837 0 0 0
2076 1 8.240979355758148 10.350137626423612 58.876776228844506 0 0 0
2074 1 10.131636912232162 10.385311040808496 56.889610679093366 0 0 0
2077 1 12.439656237837237 7.8376533527254075 56.98585821257891 0 0 0
2078 1 14.474003343206336 10.185758136705113 57.030872274498485 0 0 0
2081 1 16.27962682398075 7.7322837469541215 56.858087567166045 0 0 0
2079 1 14.64922547714368 8.21795136887938 58.91905164233587 0 0 0
2082 1 18.619080001957194 9.733992969948913 56.88739748686678 0 0 0
2083 1 18.284938979548258 7.9302573658629125 58.89098288614049 0 0 0
2085 1 20.46612155154348 7.691017871841066 56.81957234571425 0 0 0
2088 1 20.489071249476936 9.844068942914278 58.818984901570225 0 0 0
2068 1 24.166997668050712 10.202299157042976 58.960465555839534 -1 0 0
2086 1 22.64853666608144 10.158876957790197 56.82124628755787 0 0 0
2087 1 22.413050869479534 7.615691942254315 58.981983424062406 0 0 0
2091 1 1.5912516160262697 12.198890093935 59.085447591145986 0 0 0
2089 1 24.287968104369114 12.332792151087709 56.8960260269115 -1 0 0
2093 1 3.7455297197051616 12.116266862882815 57.32337431306687 0 0 0
2095 1 5.925812309218646 12.176209483405323 58.91485749075365 0 0 0
2097 1 7.802744310914281 12.151643643914857 56.782126266696565 0 0 0
2099 1 9.992302720872189 12.205702602536318 58.91200468800846 0 0 0
2101 1 12.591096729363471 12.075280808554593 57.025276032958175 0 0 0
2103 1 14.51846012055075 12.160963309383156 59.24417123889772 0 0 0
2105 1 16.44132468265223 12.278723390419147 57.15679042517455 0 0 0
2107 1 18.41623850450882 11.790676712630177 59.28251318088614 0 0 0
2109 1 20.686870109860976 12.25389907418344 57.17981895101024 0 0 0
2111 1 22.463379473365343 12.275997549876713 59.0069054054868 0 0 0
2092 1 -0.18412414672913968 14.273957291323978 58.827018501558015 0 0 0
2090 1 1.8503714310292718 14.112756440627848 56.87956765929006 0 0 0
2115 1 1.9862290197287278 16.431159218863158 58.826922387904794 0 0 0
2094 1 5.844478103919792 14.399972459413307 56.81836039460889 0 0 0
2096 1 3.5971436801963037 14.369195562421645 58.83687022259493 0 0 0
2117 1 4.047470926485202 16.275962240831085 57.00439715499697 0 0 0
2119 1 6.210191622254532 16.44156132923861 58.86977240973992 0 0 0
2098 1 10.087437924988562 14.075965260461798 56.81860562451373 0 0 0
2100 1 8.038294732572814 14.14143415463732 58.78653547857631 0 0 0
2121 1 7.935785456588025 16.18767483673888 56.82050617809546 0 0 0
2123 1 10.253702891488025 16.302400977746657 58.95552976278768 0 0 0
2104 1 12.443024732958182 14.18354867942481 59.09368945435053 0 0 0
2125 1 11.975180216995952 16.126674746398862 56.935112653853395 0 0 0
2127 1 14.348145238650105 16.083263076260224 58.92619897963331 0 0 0
2102 1 14.017356715785317 14.256730628559245 56.61299448058854 0 0 0
2108 1 16.2399008868555 14.076474156768477 59.245233624857626 0 0 0
2129 1 16.57765689608855 15.932157472090681 57.341789254463784 0 0 0
2106 1 18.592993261475016 14.205933651294941 56.668491711291104 0 0 0
2112 1 20.457585147238724 14.214691494108667 58.957632726821 0 0 0
2131 1 18.457638009251305 16.004376852508344 59.19765935233519 0 0 0
2133 1 20.153066447490097 16.157107841386782 56.97388776244802 0 0 0
2113 1 24.490960968164927 16.487343153074796 56.94187537906373 -1 0 0
2110 1 22.38905574737973 14.32894110338299 56.80325770612442 0 0 0
2135 1 22.452125421270942 16.11825042536831 58.88336504595574 0 0 0
2114 1 2.0041208926068452 18.27808958773197 56.69000725407782 0 0 0
2139 1 1.8036502694569305 20.53662293361549 59.036213961676204 0 0 0
2137 1 0.03295874640652044 20.163180799050366 56.897374300236514 0 0 0
2118 1 6.0800579011356914 18.278785847023258 56.99031196642659 0 0 0
2141 1 3.948924982212122 20.297190141521355 56.62864003595833 0 0 0
2143 1 5.987140023624564 20.212489098730146 58.806580782710654 0 0 0
2122 1 10.253087560339813 18.380399206439087 56.90573643880661 0 0 0
2124 1 8.282128675561854 18.646012092945355 58.792067164465166 0 0 0
2145 1 8.236378398800431 20.610813295852225 56.93194310812386 0 0 0
2147 1 9.901815305114813 20.67307273682986 59.136288503147306 0 0 0
2128 1 12.238002503300532 18.2316550008738 59.057859849422215 0 0 0
2149 1 12.2715619211303 20.42905059584968 56.853378680889094 0 0 0
2126 1 14.379528813485733 18.083014335520808 56.83211966654321 0 0 0
2153 1 16.328811423106657 19.982525118219186 56.772592690875335 0 0 0
2132 1 16.301484083206645 17.96125140016145 59.180455187918746 0 0 0
2151 1 14.458066988829216 20.19237155757036 59.01890880857737 0 0 0
2130 1 18.405831663351293 18.10920048900187 56.72523165844118 0 0 0
2136 1 20.72677684207224 17.975250018191865 59.00748825231257 0 0 0
2155 1 18.26856491824404 19.61924679920068 59.108072062749045 0 0 0
2157 1 20.270634759706986 20.176416472799218 57.1354905070824 0 0 0
2116 1 0.234865870117637 18.397621257726748 58.86860484015685 0 0 0
2134 1 22.40588284470254 18.404164336642083 57.0828517356303 0 0 0
2159 1 22.84880151765136 20.261828655202244 58.97584507174189 0 0 0
2017 1 0.175188058789572 24.155860886767876 57.11040152214634 0 -1 0
2138 1 1.8262095890096663 22.293103875615785 56.82063645029944 0 0 0
2021 1 3.987676923529123 24.166685888149715 56.69741552585701 0 -1 0
2023 1 5.813892560372849 -0.15014372920887809 58.83520743761222 0 0 0
2142 1 5.831532039798847 22.46807890463794 56.62774320379688 0 0 0
2144 1 4.029608212561736 22.16107153676132 58.87717564866975 0 0 0
2146 1 10.257299251694487 22.665950376867926 56.969084223499955 0 0 0
2148 1 7.918080922600346 22.41805104377582 58.83645957923912 0 0 0
2029 1 11.858929645923459 24.41880804358668 57.00199593302191 0 -1 0
2152 1 12.465218573285906 22.271387975281563 58.712905366750064 0 0 0
2031 1 14.13921559800597 24.29639541913611 59.0906598354509 0 -1 0
2033 1 16.44081472725871 24.363535273887038 57.476601695572555 0 -1 0
2150 1 14.266446997677406 22.75657465996774 56.83645154285213 0 0 0
2156 1 16.308618553465784 21.999392241435544 58.60490114290699 0 0 0
2037 1 20.35066403956577 24.031462552154785 57.121283890673034 0 -1 0
2035 1 18.274782703408 23.989101434383315 59.269488175718436 0 -1 0
2154 1 18.592808182213197 21.979927043640892 57.15139787124643 0 0 0
2160 1 20.574579771631136 22.01988315065543 59.05783264061461 0 0 0
2039 1 22.504252847161567 24.10268863881459 58.99358062290939 0 -1 0
2158 1 22.426462912770944 22.052997450503604 57.069820489531075 0 0 0
2140 1 -0.052991522776828726 22.428346252329867 58.91018681803764 0 0 0
2162 1 1.948111083147158 2.042779228761004 60.78443007429965 0 0 0
2166 1 5.964482730177968 1.860626022207867 60.98991367041563 0 0 0
2165 1 3.752284843115414 24.43359622832203 60.908005682169254 0 -1 0
2170 1 9.801790088446316 1.7036883314078273 60.88802271120951 0 0 0
2169 1 7.979365835051363 24.140338699112547 60.7876356030186 0 -1 0
2174 1 14.204246339957045 1.6569049866924799 60.783254916702205 0 0 0
2178 1 18.31129031786947 2.0466414355239375 61.44063693727215 0 0 0
2182 1 22.414785275266063 1.9475846697700763 61.063277626639454 0 0 0
2186 1 1.739001562186981 6.188352245770373 60.98569315556477 0 0 0
2185 1 24.388652143788967 4.036206310657699 60.67134677573707 -1 0 0
2189 1 3.781713389751313 4.336474723283546 61.02759921047395 0 0 0
2190 1 5.901306357469448 6.262048308949274 60.82773236670148 0 0 0
2193 1 8.160650132086888 3.878305935337461 61.08713598037469 0 0 0
2194 1 9.945220175764423 5.954217478723335 61.169654988286595 0 0 0
2197 1 11.841500592868538 3.9657349941549853 60.838580636577014 0 0 0
2198 1 14.00955429465852 6.063387548205981 60.74991762428094 0 0 0
2201 1 16.248573637078735 4.121558136888559 61.2179690008964 0 0 0
2205 1 20.517196370978972 3.8807101538910986 60.80524657781756 0 0 0
2202 1 18.346263322284784 5.911501642339802 60.99370436801328 0 0 0
2206 1 22.396422625644504 6.049514342105013 61.08814595713847 0 0 0
2207 1 22.646925642234528 4.061224491190955 62.93575789218954 0 0 0
2210 1 1.6139193367760392 10.126536821231845 61.023464418433996 0 0 0
2211 1 1.7598073348037035 8.072515663186577 63.02111231397379 0 0 0
2213 1 3.929727699917674 8.277741769160833 61.143385945327424 0 0 0
2214 1 5.9990336847137735 10.313141971866003 61.186287058120634 0 0 0
2217 1 8.028749196507658 8.140837349990349 60.81685002928193 0 0 0
2218 1 9.740004906226439 10.196039471235819 60.895040728656404 0 0 0
2080 1 12.101394185938918 10.250263975651382 58.84798500575263 0 0 0
2221 1 12.087570454653612 8.187055576237595 60.97530853440241 0 0 0
2084 1 16.561896729455732 10.081865571506754 58.67096227424768 0 0 0
2225 1 16.464100351242166 8.199427240610847 60.983764450701685 0 0 0
2228 1 16.445094213134382 9.732313826824708 63.10308861520468 0 0 0
2226 1 18.56494176181883 10.006977921259061 61.130406488073895 0 0 0
2229 1 20.39421492436834 7.935912524984527 60.91813668131856 0 0 0
2209 1 -0.16820744592404374 8.113203364000892 60.672498775552015 0 0 0
2230 1 22.515001582948713 9.924706205222336 61.14533180740125 0 0 0
2237 1 3.726175690836675 12.50826266983158 61.01674186692681 0 0 0
2241 1 7.702775967234858 12.343051205357167 60.98886920978747 0 0 0
2245 1 12.176354386385045 12.223063418866872 60.84753818602878 0 0 0
2222 1 14.325282026988662 10.015947928838465 61.1098518506758 0 0 0
2249 1 16.47132051468013 11.84154871718958 60.89583692917467 0 0 0
2253 1 20.71565004046947 11.90034477582985 61.00148966254218 0 0 0
2233 1 24.324905773217743 12.162822972586465 61.046327165146764 -1 0 0
2234 1 1.730325986997025 14.083663402585062 60.81261299794834 0 0 0
2257 1 -0.18455902904523724 16.23226898601945 60.680061019593104 0 0 0
2236 1 24.468960220350322 13.956591608350555 62.724230081280055 -1 0 0
2238 1 5.976215003626401 14.22302547613047 60.87404497330858 0 0 0
2261 1 3.7047134902025354 16.05076603561038 60.72678512337184 0 0 0
2242 1 10.152395289819788 14.23703365195968 60.84979904999529 0 0 0
2265 1 8.364278132284579 16.21472841326981 61.03665136247201 0 0 0
2269 1 12.05274682735158 16.083153119962958 61.01672958810719 0 0 0
2246 1 14.113119818666478 14.048540663714782 61.257571120076406 0 0 0
2273 1 16.229312217697007 16.033337510775645 61.129391907780466 0 0 0
2250 1 18.50679803390161 13.983226849434672 61.16933065561738 0 0 0
2277 1 20.655514202868844 16.309386385711093 61.04431491709388 0 0 0
2254 1 22.427841722699696 14.12023878885842 61.151541672122356 0 0 0
2279 1 22.56042387426266 16.29784590911553 63.02154290074355 0 0 0
2258 1 2.0386100791394286 18.175299806881355 60.96688756459605 0 0 0
2281 1 -0.1846765587370282 20.250815513770632 61.29863414936614 0 0 0
2120 1 4.1602673621487085 18.458054426946774 58.96682064440471 0 0 0
2262 1 6.271629744399606 18.059106613291114 61.25119364847803 0 0 0
2285 1 3.777871782015446 20.374308618040644 60.99435839243703 0 0 0
2266 1 10.558387909679041 18.24577519715927 61.18391967780026 0 0 0
2289 1 7.952254432608187 20.374848526959234 61.0154195617888 0 0 0
2293 1 12.345677850978502 20.413021589787135 60.96045695167944 0 0 0
2270 1 14.241704024536075 18.275066122600258 61.153456430105905 0 0 0
2297 1 16.50729028478522 19.932051915238823 61.18982518181381 0 0 0
2274 1 18.584333177312793 17.98030906242132 61.17128817238697 0 0 0
2301 1 20.568596296177496 19.958390476791735 60.86447092869273 0 0 0
2278 1 22.577389954784834 18.214432053895003 61.214491687933325 0 0 0
2282 1 1.8318702025826625 22.26862583149895 61.07367626377441 0 0 0
2286 1 5.713117133085671 22.634993259344768 60.824172847109 0 0 0
2290 1 10.339411635960513 22.26279758102706 60.95273529301745 0 0 0
2173 1 11.999261828270011 24.33541296450054 60.781791804519045 0 -1 0
2177 1 16.344979999207403 -0.10498719490236119 60.792415952566806 0 0 0
2294 1 14.431768900462774 22.059524900228546 61.05042140124875 0 0 0
2181 1 20.24398279409553 24.16116728143956 60.92946867661146 0 -1 0
2298 1 18.513831373176394 21.853567457269186 61.07849992119533 0 0 0
2161 1 -0.008180719683608118 24.39226032009563 60.837885138562626 0 -1 0
2302 1 22.465317581054947 22.34587224416603 61.000898300680454 0 0 0
2306 1 2.074308816573261 1.9481441375200732 64.92522241747754 0 0 0
2164 1 0.15056520001527063 1.8358380823270066 62.6405517804039 0 0 0
2163 1 1.8915823740531388 -0.14250164257247633 63.16349074264691 0 0 0
2168 1 3.965866860881892 1.8190355629864954 62.90208027924335 0 0 0
2310 1 6.422936771628408 1.3623081564541655 64.94780676380964 0 0 0
2167 1 6.316285154950421 24.427682673834596 62.86516022597305 0 -1 0
2309 1 3.92210876189868 24.399986714281134 64.85838461069092 0 -1 0
2172 1 8.074211120803534 1.8256727689783008 63.0474032040144 0 0 0
2314 1 10.217506808767329 1.9321141656390335 64.81614997877689 0 0 0
2171 1 10.152554936341117 24.276746839051057 62.77802636417528 0 -1 0
2176 1 11.976686971549492 1.9027089501884196 62.81220224065821 0 0 0
2317 1 12.230876784118 24.304939707450117 64.90693367129816 0 -1 0
2180 1 16.0407644530033 2.0013337563727154 62.877235874754994 0 0 0
2318 1 14.10619082518915 2.1506330920793486 64.70060760604443 0 0 0
2184 1 20.718925041755043 1.7963261090771343 63.24376492360725 0 0 0
2322 1 18.321850754121748 1.9070809765526207 65.20379885920079 0 0 0
2325 1 20.743027934018542 24.323646091257615 65.269746287553 0 -1 0
2326 1 22.779209792784812 2.0427718750452075 64.76850020821269 0 0 0
2305 1 0.15446501068764495 -0.11496618031551264 65.01507261822861 0 0 0
2183 1 22.610940775475633 24.31179609691581 62.85889883849166 0 -1 0
2187 1 1.6284005443414793 4.174860133867798 62.74937481793392 0 0 0
2330 1 1.9250139155269363 5.769862072347746 64.86285080753427 0 0 0
2191 1 5.803225252850463 3.7471337830417277 62.78115975772555 0 0 0
2192 1 3.9686439726066647 5.9954483295667185 63.08120491551869 0 0 0
2333 1 4.086315420020231 3.7390323221597423 65.08373511109816 0 0 0
2334 1 5.911039728176069 5.704127315376496 65.00273287785213 0 0 0
2195 1 9.795394164163307 4.179419481601274 62.98550541907967 0 0 0
2196 1 7.675008202807831 6.040013532608507 62.93077404928282 0 0 0
2337 1 7.627997912018315 3.949096564631575 65.07563239149205 0 0 0
2338 1 10.08809746189764 6.072326009509121 64.915731144932 0 0 0
2200 1 11.91408909293194 5.858718102194302 63.39162177960087 0 0 0
2341 1 12.025360910664018 3.7885601592513103 65.09175709110812 0 0 0
2199 1 14.001052806262395 4.157402396943875 62.74424967743383 0 0 0
2204 1 16.298589608351982 5.9231649855394295 63.04258024919395 0 0 0
2342 1 13.89765708845451 6.341463599413499 65.08628383100898 0 0 0
2345 1 16.072670640285608 3.9892770431616134 65.00939439823853 0 0 0
2203 1 18.41301891766701 3.6607391710308064 63.11475260417419 0 0 0
2208 1 20.598970250946188 5.88923669904227 63.15437197376641 0 0 0
2346 1 18.198019121414646 5.763688521245092 64.9208269069555 0 0 0
2349 1 20.457561638783382 3.905652829216706 65.51877813274625 0 0 0
2188 1 -0.09655017829111756 6.028987298539963 63.028469069683624 0 0 0
2329 1 0.16674229500645255 3.773758202996789 64.91446508837471 0 0 0
2350 1 22.428186201836866 5.93603386462247 64.94461478012487 0 0 0
2354 1 2.1025429629742107 9.96384045431883 65.300236827391 0 0 0
2212 1 -0.023476141752562713 9.971490125789732 63.428873101310415 0 0 0
2215 1 6.089450488921456 8.12652064737253 63.13941677152304 0 0 0
2357 1 3.6393962813951166 7.739064398875847 65.26639894545177 0 0 0
2358 1 5.844640558661867 10.31454539209332 65.20496953699357 0 0 0
2216 1 4.037304389336945 10.06600735618583 63.327581688520404 0 0 0
2361 1 7.98617245742598 8.199228304756643 65.21803196806535 0 0 0
2219 1 10.020487722781217 8.014640791585581 63.011415215352436 0 0 0
2220 1 7.956445719427329 10.343858770868094 63.1524809331724 0 0 0
2224 1 12.112691525790641 10.047072053597972 62.623927818977776 0 0 0
2365 1 12.062341908048245 8.255250404359815 64.8767043018926 0 0 0
2223 1 14.303365642487645 8.016956406001555 63.1053115060594 0 0 0
2369 1 16.198179145334358 7.980019992442603 65.17729121148878 0 0 0
2366 1 14.006868495723486 10.00406370869264 65.14958253253033 0 0 0
2227 1 18.733015686246127 7.830665857602102 62.87374454559953 0 0 0
2232 1 20.539269904836743 9.941856310296707 63.08506521924194 0 0 0
2370 1 18.36393864791487 9.731915439505517 64.88114104111992 0 0 0
2373 1 20.451649865569024 8.14579516198556 65.15452456033617 0 0 0
2353 1 -0.009555901052067273 8.137316138323994 65.33525131353309 0 0 0
2231 1 22.552614449067285 8.080490911555055 63.12862488099333 0 0 0
2374 1 22.612179793244245 10.073829485711451 65.22681081428925 0 0 0
2235 1 1.935625081058332 12.177639945958079 62.92142618290376 0 0 0
2239 1 6.055214363834673 12.11942176484811 62.95024500291647 0 0 0
2381 1 4.093451524136103 11.993255027626871 65.14603538001067 0 0 0
2243 1 10.187410399050249 11.994127670485579 62.84796458728866 0 0 0
2362 1 10.001124084659608 10.240836186630828 64.61417848311675 0 0 0
2385 1 8.336294372265025 12.195402397283049 65.28435367505527 0 0 0
2389 1 12.072246257489125 12.07393755020097 65.06567735041754 0 0 0
2247 1 14.085404382700723 11.923071980513939 62.95248778212193 0 0 0
2393 1 16.017368163342645 11.710098642029292 65.1315161429985 0 0 0
2251 1 18.38881648963452 12.016576357737598 63.21651625551137 0 0 0
2397 1 20.353959187732734 12.027613444206791 65.13122885634964 0 0 0
2377 1 -0.09524848328543792 11.876971408901628 65.43892261144671 0 0 0
2255 1 22.743912338519493 12.020908034575257 63.29315532446267 0 0 0
2259 1 1.9006526536690957 16.183003487525923 62.81964478869411 0 0 0
2378 1 1.7153427525174907 13.855330570741938 64.90692446683101 0 0 0
2240 1 4.04769810752492 14.284468158599275 63.17707928525166 0 0 0
2263 1 6.2016249735826285 16.000666956592163 62.84320343365632 0 0 0
2382 1 6.071535615720599 13.87612162589074 65.14488937553709 0 0 0
2405 1 4.340481105493422 16.051616571418897 64.95728617003205 0 0 0
2244 1 8.37098408264537 14.105035404946772 63.150981627611856 0 0 0
2267 1 10.275511121581921 16.306894955190835 62.92328663655653 0 0 0
2386 1 10.232600412648786 14.075342771960596 65.0561857635866 0 0 0
2409 1 8.026184607208908 16.061771519786816 64.93138084621971 0 0 0
2248 1 11.879008344809764 14.047928163148546 62.92961348763192 0 0 0
2413 1 12.501724367246412 16.103961595687935 65.20968061879694 0 0 0
2252 1 16.32850447172433 13.9862316364231 63.05864956612086 0 0 0
2271 1 14.351181199688838 16.122337285310557 63.262470578755675 0 0 0
2390 1 13.822711760843212 14.102609376196394 64.96074752764986 0 0 0
2417 1 16.49581351421657 16.074172400850735 65.21306175711273 0 0 0
2275 1 18.669053828305877 16.000436960664402 63.08155773259131 0 0 0
2256 1 20.729404275361226 13.939475473828201 62.99718783274108 0 0 0
2394 1 18.383892855771258 13.941068513289068 64.91898684500659 0 0 0
2421 1 20.519155599137697 15.916548934214804 64.97886029914496 0 0 0
2401 1 -0.03493404606168482 16.008311947657546 65.0273142242372 0 0 0
2398 1 22.487636754351733 14.03343456135042 65.0733903876039 0 0 0
2260 1 -0.1540939649704544 18.192201224124403 62.99028523869017 0 0 0
2283 1 1.9096946014796874 20.08828037253999 62.95898377728569 0 0 0
2402 1 1.986007189949719 18.151096603926838 65.10514720875699 0 0 0
2264 1 4.0423865711395255 18.10222225555672 63.07252263295697 0 0 0
2287 1 5.899707889825484 20.343585482386835 62.725197327643976 0 0 0
2406 1 6.192822129005901 18.05465650248553 64.92429805654075 0 0 0
2429 1 4.113789929784033 20.227318521849554 64.76643578334537 0 0 0
2291 1 10.244840208396525 20.130324934788128 63.05041067166739 0 0 0
2268 1 8.446457734672473 18.058365359346446 63.249364138510586 0 0 0
2410 1 10.214320090781072 18.13491583379951 65.13548964416997 0 0 0
2433 1 8.017167707731097 20.099948125553823 64.87580364720866 0 0 0
2272 1 12.042179505742881 18.190008359092936 63.3461278544738 0 0 0
2437 1 12.382171224451918 20.494749593931836 65.32552456766008 0 0 0
2295 1 14.184187120413016 20.090793480646624 63.21491450205772 0 0 0
2276 1 16.376181725442613 17.89536317184023 63.171744127524555 0 0 0
2414 1 14.172936540599393 18.200261663594276 65.1830974200541 0 0 0
2441 1 16.364976092004596 20.167391946804777 65.12986748026755 0 0 0
2280 1 20.5314814690666 18.249302037604316 63.01864841031055 0 0 0
2299 1 18.587088391921732 20.092934187831503 63.00013341272114 0 0 0
2418 1 18.374124540417114 18.13937503195679 64.91252814199746 0 0 0
2445 1 20.568250414516527 20.157747270624995 65.19708688627159 0 0 0
2425 1 24.47385228694597 20.357171715107484 65.10102217041734 -1 0 0
2303 1 22.36371495516864 20.357111647767212 63.143494670663436 0 0 0
2422 1 22.549119418033037 18.06294948643152 65.15027658294107 0 0 0
2426 1 2.161429036365392 22.274221329236177 65.00465713649129 0 0 0
2288 1 3.8385221476742934 22.487703649608456 62.98893511454942 0 0 0
2430 1 6.006353223691642 22.479712194534855 64.88248674493249 0 0 0
2313 1 8.303220558227775 24.283204983120314 64.8991723333099 0 -1 0
2292 1 8.0516431908939 22.078175629687628 62.93217642278888 0 0 0
2434 1 10.237779468374473 22.36309231400341 64.74393302973657 0 0 0
2175 1 14.212752809681854 24.300847292329017 62.756327335653616 0 -1 0
2296 1 12.194158345136776 22.20178454473718 62.981808275083246 0 0 0
2438 1 14.783476362453582 22.351950374913727 64.9975518771448 0 0 0
2321 1 16.014632411460823 0.2423522363301343 64.68066337387255 0 0 0
2300 1 16.403723558289272 22.448909466523503 62.7054911021515 0 0 0
2179 1 18.094272281264203 -0.11282895966514037 62.907661471938624 0 0 0
2304 1 20.31991716995796 22.469473931150084 63.06293681689086 0 0 0
2442 1 18.44155548785956 22.390050225649496 64.77903071224364 0 0 0
2284 1 -0.14777070885084953 22.41038140441021 63.126213742850034 0 0 0
2446 1 22.70982479595996 22.54017355386015 65.1694866854123 0 0 0
2450 1 2.1492558368646435 1.6994494873697055 68.96764481387389 0 0 0
2307 1 2.020060417370918 24.081295713697315 67.24643184087118 0 -1 0
2308 1 0.01820619797555484 1.7674485197192782 67.13084743083508 0 0 0
2312 1 4.056960613558533 1.5907752169766667 66.7809115683546 0 0 0
2454 1 6.081522110512457 1.6484885257603568 68.87873209936468 0 0 0
2311 1 5.969574009843729 24.264985417112456 67.10112276362231 0 -1 0
2453 1 4.265481015111846 24.257095387966835 69.221000902641 0 -1 0
2315 1 10.306024655017362 24.38179651510314 67.06240667014258 0 -1 0
2316 1 8.065042841222306 1.8194971996684761 66.87863290401015 0 0 0
2458 1 10.07382989795327 1.4935608433018543 69.08386210781873 0 0 0
2457 1 8.074025318992605 24.110611098208786 69.10226715585411 0 -1 0
2320 1 12.483684785652462 1.8340396634698166 66.99788911201148 0 0 0
2461 1 12.258117466644112 0.10064614159732621 69.10458887035885 0 0 0
2324 1 16.147496615274548 1.8232011624115112 67.05735399388543 0 0 0
2462 1 14.365939474364401 1.9259516968605626 69.29651903736877 0 0 0
2465 1 16.22719634765795 24.391958809068473 68.96839163840987 0 -1 0
2319 1 14.413180859920066 24.362050895963257 66.80694550497847 0 -1 0
2328 1 20.661909283238735 1.899459020644655 67.17630164258475 0 0 0
2466 1 18.497377857952088 1.8306454129144671 68.9337012128589 0 0 0
2323 1 18.413700161878474 -0.12392255739839442 66.88364825413313 0 0 0
2469 1 20.63761702203505 24.32372559253774 68.90844130657344 0 -1 0
2470 1 22.817421651220442 1.9874664707138852 68.88419775773413 0 0 0
2327 1 22.83749794620455 -0.13396719162899323 66.88094171935803 0 0 0
2449 1 0.23277684307949892 24.448244170194613 69.09756932988253 0 -1 0
2331 1 2.1542644638808675 3.963683686131062 67.00827525661606 0 0 0
2474 1 1.9402235342616847 5.931626044114358 69.34641637509954 0 0 0
2332 1 0.0226276769043027 6.1993134029536225 67.02817513542007 0 0 0
2335 1 6.054470565569774 3.7316488654820397 67.00315339101111 0 0 0
2336 1 4.002051482464867 6.017655215467802 67.19624349918926 0 0 0
2477 1 3.699087893481821 3.773090458367974 69.20915482930957 0 0 0
2478 1 6.058418303182116 5.585474820805889 68.97119603845718 0 0 0
2340 1 7.915392482937197 5.631356998074182 66.89970050312583 0 0 0
2481 1 8.18469567174433 3.5128031118960155 69.16766027075056 0 0 0
2482 1 9.766756394451724 5.790049813821453 69.13386076227303 0 0 0
2339 1 10.105105532299536 3.467842932744626 66.81663228579713 0 0 0
2344 1 11.837570249322726 5.668773647697336 67.15843690642279 0 0 0
2485 1 11.79396875238728 3.8850906120845012 69.17346522814266 0 0 0
2343 1 14.230909980090916 4.159787046028095 66.9953815901844 0 0 0
2348 1 16.099122235068812 5.871542130769722 67.15115812634834 0 0 0
2486 1 14.308104790413513 6.2019006959950485 69.06105412699041 0 0 0
2489 1 16.128337600231077 3.8571212631636422 69.25740446899266 0 0 0
2347 1 18.302340128515 3.8208153413210604 67.16258666370312 0 0 0
2352 1 20.367871514384134 6.029751241149006 66.92919016036197 0 0 0
2490 1 18.35321285290795 6.075000474038616 69.06685617164216 0 0 0
2493 1 20.40400844032692 3.9303362955840333 68.77569528958462 0 0 0
2473 1 0.17831654442330425 4.041891875412648 69.08739610455235 0 0 0
2351 1 22.836164502121974 4.274803535085948 67.05443024930305 0 0 0
2494 1 22.431205716047316 5.979963880548401 69.08838928994973 0 0 0
2355 1 1.7213424032044828 8.262057055911212 67.48326512252733 0 0 0
2498 1 1.729912717918373 10.079158874737747 69.3506097684572 0 0 0
2497 1 24.36502623400674 8.150505931360279 69.13211363680328 -1 0 0
2356 1 24.312660375005173 10.058802979449458 67.1492188265578 -1 0 0
2359 1 5.730461770944021 7.695552272900356 66.84418581310588 0 0 0
2360 1 4.01524656534186 9.808883069064024 67.49169347331534 0 0 0
2501 1 3.946015920140475 7.945019779674748 69.44404705396889 0 0 0
2502 1 5.901487485244221 10.055706514338764 69.06754844797328 0 0 0
2364 1 8.315444885063673 10.053203952915043 67.26973959734615 0 0 0
2505 1 7.6894030159061995 7.728421006636631 69.15089729814454 0 0 0
2363 1 9.884147239295087 7.864454053516043 67.07598306575125 0 0 0
2506 1 9.738439724812231 9.738044822735477 69.26056063022304 0 0 0
2368 1 11.901705141511252 9.963370809468762 67.29544465137951 0 0 0
2509 1 12.195144925128126 7.671432672666298 69.20192409826724 0 0 0
2367 1 14.033518410289064 8.218603363968876 67.10449305472298 0 0 0
2372 1 16.24844907645599 10.2247647315041 67.45855993172292 0 0 0
2513 1 16.03953024918775 8.261380252024022 69.04862130913534 0 0 0
2510 1 13.975199562978696 9.96594735244397 69.29051804548102 0 0 0
2371 1 18.152254049788752 7.796998685833841 67.02157379900508 0 0 0
2376 1 20.473418531927273 10.049206830988 67.1439880133646 0 0 0
2517 1 20.074901282446177 7.74752958946925 68.74440104119195 0 0 0
2514 1 18.28178993781895 10.02911028738461 69.16257617370573 0 0 0
2375 1 22.347086142146722 7.946217142795005 67.01789136881713 0 0 0
2518 1 22.39072106018721 9.853456324572234 69.32359288920837 0 0 0
2379 1 2.07607895552717 12.199739659308268 67.36335724976122 0 0 0
2383 1 6.143458561032161 12.068850905713774 67.28657483861791 0 0 0
2525 1 3.8777516899399576 12.103797852848144 69.23828217883919 0 0 0
2387 1 10.29537187818497 12.221516356402569 67.3921491846397 0 0 0
2529 1 8.188275561310656 11.831983025625233 69.26333860014013 0 0 0
2533 1 12.092276496345788 11.949805820714534 69.41635637385305 0 0 0
2391 1 14.016302656152886 12.027734249801417 67.10186455834548 0 0 0
2537 1 16.580247038124845 12.323273461303598 69.07930037205509 0 0 0
2541 1 20.596438649812 12.090566753238502 69.27408708880404 0 0 0
2395 1 18.451520789477613 11.907202356321354 67.09709965549578 0 0 0
2521 1 24.20498122886024 11.97939196404936 69.11256820284508 -1 0 0
2399 1 22.418226919161896 11.841398417520653 67.20441991596321 0 0 0
2380 1 0.004083040404512905 14.190385006206723 67.12918421010082 0 0 0
2403 1 1.8780058328113816 16.08449416218084 67.08318774804887 0 0 0
2522 1 1.4088958611371452 14.10233255123426 69.50908791235976 0 0 0
2549 1 4.053094249784209 16.433868215953495 69.01942792041997 0 0 0
2384 1 3.8197860507616195 14.024383310620822 67.21553179626228 0 0 0
2407 1 6.187147057551422 15.863752356305666 67.36701253126925 0 0 0
2526 1 6.056711109152396 14.028036523468533 69.35399110627043 0 0 0
2553 1 8.04946377244203 16.445999758591782 69.20559518461987 0 0 0
2388 1 8.113919881993441 14.209044520603845 67.0875756233908 0 0 0
2411 1 10.123269031440387 16.039153993880703 66.95984727852691 0 0 0
2530 1 10.13066695190808 14.259270919166507 69.31450047375814 0 0 0
2557 1 12.00091960993911 16.28338797508382 69.18038891259573 0 0 0
2392 1 12.239620136919298 14.018759737063352 67.23653749384061 0 0 0
2561 1 16.357973871170387 16.02125518434284 69.1539469571142 0 0 0
2396 1 16.26638304715086 14.12633450354756 67.13164296848377 0 0 0
2415 1 14.063223795499178 16.167966624528255 67.38661707987353 0 0 0
2534 1 14.167617851472652 14.031672814916366 69.1176672366166 0 0 0
2565 1 20.16932857273016 16.422663160089435 69.29753848482255 0 0 0
2538 1 18.538792167381978 13.910207530790405 69.2352363859256 0 0 0
2400 1 20.49708982194032 13.82744893703267 67.10326492344551 0 0 0
2419 1 18.281672856236185 15.714150983412045 67.29743838827378 0 0 0
2545 1 24.34109191156384 16.22615756807548 69.24591972358981 -1 0 0
2542 1 22.42571163114821 14.197746770206036 69.08874346689075 0 0 0
2423 1 22.382132283604882 15.98152538383721 67.20616082621004 0 0 0
2546 1 1.8196178659460536 18.41080917303185 68.8856048194917 0 0 0
2427 1 2.1100685935041326 20.313176608591824 66.87229842169704 0 0 0
2573 1 4.004652589919048 20.1453004152431 68.9171805585131 0 0 0
2550 1 6.1741849300646 18.511718407502592 69.01918763293186 0 0 0
2408 1 4.146065567364076 17.989872244846822 66.83792635750592 0 0 0
2431 1 6.197618878471742 20.053556769307185 66.82916004323546 0 0 0
2577 1 8.25707231354275 20.461941022323053 68.87649250595231 0 0 0
2554 1 9.869629001386745 18.313399692166023 69.08982690411166 0 0 0
2412 1 8.259651311036775 18.16461532432306 66.96047855780579 0 0 0
2435 1 10.159957614645748 20.38888718399901 67.0702352460533 0 0 0
2581 1 12.26981879563654 20.360255458034658 68.93595124428397 0 0 0
2416 1 12.206277294989112 18.320365615627395 66.98194663657313 0 0 0
2558 1 14.386959249726834 18.303255116909384 69.09493277933908 0 0 0
2585 1 16.49382465776678 20.21056335945157 68.88222092714348 0 0 0
2420 1 16.29437205939272 18.088208542720857 67.10480402231919 0 0 0
2439 1 14.257925766119444 20.42640190873808 67.02113360756445 0 0 0
2589 1 20.5407538891994 20.296767486772232 69.26653869016343 0 0 0
2562 1 18.489240967414453 18.378301742995113 69.0519091068834 0 0 0
2424 1 20.390408190781343 17.75732301962004 66.85123151027203 0 0 0
2443 1 18.63821618165297 20.199316627138018 67.08836851329055 0 0 0
2569 1 -0.025415455149246452 20.272845482082325 69.17949813974893 0 0 0
2566 1 22.28263724925916 18.27680993520091 69.21334595031054 0 0 0
2404 1 0.05221750699104888 18.637759677589067 67.08095498473786 0 0 0
2447 1 22.560052854526482 20.283111286421516 67.29238215877835 0 0 0
2570 1 2.215790955115246 22.241625807435504 69.04642163306949 0 0 0
2574 1 6.0961779333585175 22.347806919148404 68.85493563457663 0 0 0
2432 1 4.122487291901715 22.03830443964781 66.82363157515675 0 0 0
2578 1 10.149401634862283 22.40974561683513 69.24515345720893 0 0 0
2436 1 7.955965353612697 22.327261983720376 66.68225065621397 0 0 0
2440 1 12.195045114196873 22.438026759521534 67.39208407897553 0 0 0
2582 1 14.428751193641197 22.59001271809766 69.06244940276159 0 0 0
2444 1 16.4515580950373 22.302761579425663 66.89263074779501 0 0 0
2586 1 18.184426337286887 22.334572068119748 68.94262869078945 0 0 0
2448 1 20.19140375597597 22.460727132175066 67.07650909667929 0 0 0
2590 1 22.494692167536115 22.633471737377683 69.29735655533818 0 0 0
2428 1 0.025080038363411272 22.433817843253188 67.02539599504514 0 0 0
2451 1 2.1064553843907357 -0.09688227812222969 71.06134335800687 0 0 0
2455 1 5.985968207718997 24.049515419175535 71.48477787661955 0 -1 0
2456 1 4.270569870094366 1.7635233300925541 71.1184850432146 0 0 0
1801 1 24.19611581103633 12.144044738786617 48.74822831175901 -1 0 0
1749 1 20.439421963264813 0.02668471777814488 48.769576713219145 0 0 0
2459 1 9.845806617216505 24.136395995364104 71.21925891831944 0 -1 0
2460 1 8.037899696471243 1.6160684764374142 70.99058033248353 0 0 0
2464 1 11.673342375544431 1.7066029396498676 70.98290946271764 0 0 0
2563 1 18.326496612853525 16.506232417921076 71.19211577299899 0 0 0
2463 1 14.260620069360106 24.389793535429412 71.05380557451126 0 -1 0
2468 1 16.308358428763277 1.7021038002536168 71.06846650240611 0 0 0
1789 1 11.884633064794484 8.280988617162548 48.8846816549609 0 0 0
2472 1 20.41574239947343 1.7323359741533173 70.99875293564321 0 0 0
1802 1 2.0314647023516845 14.222324682382336 48.812430414991105 0 0 0
2471 1 22.634682956463003 24.44830323912385 71.03019719336359 0 -1 0
2452 1 24.487681415713332 1.746661788554529 70.95940242006782 -1 0 0
2544 1 20.25186573425711 14.26306696098949 71.45623586217461 0 0 0
2559 1 14.013293761815508 16.51399003502327 71.02923424666851 0 0 0
2475 1 2.024560927023351 3.4289459699843574 71.12245104817606 0 0 0
2476 1 0.10857524419385312 5.939889813957502 71.16503501540055 0 0 0
2479 1 6.005553332213423 3.6892427686747595 71.11576620941887 0 0 0
2480 1 4.060257198946734 5.880029222220286 71.11072756144043 0 0 0
1786 1 9.92578399155877 10.079939544543363 48.84338421178126 0 0 0
1734 1 5.9340200082188606 2.1091304333349923 49.07454453394798 0 0 0
2483 1 9.874894238742826 3.5896208073603013 71.22023051782459 0 0 0
2484 1 7.783568238146244 5.6879899961752995 71.16665031829525 0 0 0
1830 1 6.1396262018107075 17.968857444136376 48.64558192274778 0 0 0
2488 1 11.933436267577404 5.7781242291826 71.12000701693565 0 0 0
1778 1 1.8863701435645241 10.135988481062379 48.64204493093633 0 0 0
2487 1 13.842282750505175 4.217916498746815 71.13831440140328 0 0 0
2492 1 16.345259910657667 5.921974426209445 71.16004302831108 0 0 0
2491 1 18.42763600978691 3.8054257729116188 70.92046623790074 0 0 0
2496 1 20.451242219400548 5.991854459317503 70.97582896326242 0 0 0
2555 1 9.860555204572705 16.537757798902923 70.92081659050889 0 0 0
2551 1 5.636401114203898 16.303407220633595 71.29142683160968 0 0 0
2495 1 22.685172752906674 3.952990399564512 70.99864891742453 0 0 0
1805 1 3.712255503368648 12.257504982999459 48.79035492220283 0 0 0
2540 1 16.08854920324511 14.161489618785067 71.15629640749017 0 0 0
2499 1 1.8533505082541586 7.877981113792508 71.4246208754814 0 0 0
2528 1 3.7412980176637936 14.293546936095234 70.95548770387043 0 0 0
1733 1 4.117381475855476 0.16087027771782297 48.920368924829916 0 0 0
2503 1 5.955873448894549 7.946851338266653 71.25919411984431 0 0 0
2504 1 3.639648948320959 10.089263868401911 71.20718063266192 0 0 0
2547 1 1.9031148813662044 16.24519758224656 71.07190265948091 0 0 0
2507 1 10.094113119718303 7.716786866503392 71.4053870708612 0 0 0
2508 1 7.781979579143934 9.746800858146026 71.18677041380047 0 0 0
2543 1 22.194171439900735 12.303791201828789 71.31909442026968 0 0 0
2536 1 12.22150239280681 14.250092651276407 71.09046059833986 0 0 0
2512 1 11.86666049512476 9.735656919617929 70.98357765416043 0 0 0
2511 1 14.280630236492758 8.01979567846895 71.42677550185088 0 0 0
2516 1 16.249955886727392 10.092154363871074 70.82544328022826 0 0 0
2515 1 18.119938651922112 7.774615093560449 70.98081361742902 0 0 0
2539 1 18.340870828391544 12.075408173948476 71.12670936832306 0 0 0
2500 1 24.35934735265271 10.102558163923396 71.21294183065201 -1 0 0
2519 1 22.59666316437729 8.041232005657433 71.03335053857974 0 0 0
2523 1 1.7100125189764275 12.069596486902118 71.17264740984947 0 0 0
1829 1 3.8618812798719597 16.406031196740955 48.62497159265066 0 0 0
2527 1 5.65243688854598 11.858815727907674 71.28121419476899 0 0 0
2520 1 20.538361112803138 9.815440887711784 71.18202407629757 0 0 0
2531 1 9.95132869305419 11.977432174797839 71.31808089820399 0 0 0
2532 1 7.761033437048864 14.018418907566303 71.06080708432276 0 0 0
2535 1 14.364858337027206 11.961063317093085 71.21381204789327 0 0 0
2637 1 20.36784689088575 3.909356972969043 72.98677167312347 0 0 0
2734 1 22.43058612458919 22.577456940610162 73.06017151335594 0 0 0
2606 1 14.056493855950139 1.9520233912284528 73.14846961784649 0 0 0
2613 1 20.59157208573263 0.04304705407843826 73.05722292329492 0 0 0
1806 1 5.74701551184031 14.163928899675055 48.991358341429155 0 0 0
2705 1 16.182956605560335 16.353165997828633 73.00625313426133 0 0 0
2610 1 18.4878857039229 1.6980455521774098 72.96414286286856 0 0 0
2593 1 -0.03359536805243879 24.33370574555385 72.99655307575928 0 -1 0
2633 1 16.062344107347712 3.778265469665919 72.73022316951979 0 0 0
2658 1 18.28847489927778 9.720041845631412 72.791130254439 0 0 0
2661 1 20.04698825854637 7.9304552010152225 73.07435259330214 0 0 0
2638 1 22.239240502949272 6.045357606501242 73.13898041111011 0 0 0
2605 1 12.16943644182872 24.424499892392582 73.13449459740853 0 -1 0
2614 1 22.500639901303373 2.25856282942639 73.09001141448029 0 0 0
2609 1 16.19762092450764 24.069653641745205 72.95391178244365 0 -1 0
2617 1 -0.06323478534819316 3.914127732608695 73.04298442295803 0 0 0
2622 1 6.00011945865662 5.840718980420237 73.18221331875513 0 0 0
2722 1 10.23651549233658 22.226046293868457 72.9106384365782 0 0 0
2677 1 12.250441335807068 12.071956835265018 72.74834907088581 0 0 0
2726 1 14.356464034381824 22.042054699483344 72.76138349311451 0 0 0
2673 1 7.839961774439832 12.072078950337238 73.04066506478034 0 0 0
2654 1 14.498963772583258 10.063744412333458 73.05640424326029 0 0 0
2674 1 9.904349797307084 13.976308873825628 72.9566063181829 0 0 0
2709 1 20.506269011946493 16.27692693162748 73.17395028300089 0 0 0
2710 1 22.316600356955732 18.2170573437076 72.9277798454566 0 0 0
2666 1 1.9207768514643533 14.325413103628508 73.16715829185411 0 0 0
2645 1 4.055505787206682 7.883929013476914 73.1526630736361 0 0 0
2650 1 10.153981931889192 9.652020294639478 73.04710203769442 0 0 0
2682 1 18.36590257041926 14.195518188630857 73.0074571770839 0 0 0
2697 1 7.784174283441477 16.22375875145891 73.08450476831825 0 0 0
2681 1 16.38551146704738 12.155527380275723 73.00956346814506 0 0 0
2657 1 16.43388936323278 8.032640974017138 73.1937981217808 0 0 0
2733 1 20.570409476946885 20.36119702566244 73.16230670180589 0 0 0
2678 1 14.29969716670131 14.017595555762625 73.15431724762364 0 0 0
2689 1 -0.11002750643245918 16.1615975909613 73.10006519362999 0 0 0
2598 1 5.85295579304014 1.6050390335250426 73.01209978826957 0 0 0
2626 1 9.833742842385293 5.806849680447531 73.14172264472452 0 0 0
1862 1 14.259603247173773 22.658908938840753 48.62932795868762 0 0 0
1825 1 24.35791900399225 16.198552860277807 48.74879843161069 -1 0 0
1737 1 7.986424660517976 0.34483227831928026 48.798187008191874 0 0 0
1781 1 3.808765701339113 8.264559259113023 48.650958142968726 0 0 0
1858 1 10.363697861199771 22.770194649903978 48.634352045488804 0 0 0
1777 1 -0.0738692254504235 8.010131769332373 48.610818617908365 0 0 0
1834 1 10.297352373919615 18.38038091274271 48.74327450440367 0 0 0
1750 1 22.24168952112214 2.174295938107613 48.745571719728936 0 0 0
1794 1 18.2061501939976 10.118449910280773 48.66822637280816 0 0 0
1769 1 16.27197411471129 4.31318512470779 48.65453898671238 0 0 0
1746 1 18.32776098833122 2.101930894479516 48.869720703454426 0 0 0
1849 1 24.234677267207353 20.397303472605714 48.702581547290094 -1 0 0
1758 1 5.940340591121883 6.269722151158765 48.768833007727984 0 0 0
1869 1 20.399203895139806 20.438202234701023 48.62445082736053 0 0 0
1766 1 13.982979425750198 6.078300226327598 48.67747143603058 0 0 0
1761 1 7.8479373538469765 4.129118562450878 48.638556468829194 0 0 0
1845 1 20.201835424932526 16.52133724997197 48.605640672427974 0 0 0
1809 1 7.879998619202725 12.146604576695914 48.88468316322315 0 0 0
2594 1 1.6283576707345473 1.7125717408805818 73.39624548012 0 0 0
2595 1 1.8584034312887465 24.435017901397572 75.23604536797103 0 -1 0
2600 1 4.336001491325194 1.7178697621550734 75.31602011941325 0 0 0
2599 1 6.055752509887883 24.199223547243726 75.57063049412714 0 -1 0
2604 1 8.078796348428996 1.9684510386721343 75.53890106698067 0 0 0
2603 1 9.790588240957067 23.997726563072582 75.19463673618672 0 -1 0
2649 1 8.011695315891515 7.955587270358501 73.47663907921664 0 0 0
2685 1 20.087037179898388 11.937286054966485 73.31036492980138 0 0 0
2608 1 12.095129213447535 1.2612308232241702 75.57164176884429 0 0 0
2646 1 6.0939997893459745 9.796114942181369 73.43118661583702 0 0 0
2607 1 14.36927729867788 24.292213140575576 74.88803350064856 0 -1 0
2612 1 16.413579419266874 1.6766641112998621 74.59384398942318 0 0 0
2616 1 20.284983175007277 1.9471845271915935 74.82546649429665 0 0 0
2669 1 4.1640238199576745 12.288117601019744 73.29289224829087 0 0 0
2596 1 -0.11382631571023438 2.0019080837408563 75.44940067600302 0 0 0
2615 1 22.504896462416518 0.27048013176047075 75.0616225233359 0 0 0
2619 1 1.899159814405575 3.695631272273887 75.2500360259284 0 0 0
3436 1 -0.03783319239190666 22.247596506078303 95.68774888300716 0 0 0
2623 1 6.0188396653890885 3.634426648650954 75.32483172699254 0 0 0
2624 1 4.003186770359419 6.028970940160764 75.0644288068013 0 0 0
3456 1 20.364058326517934 22.349866529701984 95.80078241077335 0 0 0
2627 1 10.090741682548554 3.7618617894595894 75.28007896254235 0 0 0
2628 1 8.036291498853888 5.6331860645807375 75.17912212883452 0 0 0
2632 1 12.42795459907838 5.541041277457317 75.40087488486368 0 0 0
2631 1 14.45600372526863 3.8141485648684887 75.22042256826474 0 0 0
2636 1 16.392058917941917 6.130340916231968 75.47615939040188 0 0 0
3331 1 18.372286583806833 24.41799420495755 95.66410675388104 0 -1 0
2718 1 6.0008754309415515 22.218634747726185 73.40327513434279 0 0 0
2635 1 18.071647112924268 3.7473437833329966 75.12231274129797 0 0 0
2640 1 20.46591891456385 5.70423955697362 75.14013494651417 0 0 0
2620 1 24.44608787136022 5.875820798333626 75.37213060194358 -1 0 0
2639 1 22.404659777906247 3.7846772323295164 75.26365794942475 0 0 0
2643 1 1.8365056363141088 8.143066496178502 75.64710046349546 0 0 0
2647 1 5.977431536017456 7.798550820116637 75.39155958995403 0 0 0
2648 1 3.9068961836818783 10.238808685895805 75.1229074764582 0 0 0
2651 1 10.137670831508027 7.755896761957787 75.3705165958401 0 0 0
2652 1 8.008812045805561 9.92609553825451 75.11999704313348 0 0 0
2656 1 12.33377855423344 9.97104954769717 75.33020716562612 0 0 0
2721 1 8.014182975428898 20.131103059824575 73.48011552996991 0 0 0
2655 1 14.130565890379955 7.637954833893641 75.19484523543902 0 0 0
2660 1 16.094358806222125 9.977206922737505 75.16623548837082 0 0 0
2659 1 18.315803409845756 7.696193254827531 75.57825330425824 0 0 0
2625 1 7.944413272959903 3.40023875698959 73.21237427346112 0 0 0
2644 1 24.446185409462316 9.997024211134105 75.09177411437965 -1 0 0
2663 1 22.25768860175372 7.871771076863839 75.66435165628252 0 0 0
2597 1 3.7155605854772142 24.438235375138348 73.2557658602576 0 -1 0
2667 1 1.6867869237428816 11.930367225684426 75.42453375431036 0 0 0
2671 1 6.055745759981974 12.309958205799488 75.28693783118314 0 0 0
2642 1 1.8139789586745336 10.058655914139308 73.28910646131281 0 0 0
2675 1 10.125526328773809 11.83308308011378 74.8328800839364 0 0 0
2621 1 4.032175297902107 3.640629016314313 73.27838022294593 0 0 0
3327 1 14.30299600004263 -0.09045033196118235 95.63478834754484 0 0 0
2679 1 14.432707070498807 11.68983188315012 74.99239650574684 0 0 0
2713 1 24.25665610027552 20.407063034717723 73.28815223364498 -1 0 0
2664 1 20.255267150659733 9.860386161816843 75.18518566689896 0 0 0
2683 1 18.15285234535036 11.734871945507095 75.37665225235702 0 0 0
2687 1 22.43487078408578 12.101899696558412 75.24265093025814 0 0 0
2691 1 2.00370822464978 16.291369586702537 75.17531108954869 0 0 0
2668 1 0.04375546569869471 14.070229854617981 75.32388754536848 0 0 0
2698 1 9.860745826886046 18.1029747183642 73.29951390142892 0 0 0
2693 1 3.8932907803573604 16.16979576085746 73.25202434461224 0 0 0
2730 1 18.498205247424735 22.404809798638738 73.24916037065931 0 0 0
2672 1 3.6382867717132137 14.185233939169805 75.04755273161405 0 0 0
2695 1 5.86996994102849 16.374221054596696 75.48893978707306 0 0 0
3396 1 7.897567003864722 14.31573648694509 95.84970529346424 0 0 0
3452 1 16.436119641747162 22.51809210264299 95.74090326650708 0 0 0
2676 1 8.304633238199692 13.978803024188084 75.21033864084829 0 0 0
2699 1 10.204158729536863 16.086290859911223 75.30411952639137 0 0 0
2641 1 24.10014547098212 7.960398499257295 73.43005643874731 -1 0 0
2680 1 12.16891728195638 14.114431946886798 75.17530633832529 0 0 0
2684 1 16.475111678583325 14.280109579383822 74.98813583801193 0 0 0
2703 1 14.547613511264943 16.30684405337974 75.2062121421293 0 0 0
3447 1 14.598161584960268 20.673881337008375 95.65608141726138 0 0 0
2688 1 20.30604541176799 13.91981286226877 75.19643988716328 0 0 0
2707 1 18.547550870392172 16.222045874395043 75.11450643692095 0 0 0
3448 1 12.332285538309097 22.412986178765884 95.7796780552243 0 0 0
2711 1 22.558457566235674 16.037170291617777 75.34356967152664 0 0 0
2715 1 1.6286548858678676 20.741418976045573 75.49208722119958 0 0 0
2717 1 3.746040148391292 20.14323407380742 73.39909568305612 0 0 0
2696 1 3.85189189673257 18.349860023353237 75.19388223675764 0 0 0
2719 1 5.990683151499661 20.184189732815767 75.65373077245899 0 0 0
2665 1 24.443762706501968 11.962228036403916 73.25332951456505 -1 0 0
2700 1 8.074961093387467 18.024969845136667 75.37128557224348 0 0 0
2723 1 10.256399528927123 20.27243309074307 75.2536395356048 0 0 0
2706 1 18.398401489216532 18.359336530018382 73.34013813244869 0 0 0
2704 1 12.212324921354496 17.933376633046947 75.41646110105188 0 0 0
2708 1 16.294622984645912 18.167507753184225 74.9703029759651 0 0 0
2727 1 14.181199474115994 20.035157861402688 75.3795914036624 0 0 0
3415 1 6.072099160191812 16.683735798845753 95.59865112313153 0 0 0
3443 1 10.557221623535147 20.229434941149798 95.83412054227827 0 0 0
2712 1 20.802787906673856 18.122280046030518 75.09641508332813 0 0 0
2731 1 18.31987287278148 20.319444382077556 75.09276720013669 0 0 0
3392 1 4.407703652721692 14.332652018366986 95.98727984328653 0 0 0
3420 1 8.231236961985013 18.38575032741577 95.56448372063652 0 0 0
3439 1 6.3534374578560815 20.41193221272161 95.82410643673087 0 0 0
2692 1 -0.1765295990146285 18.43983485192691 75.28544289651133 0 0 0
2735 1 22.38324529754837 20.347882426195262 75.28257177821693 0 0 0
2720 1 3.7195953437251132 22.439790114574336 75.52289142384846 0 0 0
2724 1 7.945833191882441 22.057531602042665 75.31710676554981 0 0 0
2728 1 12.363777571697506 22.28158578573302 75.04160318258138 0 0 0
2732 1 16.233702846322267 22.459501166747998 75.05107640356913 0 0 0
2611 1 18.517587305168746 24.206284322654767 75.24431510486748 0 -1 0
2736 1 20.50835021003622 22.254862313538403 74.93196684826648 0 0 0
3323 1 10.344537800837957 24.342580751049674 95.70688627191079 0 -1 0
3444 1 8.398299077403259 22.3905935323545 95.78517415053416 0 0 0
2716 1 24.22200404678869 22.456282054891737 75.30638044245946 -1 0 0
2738 1 2.256130650777093 1.7888753067634817 77.28840442971538 0 0 0
2739 1 1.9024910573741574 24.3633505193042 79.27310151386021 0 -1 0
2742 1 5.835720221406075 1.8832993793022843 77.57070089372776 0 0 0
2744 1 4.119646926742861 2.0187575357402063 79.56905295994422 0 0 0
2741 1 3.9753844303672325 24.328604404833573 77.37595997222935 0 -1 0
2743 1 5.96515415844332 -0.12537809699971092 79.40597744660246 0 0 0
2746 1 10.103184716544348 1.3748241258651162 77.44094329982286 0 0 0
2748 1 7.848285371281769 1.7530771726068473 79.46691442241503 0 0 0
2745 1 7.952713767709968 24.22927544376239 77.39688954887339 0 -1 0
2747 1 10.1216022602667 24.393570483608606 79.4411066449738 0 -1 0
2752 1 12.235882390382764 1.4940477406162553 79.1847711822189 0 0 0
2750 1 14.332476239007356 1.8631265826155365 76.80478960530525 0 0 0
2756 1 16.313273251919433 1.68783639823729 79.01408037658202 0 0 0
2753 1 16.20061170771511 24.071243579994544 77.14262817422824 0 -1 0
2754 1 18.150586704056884 1.6465563234333638 77.13144140273417 0 0 0
2755 1 18.50177007665573 24.066267617908437 79.59917472763554 0 -1 0
2760 1 20.38013938004449 1.825036318480498 79.41657062300908 0 0 0
2757 1 20.188915787753437 24.190533939356662 77.40826000783503 0 -1 0
2740 1 0.0775868031843156 2.0295089606828802 79.14929871282705 0 0 0
2758 1 22.25171332048574 1.7249869015205863 77.5362506433321 0 0 0
2759 1 22.303182056142546 -0.014476650439676747 79.37618321989437 0 0 0
2737 1 24.43668707041548 24.334626563260144 77.37723866343471 -1 -1 0
2761 1 -0.11409244473472313 3.7545537924020214 77.36992742593769 0 0 0
2762 1 2.1005626444434866 6.143257120782321 77.35999249434771 0 0 0
2763 1 2.090028867078885 3.8586675338207588 79.38174683645245 0 0 0
2764 1 -0.013561690980575553 6.0264505338455825 79.34569653532964 0 0 0
2765 1 3.7915983602714265 4.016414144623391 77.06947506099284 0 0 0
2766 1 5.818913445031008 6.152440276335219 77.30889676758416 0 0 0
2767 1 6.139479873881542 4.145738403046163 79.66687004607398 0 0 0
2768 1 4.199628948956839 5.891691046175008 79.35265212880525 0 0 0
2769 1 7.943884231455453 3.877708044706961 77.24852587939074 0 0 0
2770 1 10.275996152379717 5.6714144658485575 77.61363279945135 0 0 0
2771 1 10.022421078338683 4.021930076923393 79.35651236264052 0 0 0
2772 1 8.111255779764255 5.818533216093646 79.21181714073633 0 0 0
2773 1 12.19166931029923 3.539588958666132 77.41014421344154 0 0 0
2776 1 12.285592857110668 5.645937050331674 79.3290521362533 0 0 0
2774 1 14.300083871192246 6.103491761406824 77.25836416409474 0 0 0
2775 1 14.25706210040401 4.054789938861322 79.12653160680317 0 0 0
2777 1 16.305710154890185 4.039132852450315 77.41680760867169 0 0 0
2780 1 16.124746351005605 6.090069602957175 79.44909008070114 0 0 0
2778 1 18.30687505736664 5.494261764032005 77.39248045076761 0 0 0
2779 1 18.657704371502135 3.67686658433153 79.1803921065277 0 0 0
2781 1 20.33522706646464 3.8214778423780933 77.07269990992052 0 0 0
2784 1 20.466502391044607 5.956959715375022 79.15158472773238 0 0 0
2782 1 22.556085646255298 5.607553583993206 77.22306187912417 0 0 0
2783 1 22.535495960942825 3.7843174273687405 79.49012508155336 0 0 0
2786 1 1.9330391601390513 10.278435849423822 77.57597983289554 0 0 0
2787 1 1.918987720042601 7.6303377587554655 79.52563633467513 0 0 0
2789 1 4.048221795720895 8.216746522456015 77.1221200494377 0 0 0
2791 1 5.722061461856381 7.90327774025593 79.49352215452635 0 0 0
2792 1 3.9521130337190256 10.064737400194684 79.23690475588515 0 0 0
2790 1 6.066223035010633 10.082047154219858 77.20659796417397 0 0 0
2793 1 7.9853476652607345 7.745106367902791 77.19196088864969 0 0 0
2794 1 9.999910935293016 9.694667929336347 77.0867947273185 0 0 0
2796 1 8.063789955397407 9.888520258077852 79.14470128926315 0 0 0
2795 1 10.013528655394653 7.916605536588728 79.47390069723488 0 0 0
2797 1 12.149841549444364 7.7384005135643426 77.50659040465888 0 0 0
2800 1 12.302183747325472 10.038635776657726 79.42230974793334 0 0 0
2798 1 14.029717880245023 9.977786838667177 77.34333885974887 0 0 0
2799 1 14.300963564359783 7.940402516269243 79.32307985360121 0 0 0
2801 1 16.083409108386455 8.1814717523397 77.23836351370487 0 0 0
2804 1 16.105100012598292 9.903930953646672 79.55859907463164 0 0 0
2802 1 18.11204438490656 10.056187281882472 77.33660389221463 0 0 0
2803 1 18.158850363767122 7.8377695325968295 79.1980971676316 0 0 0
2805 1 20.314282119708622 7.574065140823313 77.38182904809219 0 0 0
2785 1 24.484545292362505 7.80549953164681 77.6779715222823 -1 0 0
2788 1 24.317508798252994 10.254295354727457 79.51736137404366 -1 0 0
2806 1 22.547123023556196 10.012780587833094 77.33476481399859 0 0 0
2807 1 22.291634756534037 8.251833554137523 79.61298978069307 0 0 0
2811 1 1.964310630819281 12.024123188368664 79.46637414554965 0 0 0
2809 1 24.221639751729153 12.290672301753686 77.46568822595188 -1 0 0
2813 1 4.069948357774061 12.362888268319695 77.08943316543538 0 0 0
2815 1 6.096914261418144 11.849789406532304 79.23746347440616 0 0 0
2817 1 7.980520807471052 11.8920181254261 77.17359489531054 0 0 0
2819 1 9.937070546330068 11.900873443590374 79.44969115883161 0 0 0
2821 1 11.89586349126552 12.091938780581525 77.40506421423221 0 0 0
2823 1 14.171331366170202 12.224486536061004 79.31480919952077 0 0 0
2825 1 16.160991749210645 12.151956141287265 77.4285564792004 0 0 0
2808 1 20.199978532408878 10.269104754941583 78.97158346469713 0 0 0
2827 1 18.26412647370561 12.059808859834334 79.40545467490016 0 0 0
2829 1 20.5155090148971 11.939802881570865 77.15424608775557 0 0 0
2831 1 22.405402617511534 12.120749013426193 79.24607583417388 0 0 0
2810 1 1.7809815805680718 13.859862055699795 77.4504482688621 0 0 0
2835 1 1.9858350322555873 16.231150374253936 79.2334313391316 0 0 0
2814 1 6.24330863818951 14.284639394562777 77.3215706883064 0 0 0
2816 1 4.144276945504912 14.27696563340196 79.57165406247388 0 0 0
2837 1 3.9510246418997124 15.9632118919028 77.44681595265729 0 0 0
2839 1 6.371850233398706 16.28263144358425 79.39816077756858 0 0 0
2820 1 8.016948610653158 14.178771827842278 79.20328107769869 0 0 0
2841 1 7.953370945372761 16.411073254766322 77.17372242561629 0 0 0
2843 1 9.966876056817851 16.222412972030874 79.29738859016415 0 0 0
2818 1 10.220844696695757 14.020816109368443 77.30274803938623 0 0 0
2824 1 12.202276312049898 14.127789841946878 79.45025523424522 0 0 0
2845 1 12.260298926911972 16.01464908220369 77.35723822853636 0 0 0
2828 1 16.147476509003653 13.808497731593873 79.44525175933877 0 0 0
2822 1 14.139913990718677 14.043258439176324 77.19731053610967 0 0 0
2847 1 14.130459827414121 15.807868820386291 79.35052079730366 0 0 0
2849 1 16.477491983462635 15.80547386208361 77.33894369398072 0 0 0
2826 1 18.522170407455768 13.885593967826757 77.22596322255784 0 0 0
2832 1 20.572421110491213 13.99039500559715 79.56275029184249 0 0 0
2851 1 18.309850869741922 16.053856820278845 79.37588517070849 0 0 0
2853 1 20.31584546343379 16.1529827131517 77.16443224398725 0 0 0
2830 1 22.366432920692432 14.191189842966978 77.39447407987163 0 0 0
2833 1 24.354443118875462 16.277976190776485 77.33113245119348 -1 0 0
2812 1 -0.10587267741469475 14.30801439899451 79.20747450182589 0 0 0
2855 1 22.45158129105655 16.540153769580257 79.18115254920875 0 0 0
2834 1 1.85683999211528 18.290385111360905 77.20415038509266 0 0 0
2859 1 1.715267256963354 20.341895977625974 79.47256671643711 0 0 0
2836 1 24.27706181100021 18.212136254528076 79.4378461687745 -1 0 0
2857 1 24.406812601968408 20.46995480598632 77.44034602065592 -1 0 0
2838 1 5.78958478710907 18.19327513414845 77.37195189856085 0 0 0
2840 1 3.798474971441681 18.23053195395132 79.43541279573333 0 0 0
2861 1 3.96444520976355 20.093088380371768 77.58516256704038 0 0 0
2863 1 6.155295922996643 20.126894065351934 79.39252354716967 0 0 0
2842 1 10.10479697893546 18.358673580360716 77.4260213578162 0 0 0
2844 1 8.261189335087337 18.449372089333572 79.37653076753543 0 0 0
2865 1 8.070546150494467 20.31836302174103 77.29748596179124 0 0 0
2867 1 10.230566793354779 20.255093721623 79.67073137934817 0 0 0
2848 1 12.524936944017947 17.993087484801876 79.35425808179819 0 0 0
2869 1 12.128501375054853 20.106993270605052 77.35543520340167 0 0 0
2846 1 14.596018358946456 18.041505283684238 77.48192547934613 0 0 0
2852 1 16.129797964169697 17.843536011219378 79.59281198173834 0 0 0
2871 1 14.037386375142672 20.254946826629165 79.05184672487574 0 0 0
2873 1 16.135854231671246 20.217812687258075 77.07825731553747 0 0 0
2850 1 18.210346487298082 18.049780304757867 77.15734417747383 0 0 0
2856 1 20.40231867162567 18.59363430126107 79.0514849606935 0 0 0
2875 1 18.077755766701237 20.152531787293917 78.84280087089105 0 0 0
2877 1 20.161416907630198 20.288134231767465 76.92867366470429 0 0 0
2854 1 22.562118136356872 18.420242851064977 77.25166684900877 0 0 0
2879 1 22.59326956732565 20.43413498396471 79.19229760257475 0 0 0
2858 1 2.1028567549533217 22.148467560062407 77.62952414723352 0 0 0
2862 1 6.018434650301144 22.019941870659537 77.49245357118724 0 0 0
2864 1 4.274320747256233 22.366230161578244 79.39111165285848 0 0 0
2866 1 9.908167252542267 22.14063822019766 77.31378566507409 0 0 0
2868 1 8.221612159052942 22.271306486658403 79.39060901008439 0 0 0
2749 1 12.391118267948249 24.16436354624885 77.33914456567538 0 -1 0
2872 1 12.060001389070388 22.148754377151484 79.3396256763193 0 0 0
2751 1 14.304612236711929 24.160334132832652 79.07172264332922 0 -1 0
2870 1 14.199037491089326 22.099336312195028 77.20326800411988 0 0 0
2876 1 16.366343048391002 22.32126302348079 79.29299073314282 0 0 0
2874 1 18.385357318954647 22.249834227086417 77.13695716913264 0 0 0
2880 1 20.413035931851468 22.02063664261741 79.26109814853895 0 0 0
2860 1 24.27680603435757 22.352811961311694 79.62283145312571 -1 0 0
2878 1 22.278508110205593 22.62421189305809 77.28689204502658 0 0 0
2882 1 1.8761754389713698 1.7352506290193956 81.47252490275469 0 0 0
2883 1 1.753304929537507 24.317845810365966 83.39276557863826 0 -1 0
2886 1 5.853523916100743 1.573627337649961 81.78798947266414 0 0 0
2888 1 3.778451197469469 1.5391362718815853 84.05431617941503 0 0 0
2887 1 6.087613503043674 24.44257135725186 83.72583409610864 0 -1 0
2890 1 10.305514370849034 1.90904994731204 81.07268509685774 0 0 0
2892 1 8.02614422692511 1.740463813497014 83.54648978041578 0 0 0
2889 1 8.008955408583867 24.188382497097933 81.73490567356583 0 -1 0
2896 1 12.358521331271053 1.5079709274287298 83.4200225404088 0 0 0
2893 1 12.607223415080504 -0.1506342441099875 81.2827110623514 0 0 0
2894 1 14.323738809271221 1.8226569931087069 81.31446389868063 0 0 0
2900 1 16.361144612182713 1.6514831954749618 83.2804496158796 0 0 0
2897 1 16.023297685717743 24.432756325293482 81.26155852953983 0 -1 0
2895 1 14.118729279156899 23.971551592201244 83.34231217210827 0 -1 0
2898 1 18.178191362394415 2.0910013837397314 81.13604785751671 0 0 0
2901 1 20.577842749651367 0.2603042737226383 81.50035060094785 0 0 0
2904 1 20.20768343862789 2.4680273742802674 83.34654870523856 0 0 0
2899 1 18.352086485104856 24.372575826900075 82.89059059309595 0 -1 0
2881 1 24.10931815635996 24.193924385050295 81.62158453245154 -1 -1 0
2884 1 -0.0496345995785506 2.0644762229904616 83.58969142014851 0 0 0
2902 1 22.524399287256927 2.1650550735129532 81.56835107337722 0 0 0
2903 1 22.387438777997254 0.156756629795622 83.46466866488629 0 0 0
2906 1 2.155512368071816 5.793628122937416 81.51971581192744 0 0 0
2907 1 1.8630403681200316 3.8981581587130822 83.49301165675361 0 0 0
2908 1 -0.06831808435707387 6.0518316653968585 83.5056946312431 0 0 0
2909 1 4.181182523983227 3.8323635071442714 81.61684991750447 0 0 0
2910 1 6.180785325200703 6.046775373428486 81.62169727600461 0 0 0
2911 1 6.180845829771059 3.923332700755397 83.4168370202403 0 0 0
2912 1 3.81707223649847 6.107594762711131 83.59052094634417 0 0 0
2913 1 8.187975351734085 3.838813009473447 81.3715391021936 0 0 0
2914 1 10.006865854943072 5.993208583379482 81.46564053741501 0 0 0
2915 1 10.029914549082605 3.724066533995259 83.39952720962053 0 0 0
2916 1 8.005846367871712 6.012902764162703 83.63265274061345 0 0 0
2917 1 12.000529965647418 3.6961538195001893 81.62181422348334 0 0 0
2920 1 11.967748718974953 5.72519833771506 83.58448514689151 0 0 0
2918 1 14.01058581237415 5.845423743034181 81.48684657561334 0 0 0
2919 1 14.143274620688496 3.791451671448044 83.48283110180272 0 0 0
2921 1 16.331103379180576 3.728724548193047 80.97515644507851 0 0 0
2924 1 16.17199481817569 6.017708568181924 83.5182388814027 0 0 0
2922 1 18.221203846472946 6.054556084779011 81.34122806371448 0 0 0
2923 1 17.883565781806503 3.9431077515572603 83.15743038495044 0 0 0
2925 1 20.50531114909017 4.260185375817914 81.07627261961885 0 0 0
2928 1 19.886830549532846 5.702719594990371 83.71621067802606 0 0 0
2905 1 -0.1054915029095071 3.8174466286950675 81.31170453732445 0 0 0
2926 1 22.568484670535994 6.194553922873305 81.58010572163545 0 0 0
2927 1 22.482578964815467 4.234757769264338 83.36714790776936 0 0 0
2931 1 1.9503522382236316 8.018605573133707 83.58563014561673 0 0 0
2936 1 3.702511708012292 9.925791905455121 83.29872201741144 0 0 0
2933 1 3.9334556051401526 7.863288596261478 81.32933353792292 0 0 0
2934 1 5.773139076914557 10.07113922712684 81.3396550324601 0 0 0
2935 1 5.997672334328177 7.893008753241292 83.3941469949283 0 0 0
2937 1 8.04214469214919 8.163318919068995 81.52609303579223 0 0 0
2938 1 10.042550359862666 10.115928255334829 81.51973853765143 0 0 0
2939 1 9.956620972788706 8.233689376107655 83.62219086889704 0 0 0
2940 1 7.813521867978411 10.309921035937068 83.4476175402189 0 0 0
2941 1 11.78128485907426 7.826992579028578 81.40836979553104 0 0 0
2944 1 12.078858513977307 10.100779419226022 83.37389404525108 0 0 0
2942 1 14.134494600161673 9.898841540291077 81.61805540787829 0 0 0
2945 1 16.059532820823662 7.998715798426906 81.49819623827288 0 0 0
2948 1 16.189537254376646 10.06796319016334 83.8232115874853 0 0 0
2943 1 14.193493071192526 7.983242117888485 83.51387542073194 0 0 0
2947 1 18.260506608595087 7.900023375132253 83.3989617015974 0 0 0
2949 1 20.174342590267017 8.36959804813191 81.27301643268324 0 0 0
2952 1 20.362285447932656 9.94672920589779 83.36492256152512 0 0 0
2946 1 18.374570742185256 10.0229722190652 81.20869683687935 0 0 0
2929 1 24.370040978026633 8.04527037096708 81.55520863462999 -1 0 0
2950 1 22.42746891937412 10.22619699311221 81.33037388227955 0 0 0
2951 1 22.548499883462952 7.87740070165396 83.29722008385122 0 0 0
2932 1 24.327390067883304 9.77504734426594 83.54063299513385 -1 0 0
2930 1 1.7630776546818379 10.059496979660052 81.4748728006748 0 0 0
2955 1 1.6676873159529915 12.143303710448539 83.53726155685715 0 0 0
2957 1 3.776802518024789 11.986879634838655 81.52954055552902 0 0 0
2959 1 5.7958965085020955 11.978686463834217 83.37365720739318 0 0 0
2961 1 7.880861295472499 11.960265695909325 81.39496157899619 0 0 0
2965 1 12.056947872630516 12.090571986900404 81.34066142055285 0 0 0
2967 1 13.84534345223383 12.30152079641837 83.42007180153296 0 0 0
2969 1 16.333311770355728 12.091768970123013 81.45195007689782 0 0 0
2971 1 18.302592593622883 11.97287278666177 83.33526225698058 0 0 0
2973 1 20.549685656220888 12.261960686034007 81.29528438550439 0 0 0
2953 1 0.004651252457181038 12.548203942947259 81.25730983921325 0 0 0
2975 1 22.59621664971521 12.241688037585345 83.32768305021719 0 0 0
2954 1 1.8969821478765598 14.260432265434407 81.3268236107195 0 0 0
2979 1 2.085788227501262 16.380757867744485 83.42997584517857 0 0 0
2956 1 -0.05876304474845975 14.333050639415822 83.38830855398835 0 0 0
2977 1 -0.18663746600924677 16.325491207334395 81.26888141269222 0 0 0
2958 1 5.986292452470992 14.06685131055297 81.30674145494513 0 0 0
2960 1 3.8583945831714974 14.255068065978776 83.36676661815895 0 0 0
2981 1 4.0458523945763725 16.08515698556038 81.36108260839374 0 0 0
2983 1 6.023779427809361 16.25403258929694 83.52038753894517 0 0 0
2962 1 10.089867515784647 14.102559587179341 80.94761106021403 0 0 0
2964 1 7.9082606708639265 14.564875294602517 83.22425131014712 0 0 0
2985 1 7.975752241475682 16.22885203622505 81.2839458441143 0 0 0
2987 1 10.072661443098276 16.340573164712175 83.17596576753918 0 0 0
2968 1 11.964273294876543 14.162163491798067 83.56691792031162 0 0 0
2989 1 12.318019622917463 16.227231101052354 81.40111962177748 0 0 0
2972 1 16.15536148010608 14.008299058409014 83.33538931185932 0 0 0
2966 1 14.136554743587682 14.11965431207927 81.40286585692557 0 0 0
2991 1 13.964275615408539 15.956198870369962 83.57176799928948 0 0 0
2993 1 16.224569139928278 15.849156526152901 81.24833158395104 0 0 0
2970 1 18.663837943857914 13.931029005820134 81.11008125614157 0 0 0
2976 1 20.38762556966902 14.014157227632918 83.51782898982522 0 0 0
2995 1 18.203830778756775 16.110118046752433 83.23910847765659 0 0 0
2997 1 20.565704365642226 16.098406845676045 81.28929270426741 0 0 0
2974 1 22.814671301764008 14.34356610300063 81.51749783065462 0 0 0
2999 1 22.62925483898617 16.173367213758077 83.5485091402731 0 0 0
2978 1 2.0324785811776267 18.077202333129783 81.33584327678456 0 0 0
3003 1 1.8976925103977056 20.20698033653423 83.59157172287225 0 0 0
2980 1 24.48798566661492 18.412774726175513 83.37086219465903 -1 0 0
2982 1 6.271506329903685 18.391938213616363 81.55314225953467 0 0 0
2984 1 4.126897400402069 18.376489266082416 83.70608648560359 0 0 0
3005 1 4.093009589198325 20.41690336002634 81.37947810736401 0 0 0
3007 1 6.277894571216407 20.404342604584215 83.62800609743456 0 0 0
3009 1 8.42087778372268 20.22544264575562 81.66345802533175 0 0 0
2986 1 10.26586874414742 18.145548687181588 81.24545639871981 0 0 0
3011 1 10.243824420855889 20.28129697884861 83.59088390065538 0 0 0
2988 1 8.053660148219265 18.179452101794766 83.42377188361542 0 0 0
2992 1 12.020799994673357 18.166448716198346 83.4087454917999 0 0 0
3013 1 12.270843775723666 19.89979119447748 81.29610333263085 0 0 0
2990 1 14.320567730583376 18.021659803228204 81.63055722843164 0 0 0
2996 1 16.18957494267319 17.74264438881844 83.29554194497904 0 0 0
3015 1 14.251492441361822 20.301338481857414 83.1868189720679 0 0 0
3017 1 16.219368477775383 20.166910926652456 81.00015115237281 0 0 0
2994 1 18.617319151871726 18.02229272450618 81.26348641993611 0 0 0
3000 1 20.703907018724415 18.423859296136136 83.44328975509617 0 0 0
3021 1 20.43013512866061 20.155858282630653 81.45309756976451 0 0 0
3019 1 18.206262025599976 19.875740266717088 83.1422126486787 0 0 0
3001 1 -0.03538075942879715 20.34431151825752 81.47309783494796 0 0 0
2998 1 22.470518913070258 18.22386271360132 81.51310751066127 0 0 0
3023 1 22.71534791217917 20.33904738127498 83.51493606597445 0 0 0
3002 1 1.9267895044322731 22.342999431273462 81.53287343436413 0 0 0
2885 1 3.90921771291724 24.124248830995363 81.37918102743042 0 -1 0
3006 1 6.133815041889099 22.16410295422108 81.31619407010196 0 0 0
3008 1 4.127293854824466 22.369455486546983 83.67220486916509 0 0 0
2891 1 10.337203550580325 24.45063994027082 83.41198870897527 0 -1 0
3010 1 10.399974844124225 22.689658869774227 81.38524007339116 0 0 0
3012 1 8.072283405120242 22.527953477978542 83.70466371689889 0 0 0
3016 1 12.061328931160972 22.12104609258671 83.31149172375511 0 0 0
3014 1 14.311468154288466 22.137066776207426 81.04768320122324 0 0 0
3020 1 16.26364708261704 22.222894383656794 83.20171137214754 0 0 0
3018 1 18.18096412824329 21.959389609801136 81.1154916657704 0 0 0
3024 1 20.425713465339527 22.471573007903338 83.28450124084826 0 0 0
3022 1 22.149944669298854 22.32902383286504 81.54490885265824 0 0 0
3004 1 -0.04383305693557554 22.195791690311587 83.6081282021922 0 0 0
3026 1 1.7951275730809833 2.013914548661309 85.75966660511206 0 0 0
3025 1 24.259733786531562 -0.10604710642380866 85.58054302168313 -1 0 0
3030 1 6.009270185833943 1.946684656883321 85.51386215070181 0 0 0
3029 1 4.095292576184303 24.288872533489617 85.73100700587365 0 -1 0
3031 1 6.09431173635632 24.35433648814634 87.57745857908904 0 -1 0
3034 1 10.20738233731749 2.1740916142675237 85.48915092050119 0 0 0
3038 1 14.29797327862351 1.8254379320011338 85.41089497705534 0 0 0
3041 1 16.18750894092117 24.31147097478126 85.04344487749265 0 -1 0
3042 1 18.320593052363265 2.3151303922244724 85.31447943180142 0 0 0
3046 1 22.248402710658475 2.022165115577598 85.61646331403936 0 0 0
3050 1 1.8180025200835108 6.272888726956819 85.67862612656606 0 0 0
3053 1 4.0027864002294535 3.8945430902032676 85.63075611042439 0 0 0
3054 1 5.760521688389137 5.989049131868846 85.57978002172348 0 0 0
3057 1 8.216954785820974 4.208684148239299 85.66665574553862 0 0 0
3058 1 9.925468896733062 6.331912214705702 85.71364349782411 0 0 0
3061 1 12.139042726855548 4.239141962241389 85.46318054133242 0 0 0
3064 1 12.226820122293132 6.074109370525888 87.6667052743091 0 0 0
3062 1 14.00901787705469 6.118615433715056 85.37211359244111 0 0 0
3065 1 15.891267616448149 3.933691460875332 85.29769129927195 0 0 0
3066 1 18.16403396558455 6.077665792041617 85.42030198999923 0 0 0
3069 1 20.41094404786051 4.066920757408567 85.43120738801434 0 0 0
3049 1 -0.019126689693834464 4.149671468767964 85.75775026970037 0 0 0
3070 1 22.312600589103262 6.320007290271366 85.81195510872725 0 0 0
3074 1 1.9468440927800472 10.158179682342944 85.35042232315244 0 0 0
3077 1 3.8284360389885785 8.17132512811666 85.67927124478851 0 0 0
3078 1 5.80109972650625 9.894080116839396 85.58796037383931 0 0 0
3081 1 7.585393110728481 8.06625870626713 85.5231777521393 0 0 0
3082 1 9.652410358930586 9.988789458641666 85.73461491094245 0 0 0
3085 1 12.088900124310594 8.278684658242426 85.45530823764273 0 0 0
3088 1 12.24218611357233 10.095070811429345 87.51771424104271 0 0 0
3089 1 16.129068389653227 7.913517738900618 85.67190708409093 0 0 0
3086 1 14.043205521543477 10.152816521025136 85.41153648819835 0 0 0
3090 1 18.243940415975985 9.967558507306956 85.55397621985817 0 0 0
3093 1 20.352827116451515 8.069040103516956 85.37360432516692 0 0 0
3073 1 24.367840501157843 8.388489719032076 85.77863036959893 -1 0 0
3094 1 22.421413542368292 10.043823231467835 85.41786732111579 0 0 0
3097 1 24.408569752288077 12.020529096057526 85.39862711945375 -1 0 0
3101 1 3.9943218936961777 12.13026562627778 85.5544048617832 0 0 0
2963 1 9.889675682392554 12.389194861950429 83.32443440047325 0 0 0
3105 1 8.094755727467362 12.306428656648523 85.49452915803504 0 0 0
3109 1 11.863256874387174 11.856375562105272 85.47387110499223 0 0 0
3113 1 16.09843331794437 12.23416287096482 85.46309255491421 0 0 0
3117 1 20.509618671671696 11.803636554290831 85.4981143799595 0 0 0
3098 1 1.9820495358475694 14.102232313204366 85.29892386804629 0 0 0
3121 1 -0.12918265482655422 16.34648163711637 85.33256214156654 0 0 0
3102 1 5.747986917640976 14.592541833944072 85.46124985107623 0 0 0
3125 1 4.21088078547893 16.42159972799076 85.58325403265309 0 0 0
3106 1 10.117986725740998 13.999574472509336 85.67493267188851 0 0 0
3129 1 8.238995270720029 16.19474936280273 85.37057050054251 0 0 0
3133 1 12.02179565721332 16.13004523183926 85.24932339780163 0 0 0
3110 1 14.13873995060122 14.325515196517205 85.66377392160379 0 0 0
3137 1 16.62903411768668 16.25424668502088 85.279111219499 0 0 0
3114 1 17.96444305174515 14.189192941778147 85.36000627885207 0 0 0
3141 1 20.49778393915443 16.436909056571338 85.44809471673497 0 0 0
3118 1 22.620588857123934 14.306334876953388 85.55549178948569 0 0 0
3122 1 1.92913518388727 17.94928479015782 85.77246740272994 0 0 0
3126 1 6.2410440682035455 18.567118313309066 85.49672297329683 0 0 0
3149 1 3.7275487943287735 20.135656528200045 85.68514871614141 0 0 0
3128 1 4.135872254124143 18.19746504219986 87.71341912840371 0 0 0
3130 1 10.340362559438502 18.201969587398445 85.3656934792783 0 0 0
3153 1 8.279992376267517 20.37600705703443 85.61451760286475 0 0 0
3157 1 12.286656516137725 20.413408758904417 85.34435761735497 0 0 0
3134 1 14.498711368095883 18.420498350227035 85.72089504814483 0 0 0
3161 1 16.741775420476777 19.891897369351717 85.34176780577847 0 0 0
3138 1 18.771698063298352 18.208206445248734 85.43007041515938 0 0 0
3165 1 20.57680662556185 20.4916940132644 85.21060107530903 0 0 0
3145 1 24.441507019351747 20.4944383480043 85.61494666979867 -1 0 0
3124 1 24.446434738936354 18.640249450108627 87.36647964112181 -1 0 0
3142 1 22.431639840078496 18.31315565140146 85.38162913735785 0 0 0
3146 1 1.8950181650205735 22.224601942189324 85.28061135350688 0 0 0
3150 1 5.900167168926155 22.386547113920244 85.79114389280939 0 0 0
3033 1 8.091255784341763 24.251841094300516 85.68923119608586 0 -1 0
3154 1 10.178430495109827 22.536150752888375 85.49853981930107 0 0 0
3037 1 12.272891111248148 24.34495053385274 85.40575525194416 0 -1 0
3158 1 14.298207238389134 22.466770002962278 85.49492103823908 0 0 0
3045 1 20.23004967253121 0.13152209313585278 85.17096459785293 0 0 0
3162 1 18.017071135672673 22.60871709812514 85.19715228814678 0 0 0
3166 1 22.537928005360676 22.494181270554797 85.43583213305052 0 0 0
3047 1 22.455187203415782 -0.08063825017283932 87.59216252628215 0 0 0
3170 1 1.8357779844173474 1.8601944612373664 89.61636545794784 0 0 0
3027 1 1.828027745985803 -0.09889408664669475 87.43307755668987 0 0 0
3032 1 3.5916183595467674 2.0108293985807015 87.69497652794729 0 0 0
3174 1 6.115850432951629 2.1421764556092464 89.43071776551423 0 0 0
3173 1 3.815891175567578 24.384389612166924 89.38289183563239 0 -1 0
3036 1 8.034449645127205 2.1997706375956687 87.47011289782336 0 0 0
3177 1 8.214453355949791 -0.037024277897295704 89.2527892295128 0 0 0
3035 1 10.139801339238284 -0.13740898482884445 87.39348985905019 0 0 0
3178 1 9.864577956252448 2.035548218853612 89.76201350562359 0 0 0
3040 1 12.085861984787892 2.1361431047068904 87.4340918997187 0 0 0
3044 1 16.23715588932665 2.007348811047908 87.43339593377327 0 0 0
3182 1 14.342513975861287 2.0949162222596 89.5438422762222 0 0 0
3185 1 16.48220822109385 -0.07347927766153445 89.4998162946199 0 0 0
3039 1 13.913267255055388 -0.017383661961656 87.49126388962806 0 0 0
3186 1 18.35314026076825 1.814899590109481 89.05945346901721 0 0 0
3043 1 18.192543008953663 24.42929148278668 87.16510828788711 0 -1 0
3048 1 20.16302161907882 1.9066752460148146 87.27738925097682 0 0 0
3028 1 -0.07875304475111733 2.013671450395503 87.33883313159981 0 0 0
3169 1 24.37264909131043 24.29071169952575 89.57584002132762 -1 -1 0
3190 1 22.62022472370517 2.2317401559553214 89.1032724316448 0 0 0
3051 1 1.863391151482951 4.233896372051207 87.54468051045482 0 0 0
3194 1 1.9057385915650786 6.153933673839178 89.78105411603732 0 0 0
3055 1 6.284427163349015 4.233437682282914 87.57044134852286 0 0 0
3056 1 3.8672146564831564 6.232976533768263 87.63672653184392 0 0 0
3197 1 3.9306469737876997 4.244259638152205 89.43911243155551 0 0 0
3198 1 5.863653733190072 6.2719813298994715 89.77333572716786 0 0 0
3059 1 10.260528754953143 3.8573396991384836 87.68994991508416 0 0 0
3060 1 8.02036738299573 6.063148842206576 87.60088361071773 0 0 0
3201 1 8.003513760258055 4.199427146335925 89.78490333784241 0 0 0
3202 1 9.917632838630778 5.904432154615254 89.71312536460732 0 0 0
3205 1 11.857864723682379 4.099902319636031 89.64321718059124 0 0 0
3063 1 13.957230288448404 4.071017442978802 87.43469524744538 0 0 0
3068 1 16.227355779045247 6.221783074875934 87.74656996596018 0 0 0
3206 1 14.16480277001739 5.953588966093556 89.82693092822201 0 0 0
3209 1 16.258844376224147 4.149276489884572 89.61963610390497 0 0 0
3067 1 18.107444324955438 4.132943562541905 87.57031779310547 0 0 0
3072 1 20.30136793992112 5.9473497585300645 87.32525618957553 0 0 0
3210 1 18.24789840009319 6.134615611447555 89.94304184775339 0 0 0
3213 1 20.18570077814188 4.048176898924728 89.61469669272343 0 0 0
3052 1 24.425564223748186 6.374743395787299 87.82149888279585 -1 0 0
3193 1 24.419582136811798 4.015191673618869 89.64703052096631 -1 0 0
3071 1 22.639397324149627 4.122679554491215 87.39400148877685 0 0 0
3214 1 22.33678759609137 6.1577195602340495 89.40414014103379 0 0 0
3076 1 -0.18859809195491148 10.324525196980698 87.59119034302192 0 0 0
3075 1 1.8622723117769255 8.226303044488555 87.86772902915783 0 0 0
3218 1 1.4678367564026549 10.239907481122312 89.7955943348199 0 0 0
3217 1 24.47473647942117 8.339648059285787 89.42821252702538 -1 0 0
3079 1 5.759427799439633 8.088637255776751 87.71186479600539 0 0 0
3080 1 3.818266683213629 10.216291201471913 87.71606148501178 0 0 0
3221 1 3.6075636680549676 8.215206432292426 89.86944643823641 0 0 0
3222 1 5.610770826230593 10.104973439226432 89.72470073974682 0 0 0
3083 1 9.715448131513645 8.12174299231435 87.57156605881336 0 0 0
3084 1 7.65192424885337 10.251983026541538 87.620894455898 0 0 0
3225 1 8.036426620388813 7.917742812795716 89.82092443366886 0 0 0
3226 1 9.996731302793073 10.008285271164551 89.76086464889788 0 0 0
3229 1 11.926230599086951 8.07950575510381 89.58360303609587 0 0 0
3087 1 14.109252011221868 7.9533745054464156 87.39246594086175 0 0 0
3092 1 16.46710327207331 10.290751477416412 87.47199609838589 0 0 0
3230 1 14.340260857372153 9.989390017950498 89.59669929134913 0 0 0
3233 1 16.329665294078445 8.171381860228747 89.82019821927413 0 0 0
3091 1 18.25998901562304 8.049936970000259 87.69506053426291 0 0 0
3096 1 20.267945923104627 9.89928963378548 87.56960059376974 0 0 0
3234 1 18.465718294170443 10.360397361905813 89.6961997524746 0 0 0
3237 1 20.361784946200984 7.972977339543732 89.35375499691702 0 0 0
3095 1 22.45225183636679 8.359246317615483 87.76493623539415 0 0 0
3238 1 22.515597959188682 10.56344429151228 89.49850499170019 0 0 0
3099 1 1.8882009356867409 12.154300563592356 87.42407845147822 0 0 0
3241 1 -0.0016530117955128598 12.34050137896094 89.72767297847713 0 0 0
3103 1 5.884846378908197 12.35925198815432 87.5832066793313 0 0 0
3245 1 3.950051127659685 12.180004592266693 89.60598904464908 0 0 0
3107 1 10.205431369188835 11.878088053540845 87.69803279185656 0 0 0
3249 1 8.010276963350575 12.047156878309101 89.77425466426308 0 0 0
3108 1 7.769101518538367 14.2003721322 87.76417519988593 0 0 0
3253 1 12.177717420834536 12.405884773934561 89.53235778315475 0 0 0
3111 1 14.29784380639391 12.055223609161176 87.52824251258808 0 0 0
3257 1 16.4162418376581 12.016161832893204 89.83568308526102 0 0 0
3115 1 18.44163716261621 12.446403398211134 87.64771750729716 0 0 0
3261 1 20.537725495134175 12.438041705928049 89.45120854133707 0 0 0
3119 1 22.325640759234147 12.4125713003496 87.43346169207136 0 0 0
3123 1 1.9938528414669623 16.294190172747967 87.8582766293292 0 0 0
3242 1 1.9238407479530402 14.038070971374639 89.56820894377937 0 0 0
3100 1 -0.11713269974471006 14.487548604578516 87.8958351062755 0 0 0
3265 1 24.33445019514184 16.558095311054615 89.52085839692066 -1 0 0
3104 1 3.864299521458915 14.477869034667863 87.50520283797883 0 0 0
3127 1 6.175213171925917 16.245457040198566 87.62733563541492 0 0 0
3246 1 6.078263426544682 14.135287492311079 89.75017859425625 0 0 0
3269 1 4.037819095568555 16.457791507389437 89.85596898816378 0 0 0
3250 1 10.093748999511709 13.92633632563131 89.62255913019565 0 0 0
3273 1 8.209263448040266 15.962314409082067 89.96883669896866 0 0 0
3131 1 10.174796054411967 16.254357162947016 87.44557881186996 0 0 0
3112 1 12.317966830525759 14.2273170373664 87.58623296898683 0 0 0
3277 1 11.887787139183004 15.975199513139907 89.41160581680147 0 0 0
3116 1 16.12045040411102 14.366140663433375 87.31423542422871 0 0 0
3135 1 14.156090833383285 16.092344490966433 87.64534769963625 0 0 0
3254 1 14.426304811160534 14.24783890035631 89.61015150567998 0 0 0
3281 1 16.111024671639846 16.429392506027753 89.44029006107276 0 0 0
3258 1 17.970687957196432 14.215692956248539 89.70478300477974 0 0 0
3120 1 20.260965665028344 14.06123346032208 86.94132806126962 0 0 0
3139 1 18.343935251912818 16.172665793681837 87.53760007102896 0 0 0
3285 1 20.329830246200714 16.359815438806415 89.50068944337598 0 0 0
3143 1 22.537875413208184 16.202283059862744 87.58175835395312 0 0 0
3262 1 22.288121353990178 14.18060569025067 89.42202947668203 0 0 0
3147 1 2.0068475278644606 20.19744306088495 87.74855411826692 0 0 0
3266 1 2.030900608497209 18.24425673326987 89.46725276771309 0 0 0
3151 1 6.017811575547176 20.42640485803836 87.68739108813106 0 0 0
3270 1 6.1821108942585825 18.132819732677262 89.79506521461863 0 0 0
3293 1 4.082524296538544 20.212845251889455 89.50489909972171 0 0 0
3132 1 8.101585437319589 18.27393229219085 87.45879002297322 0 0 0
3155 1 10.507867111307203 20.052716147805093 87.15962713918273 0 0 0
3297 1 8.312784633231102 20.28001795148122 89.20415729856482 0 0 0
3274 1 10.142501650523714 18.26999498927121 89.44870545515751 0 0 0
3136 1 12.405292538514564 18.177598839842567 87.52892409484635 0 0 0
3301 1 12.478955337136044 20.342736807144583 89.26805755405854 0 0 0
3159 1 14.440425376343715 20.418424038812937 87.61281354972735 0 0 0
3140 1 16.42840474470257 18.36485648963665 87.39609010872705 0 0 0
3278 1 14.296230561174314 18.395448982962407 89.78207389088914 0 0 0
3305 1 16.36600335355086 20.56974890717416 89.4176975044481 0 0 0
3144 1 20.452030600850485 18.50751964548099 87.30887774323035 0 0 0
3163 1 18.303307431854492 20.61063326145345 87.278466384196 0 0 0
3282 1 18.263163764861005 18.367832141536738 89.37751488043806 0 0 0
3309 1 20.335014270532717 20.22795451049896 89.53839079475334 0 0 0
3167 1 22.46739828439184 20.430179058627154 87.64184924427569 0 0 0
3286 1 22.539727355629005 18.40366031671372 89.37872493292585 0 0 0
3289 1 24.420561329950086 20.25722761411574 89.94132445338275 -1 0 0
3290 1 2.092904511480057 22.352250179343038 89.66333332391895 0 0 0
3152 1 3.7045438490688714 22.361544584739875 87.48501977810548 0 0 0
3294 1 6.084075486626154 22.272077562697973 89.6915729028476 0 0 0
3156 1 8.071097407876834 22.31214958285672 87.56026623683321 0 0 0
3298 1 10.257112571397842 22.52312880848128 89.4642494967145 0 0 0
3160 1 12.333968136375864 22.38136292967284 87.7203442162316 0 0 0
3181 1 12.02443821971209 0.09647085901172575 89.39563685014583 0 0 0
3302 1 14.507556968883172 22.591045343994963 89.41388866176638 0 0 0
3164 1 16.25687246787298 22.500447051354506 87.40362495058224 0 0 0
3189 1 20.322649378481103 0.1077778110926772 89.56824223954312 0 0 0
3168 1 20.413306098737493 22.461155045540515 87.11443775932457 0 0 0
3306 1 18.52551169027131 22.188506564123962 89.4298987744582 0 0 0
3148 1 -0.07277708046582632 22.35602927475471 87.51791907312493 0 0 0
3310 1 22.4873487347841 22.61080530004441 89.52323490213875 0 0 0
3314 1 1.711170443132448 1.9308286812646673 93.58682405559503 0 0 0
3171 1 1.6348783831668008 24.433790709652865 91.5443400044928 0 -1 0
3313 1 -0.08383936229048627 -0.049299717226283235 94.03590197420888 0 0 0
3176 1 3.9479924153044452 2.10531711064917 91.31566758250838 0 0 0
3318 1 5.919034376897017 1.9219990877846502 93.32434797167988 0 0 0
3175 1 5.8676426451692985 -0.10072239911310979 91.28876023341103 0 0 0
3180 1 7.862648015765338 1.7001582193430862 91.73033799037691 0 0 0
3322 1 10.542008867310258 1.7307477067554977 93.81240294615895 0 0 0
3184 1 11.934510240262808 1.9330323940548504 91.39573483849571 0 0 0
3188 1 16.26489957738697 1.8483992657321848 91.54074897253226 0 0 0
3326 1 13.909936882451097 1.9065309776884272 93.51080618883026 0 0 0
3192 1 20.489935776936875 1.9481108197594441 91.37956543818352 0 0 0
3330 1 18.40284350853024 1.680042311498485 93.53266527581437 0 0 0
3172 1 -0.05315725677063199 2.046110517316003 91.59544404726982 0 0 0
3334 1 22.52547001068966 1.8979634116390733 93.60737044802478 0 0 0
3191 1 22.373865079442616 0.11615654376459766 91.59180349278996 0 0 0
3195 1 1.9570941786034433 4.05988326779318 91.40302217026 0 0 0
3338 1 1.9319772850743808 6.048596113845551 93.46956318949252 0 0 0
3199 1 6.0700802348677785 3.9607714315391522 91.73412110252947 0 0 0
3200 1 4.01403351865203 5.857104664097078 91.65990124964516 0 0 0
3341 1 4.011049206494663 3.946047986541169 93.61069301133193 0 0 0
3342 1 6.025137793338521 6.179998030373124 93.84101363048025 0 0 0
3204 1 8.025983678623868 6.053494518732607 91.8954645512648 0 0 0
3345 1 8.07699138852311 3.5351634324642687 93.95273767157742 0 0 0
3346 1 10.315060220897387 5.902292194738478 93.65068832669253 0 0 0
3203 1 9.917271567135538 3.6970484600093645 91.949976648514 0 0 0
3208 1 12.196442848700123 5.98800347029454 91.65410357368737 0 0 0
3349 1 12.144419366285124 3.970900147708117 94.0763274740018 0 0 0
3207 1 14.034397634450102 4.042818081862498 91.46888650091627 0 0 0
3212 1 16.58214564988031 5.5365061633706825 91.95506255274945 0 0 0
3350 1 14.338119607564362 5.98994252431097 93.72172534510568 0 0 0
3353 1 16.12770978649732 3.686783694001943 93.37675473664169 0 0 0
3211 1 18.32278090991582 3.4324830627346032 91.43799895798264 0 0 0
3216 1 20.429992858270523 6.1426494363041515 91.60383389697796 0 0 0
3354 1 18.55130590710585 5.602977317615322 93.62050584384616 0 0 0
3357 1 20.682259976835525 3.9439852063365857 93.42062423368434 0 0 0
3337 1 24.380183384630115 3.9435316508709484 93.33347113665852 -1 0 0
3196 1 24.137379836085245 6.043793337684591 91.68712792202122 -1 0 0
3215 1 22.34316445455663 3.86198679780421 91.33006699644676 0 0 0
3358 1 22.462770625482072 5.698839286595968 93.68893096802314 0 0 0
3219 1 1.6896957442737395 8.25177563674506 91.76498957783257 0 0 0
3362 1 1.8054856249946503 10.283560522003553 93.96733699550848 0 0 0
3220 1 24.49167794696102 10.309844125075966 91.94213340242368 -1 0 0
3361 1 -0.12290084165516646 7.878541156920964 93.84690961626873 0 0 0
3223 1 5.946936713238414 7.960591610965958 91.67685382496111 0 0 0
3224 1 3.88849110749101 9.981376709453917 91.89096196339815 0 0 0
3365 1 3.7520331605651074 7.957487252129534 94.1303513728491 0 0 0
3366 1 5.8041993011783095 9.997158449691876 93.7156633485348 0 0 0
3227 1 9.966138227281709 8.003106507804867 91.5429582514382 0 0 0
3228 1 7.830807327793959 10.196586929648468 91.70147215932657 0 0 0
3369 1 7.896747939393238 8.182258032663494 93.57258611677301 0 0 0
3370 1 9.79422387515642 9.994724644278431 93.83575593546345 0 0 0
3373 1 11.78312275184783 8.185399820726907 93.65311704899031 0 0 0
3232 1 12.021285853235774 10.17623896905298 91.67903864590451 0 0 0
3231 1 14.369926339414084 7.842214096913172 91.79838713350793 0 0 0
3236 1 16.378539228940554 10.085825612836443 91.56213350436848 0 0 0
3374 1 13.985214831612629 10.053129303857427 93.77405851320118 0 0 0
3377 1 16.221312554068533 8.022749825198227 93.8789564215823 0 0 0
3235 1 18.40678325781515 8.046323601950874 92.08708106031733 0 0 0
3240 1 20.455333167928806 10.083834057362507 91.44487134276 0 0 0
3378 1 18.172527797931224 10.259961124780645 93.73338917636664 0 0 0
3381 1 20.548400142995305 7.879699490026935 93.85197307295653 0 0 0
3239 1 22.6597200258551 8.443839317083897 91.60830281989938 0 0 0
3382 1 22.44588429738036 10.220109892481064 93.64715771714265 0 0 0
3243 1 2.139180044861514 12.117000069328046 91.77871567141418 0 0 0
3385 1 24.46061037880888 12.524753152908007 93.69469635733391 -1 0 0
3247 1 5.858833157240278 12.19064574001198 91.88005441680595 0 0 0
3389 1 4.084080394134242 12.2894567498783 93.98635008244997 0 0 0
3393 1 8.030831728079875 11.983570426342359 93.89140378503481 0 0 0
3251 1 9.850390372477099 12.16404345171949 91.64802039366015 0 0 0
3397 1 11.944220447795047 12.40240385144371 93.73124923857915 0 0 0
3255 1 14.311487943343732 12.148022682166232 91.69175062376466 0 0 0
3401 1 16.02618014836534 12.174311204196789 93.77777740415404 0 0 0
3259 1 18.14405271737494 12.318195117523805 91.73945368219536 0 0 0
3405 1 20.10113176517919 12.088418520090665 93.76939953411724 0 0 0
3263 1 22.371335432078823 12.036600839382583 91.62077667023675 0 0 0
3267 1 1.6879938324960337 16.107136933785917 91.4680821929008 0 0 0
3386 1 2.1376202348201656 14.41216202507278 93.87364387583261 0 0 0
3409 1 24.390117599666198 16.24882581852136 93.26261840785025 -1 0 0
3413 1 4.075353618935209 16.464574167505134 93.70175287198397 0 0 0
3248 1 4.085214657124111 14.064683203746963 91.55750385650838 0 0 0
3271 1 6.0361141342887885 16.132186676680895 91.77889016935386 0 0 0
3390 1 5.948780236889473 14.303070812536387 93.8293182711117 0 0 0
3417 1 7.928936467780149 16.537799268918455 93.8031198268968 0 0 0
3252 1 7.997799784378296 14.136785292468417 92.05064750046533 0 0 0
3275 1 10.079983399498092 16.288860843737062 91.57890746557783 0 0 0
3394 1 9.836082954973843 14.03022801739784 94.13203905221981 0 0 0
3421 1 12.061178112452607 15.981389399822662 93.46628340318765 0 0 0
3256 1 11.945878699974712 14.043910236899398 91.55053236546726 0 0 0
3425 1 15.960401863979888 16.252856405490455 94.11796440120227 0 0 0
3260 1 16.01742626737301 14.503781586242843 91.89333772676261 0 0 0
3279 1 14.010678732024575 16.517723503153974 91.38712186425431 0 0 0
3398 1 14.013060721206624 14.063732228074757 93.99666735454343 0 0 0
3264 1 20.3290002646865 14.015937520637188 91.70276164363946 0 0 0
3429 1 20.486974723637807 16.250629282146093 93.81447405603058 0 0 0
3283 1 18.318460963749708 16.39652408111622 91.78447107728947 0 0 0
3402 1 18.05134770573106 14.222958729635913 93.67518260224958 0 0 0
3244 1 24.293495205805876 14.411882324215904 91.36031511019995 -1 0 0
3406 1 22.236499926220134 14.02713278845898 93.94382883167663 0 0 0
3287 1 22.14713791037314 16.271101667596767 91.38700303794467 0 0 0
3410 1 2.059613310484006 18.040976912079948 93.8916520068179 0 0 0
3291 1 1.8123268635936016 20.451976728099346 91.75776060227699 0 0 0
3433 1 0.2018542791249197 20.566530116909583 93.63596982925344 0 0 0
3437 1 4.203600837940319 20.39696885696506 93.386283598972 0 0 0
3414 1 6.130347091395707 18.593874357666763 93.50924732024733 0 0 0
3272 1 4.117539287214397 18.524908290856978 91.68874242360643 0 0 0
3295 1 6.497953035351205 20.31886564080564 91.23147214039228 0 0 0
3441 1 8.29218538382638 20.37577409393907 93.80373546633723 0 0 0
3418 1 10.245773947300737 18.09455139704032 93.42585468015905 0 0 0
3276 1 8.271635470297984 18.290619680985145 91.60424425017794 0 0 0
3299 1 10.13117962343839 20.366645508117273 91.43649036351306 0 0 0
3445 1 12.182068711135415 20.480049214333384 93.8388895278119 0 0 0
3280 1 12.056627559818734 18.64526274219329 91.79429860100346 0 0 0
3449 1 16.292901786968976 20.099720038733572 93.64330015420204 0 0 0
3422 1 14.21333800595542 18.46162306209672 93.79986201623409 0 0 0
3284 1 16.292670481310374 18.491481216704678 91.55001613677472 0 0 0
3303 1 14.031561608463008 20.376915388899008 91.62505257269906 0 0 0
3453 1 20.342342811976273 20.43146792494946 93.7471357253635 0 0 0
3426 1 18.36159433334604 18.44556251516279 93.65330386207324 0 0 0
3288 1 20.403007685351362 18.289388253850298 91.5809929293017 0 0 0
3307 1 18.615559982824145 20.52391588312122 91.67685238645527 0 0 0
3268 1 24.244808511315973 18.274896271335123 91.69185977010017 -1 0 0
3430 1 22.64540950647079 18.582683611494986 93.79620308510474 0 0 0
3311 1 22.29987996388187 20.47302343127862 91.69832700478516 0 0 0
3434 1 2.129317278462137 22.67224492618493 93.54488618310093 0 0 0
3438 1 6.3811611660080745 22.223523078898246 93.48755884392995 0 0 0
3296 1 4.179700870240981 22.88114788153576 91.5496395750289 0 0 0
3317 1 3.743213284783757 0.024358838184911996 93.61509693351826 0 0 0
3179 1 9.96411198089695 0.20982713740492187 91.73631191111777 0 0 0
3321 1 8.407744198890008 24.382685853980654 93.72344050883483 0 -1 0
3300 1 8.124344344693343 22.349174953424495 91.35413705197955 0 0 0
3442 1 10.348618056415484 22.43298050649065 93.4775389537884 0 0 0
3325 1 12.330353754985829 24.268066098811744 93.78896183949074 0 -1 0
3304 1 11.996103202799963 22.442212578571578 91.52960148429129 0 0 0
3329 1 16.28721397346164 0.19361444985549198 93.62952570599924 0 0 0
3446 1 14.49053673358296 22.51392541949852 93.59955024288696 0 0 0
3183 1 14.020635504230496 24.37411658696364 91.59556515219359 0 -1 0
3308 1 16.315529488923467 22.42595827265132 91.72072230188701 0 0 0
3187 1 18.407748840797915 24.12940224639417 91.8394008306601 0 -1 0
3450 1 18.49521997228885 22.293746591322787 93.7290177355598 0 0 0
3312 1 20.528792478742382 22.479057341333686 91.37083668527036 0 0 0
3333 1 20.50838770637978 24.269387430242027 93.71000573872429 0 -1 0
3292 1 24.22419478907915 22.722070222454214 91.94161645461821 -1 0 0
3454 1 22.4079938095 22.327750473946672 93.81588814055016 0 0 0
3416 1 4.145169170246087 18.312096750474424 95.63241279148502 0 0 0
3320 1 3.891316424972872 1.8374164470473788 95.58170881177425 0 0 0
3440 1 4.223917311234125 22.61678715874522 95.23218327170379 0 0 0
3324 1 7.869725017996274 1.5300738766147994 95.6916194281472 0 0 0
3435 1 2.1585707479772767 20.18148863800861 95.73054242711453 0 0 0
3328 1 12.403017622500043 1.945976707942381 95.71238822018302 0 0 0
3332 1 16.656545707653784 2.0902682063560905 95.55713628903091 0 0 0
3388 1 24.422410987292245 14.080548758909119 95.60159491698845 -1 0 0
3336 1 20.440629460814172 1.9068667447121457 95.50832082419154 0 0 0
3335 1 22.549544722456183 24.089390887377327 95.6621001687368 0 -1 0
3316 1 0.04267674989171866 1.8319239557949327 95.79038936912303 0 0 0
3339 1 1.8324997069422424 3.9246716250426568 95.24496075319463 0 0 0
3319 1 6.210958349610625 24.242666817506482 95.38722489716275 0 -1 0
3343 1 6.020355518144533 3.8091607750379417 95.55715358666193 0 0 0
3344 1 4.203625685196781 5.926092721076726 95.89921511428327 0 0 0
2714 1 1.8572088075862205 22.126325710370672 73.25318796930252 0 0 0
3431 1 22.360363580660575 16.0693914479793 95.4495052418949 0 0 0
3347 1 10.064048145475038 3.6821088288327495 95.95995824266815 0 0 0
3348 1 7.956379843917157 5.980233975005652 95.98814448392518 0 0 0
3411 1 1.739493821363417 15.959999991219066 95.7872502179347 0 0 0
3408 1 19.86324784069403 14.053700386982278 95.73669426587071 0 0 0
3352 1 12.09145074867252 6.407383782976614 95.74769495106037 0 0 0
3407 1 22.114370262910043 12.085196407255939 95.84734448164357 0 0 0
3351 1 14.69190797931155 4.064331351567632 95.57485613527162 0 0 0
3356 1 16.597998648664564 6.048460350983567 95.68396883900554 0 0 0
3427 1 18.32231852981429 16.187413366133185 95.87909452358623 0 0 0
3355 1 18.2462454381739 3.8275500320233236 95.4921609103236 0 0 0
3360 1 20.419230485773845 5.633138028465096 95.70621270027775 0 0 0
3404 1 16.192908631739584 14.297127468393983 95.70139316889899 0 0 0
3423 1 14.016659887851748 16.394826452579416 95.73027549305992 0 0 0
3340 1 24.406055761538646 5.618241750796101 95.52427762255527 -1 0 0
3359 1 22.42561996598124 3.719013099888259 95.83125808806774 0 0 0
3363 1 1.721737106230041 7.733834148936978 95.94568784781309 0 0 0
3367 1 6.22073284026209 7.930656574281262 95.87733868271418 0 0 0
3368 1 3.950428096408311 9.968259195910925 95.79806898555572 0 0 0
3400 1 12.000141859659818 14.262699884760705 95.81604751189924 0 0 0
3371 1 9.973011664774734 8.039068287949169 95.72704764811783 0 0 0
3419 1 9.925182290885939 16.305647657836673 95.68244215574072 0 0 0
3315 1 1.6730747540053292 24.395626137969778 96.07695858670228 0 -1 0
3376 1 11.94680672518693 10.149307986039535 95.96134615413732 0 0 0
3375 1 14.183510994387666 8.074902376075729 95.5397542622084 0 0 0
3380 1 16.268918992166874 10.101017557201539 95.88867893741943 0 0 0
3412 1 24.490383451969315 18.080435187408945 95.87123592211294 -1 0 0
3379 1 18.505372064866812 7.840456340411171 95.88179587160715 0 0 0
3384 1 20.132010593284384 9.967267466296882 95.53083884595836 0 0 0
3455 1 22.473711338175114 20.414155925952485 95.81354886241878 0 0 0
3364 1 24.177419048613558 10.294669410620303 95.740872905858 -1 0 0
3383 1 22.491294730894694 8.091448630565992 95.58455282502172 0 0 0
3387 1 1.9943405198891284 12.577826595477127 96.04844211857775 0 0 0
3391 1 6.128575358610363 11.831365492242265 96.0067366851883 0 0 0
3424 1 12.309704462778335 18.3077332262269 95.85088926882942 0 0 0
3372 1 7.9691978896867415 9.928471248284316 95.74472492281477 0 0 0
3395 1 10.219681412200067 12.36227255425474 96.15528761739908 0 0 0
3428 1 16.244216133557103 18.460687491908004 95.8117072622084 0 0 0
3451 1 18.43187242419892 20.301435612507923 96.02510790821935 0 0 0
3399 1 14.084152123304872 12.096410137872263 95.72464887406092 0 0 0
3432 1 20.316000052623373 18.29526544393032 95.6617816882088 0 0 0
3403 1 18.00024828592675 11.987370756861688 95.88505734426356 0 0 0
2601 1 7.961276140956608 24.36804141846776 73.51717960197253 0 -1 0
129 1 8.154309079048119 20.0450361350834 97.70569863460139 0 0 -1
142 1 22.732598849554655 22.584528424129488 97.64645026366442 0 0 -1
5 1 4.071913598371096 -0.1105335910230739 97.49428640128626 0 0 -1
121 1 24.390221599583576 20.241991860293226 97.72471443602886 -1 0 -1
13 1 12.288622593515475 -0.11537199909874118 97.69859870032104 0 0 -1
46 1 22.47389407264278 6.100921901243298 97.74894148440104 0 0 -1
101 1 3.9577538791162006 16.4161473870346 97.64977994148974 0 0 -1
134 1 14.412691913053672 22.575752857154804 97.6794444616801 0 0 -1
18 1 18.24245949569646 2.0941493718216204 97.6726002810101 0 0 -1
49 1 -0.0763595872454782 7.9831274502748055 97.56871327531057 0 0 -1
98 1 1.8496847639019967 18.243776905005973 97.72443396935283 0 0 -1
77 1 3.8833481885671057 11.998047537853699 97.68203971259672 0 0 -1
25 1 -0.18230844450414474 3.7665798543610713 97.6280575937017 0 0 -1
17 1 16.517538374998708 24.449347262825228 97.57827703019049 0 -1 -1
6 1 6.090179468629725 1.5736105350845702 97.71798136138574 0 0 -1
9 1 7.9560999648367545 24.144862340539817 97.70127907494728 0 -1 -1
65 1 16.258262105988145 8.081394643167632 97.61268650827525 0 0 -1
50 1 1.8733962459831064 9.909765702983478 97.72269443006611 0 0 -1
2 1 1.969043493402732 1.6888806959651341 97.75438764121712 0 0 -1
41 1 16.432328162850126 4.248744794143329 97.75513669823329 0 0 -1
26 1 1.8953684342449901 5.600277600008968 97.73447714004907 0 0 -1
69 1 20.633390627542127 8.03702821187347 97.75103980964272 0 0 -1
118 1 22.18222397911517 18.358587606612993 97.73649639878282 0 0 -1
86 1 14.171156583781784 14.39374480325731 97.65806471264852 0 0 -1
82 1 9.941393968807345 14.49838253652903 97.81029757483503 0 0 -1
113 1 16.15332325551268 16.477253965076578 97.63491512438485 0 0 -1
105 1 7.910670417842265 16.255552343773957 97.6239982503632 0 0 -1
106 1 10.161277689449742 17.99573635509919 97.81176813959932 0 0 -1
33 1 8.211350481017194 3.6929269351003233 97.77792777797973 0 0 -1
109 1 12.166715435315558 16.311046967116418 97.80525390158115 0 0 -1
37 1 12.54816535418887 3.990479757448573 97.61476386924468 0 0 -1
125 1 4.324229855338224 20.20062304964174 97.52793828477269 0 0 -1
58 1 9.677804709600077 9.888603026797426 97.82325003518804 0 0 -1
57 1 8.116930897767196 7.987114787387407 97.7887008768531 0 0 -1
14 1 14.587613479787672 1.6163731266061545 97.42131290771286 0 0 -1
138 1 18.656104409242786 22.482865696651345 97.6353850878176 0 0 -1
53 1 3.9689597650844766 7.921256069701084 97.73240902997554 0 0 -1
45 1 20.615450865418467 4.027258353477987 97.75742098607562 0 0 -1
38 1 14.225308386583977 6.221239492190529 97.65300607244721 0 0 -1
93 1 20.139415925075674 12.152389049328045 97.81823155451893 0 0 -1
70 1 22.17960258086019 10.263412932898468 97.5880947796431 0 0 -1
29 1 3.8886596307832466 3.611348498695679 97.65381724769301 0 0 -1
133 1 12.244883002955845 20.52527548486485 97.65768946044477 0 0 -1
22 1 22.469508694010372 1.785694363740743 97.8235560845823 0 0 -1
90 1 18.007912928385593 14.01187831783806 97.69063520571893 0 0 -1
81 1 8.198472153062268 12.032853922162719 97.7487786677189 0 0 -1
89 1 15.821718743078785 12.20839973521463 97.8042505179363 0 0 -1
130 1 10.234999381679774 22.472349369596742 97.67392056792005 0 0 -1
2602 1 10.298255539848041 1.6450692895533041 73.38297997249191 0 0 0
2702 1 14.019594514812399 18.2878923295413 73.35666243003887 0 0 0
2653 1 12.302010637386337 7.631132937322077 73.26379176977989 0 0 0
2662 1 22.373409313712564 9.9783201872077 73.31553031905726 0 0 0
2634 1 18.27571734285798 5.613153907107756 73.29540637109676 0 0 0
2729 1 16.410408043080267 20.501386419733045 73.303643619678 0 0 0
2630 1 14.150567003562974 5.7813062795703845 73.36249925685472 0 0 0
2686 1 22.528837125408792 14.062512697140653 73.38601457036121 0 0 0
2725 1 12.173031620766963 20.22375820463001 73.3356926834553 0 0 0
2701 1 11.877372569990346 16.025421436019215 73.24388790523714 0 0 0
2690 1 1.6841205058100523 18.29487288656724 73.23632087191805 0 0 0
2618 1 1.9414418826765023 5.925650670686023 73.22194449317666 0 0 0
2694 1 5.792448762859068 18.40858786918048 73.45183134088589 0 0 0
2670 1 5.892407609145252 14.312249522660219 73.45372778809437 0 0 0

Velocities

4 -3.4762068743197 3.2768624009189797 -0.23489062951937867
8 -1.1085801339024755 6.898453404176536 -3.8509859202997725
7 -8.51128048189736 -5.869697601857722 7.557313387243945
12 -0.44954223973516105 1.9704725776290548 3.2900028790056077
16 1.7119755091935702 3.4723453588664808 9.478221122109566
20 3.2876076777745387 2.343487226910038 -8.96986804173067
15 0.6772440116306245 3.240265322346809 -8.346530704930146
24 8.613536778627049 -3.7849797847610467 3.5392819315590236
117 -2.5819462768920727 0.97224391901944 -4.174857089379112
94 -1.8671040517494468 -2.266902605683744 -7.749326203713078
23 -4.781419466737894 1.8102406727503997 -1.348031254986147
78 -7.900141837733846 7.113583307799224 -3.0598894321876995
27 -6.91655519905593 -4.761120820616207 4.519962856996442
28 4.1860013867087655 4.208994618548825 2.6025475568902756
31 -4.8478278076016466 1.9350889514915568 -2.1533752386780747
32 -3.9744756693602032 -1.0504935819629244 -4.9006371059971086
36 -3.515292131806912 2.587423501837202 -2.0943821327449323
35 1.7061332838550258 10.346960177281227 -2.043833892265794
40 -6.3040278060108585 -1.7928278466310728 -5.168869644674304
39 1.4369930374897297 -2.6585204454624503 -0.8930852520803223
44 -1.5420493142033636 10.373680971474485 -5.978754379742576
110 -3.7564817390667025 3.270265059980107 0.3737988981852262
43 13.01080038346324 -1.204178582457557 0.09210576740835492
48 -1.8760230419516835 -8.2664243729392 -9.054234221109118
743 -5.835044890217849 -4.277483591240666 -9.230200041239296
47 -4.531485197780277 -11.400812783506359 0.40666556587975655
102 -1.4180937103135358 9.314620985922028 -1.9106558267496494
66 -12.262111837383411 2.2899083372460907 -7.05380732466047
51 -2.7798943856336438 -4.220721216307736 2.46322963109818
52 5.943981207664472 -3.797831592389399 -3.212515633137428
42 7.4074140186680735 -5.585302785077827 -6.590506175341417
55 -12.71322906556401 0.9610444775568018 7.591515380217761
56 4.151800803491109 -8.196750229923024 -4.11952267128396
844 14.784608056240002 4.460718828972266 2.7642023423297797
60 1.4535097606028333 5.133621138820893 4.110990278135453
59 6.649805684323037 14.447719510663907 -4.502840994464946
64 -7.2048414657763535 -0.4594607904840517 -9.709079479147311
739 -7.29783293128738 2.8189013804622696 -5.655998885333991
63 0.1534122090157773 6.565459658084849 4.724005883383459
68 5.328256511146562 2.4825054124611126 -1.9619558605900844
10 -4.313344039548259 -1.030139425847715 -3.061670935074142
67 -4.533076983829374 -4.590905221584646 -4.806198029504536
72 6.934920108267426 -8.978736287779272 -5.307385589447437
30 1.7927500062137718 4.355562683329167 -4.576872063924238
71 4.739684362143926 5.428163929141882 -3.6607415500081584
1 -5.317580663930729 2.6196725929998874 -7.131288916242474
74 0.10737277015381483 -0.45608569438311125 -0.9799484911917128
75 3.5919780133913726 -0.8484257364780847 -0.34488525003469095
79 -1.0875254798929335 2.915519690113322 6.344620117473571
83 -4.138024807471163 -0.842553062190735 7.902192358791156
87 -9.1801553590478 -2.8582424347103976 8.944603536337466
864 13.223221409513698 7.946845158934459 0.9086611981008009
91 -2.533682669343195 -9.73158048182208 -0.3684987883095769
95 2.0345934271121155 2.406044615194054 -0.9529339291341201
99 -5.082902924265358 -8.750331154395207 -4.386176708789756
76 -3.4742257007212847 -4.245819038338902 -1.334240820717416
860 -5.323043554225162 -0.980319013118743 -9.016887082453504
80 -3.9695728081029857 10.056813302590882 7.051401121914232
103 4.501224403485821 6.921552075827833 -2.151502765164373
84 6.839570736395762 3.656765495021848 -2.9572218718345566
107 -0.6452720087211238 -0.9930501094215992 -0.9854610949857042
62 -10.167841796461262 0.1914748895692078 -9.4795115715405
735 5.882973195791679 -4.051127577712858 -1.3993874781225701
88 5.639633361747229 5.165367091321925 0.18599443888368633
969 -9.793439339116853 4.969169663656867 2.2681099317620688
937 -1.5463610555927927 4.203187287671603 9.812596588049674
92 -5.585239833931916 3.3364702828765367 -3.9813947067734565
111 4.673966553127472 -5.765083961390051 6.9182844467132965
922 -5.629362237656903 -0.46979028401806683 -0.29838803419415344
921 1.4925570587575483 -9.529977727339237 -2.8992079261458095
96 1.2136048937791115 -0.8554324982098888 3.0280563003583048
115 -2.8301007136577363 1.2456034254693469 -3.784649007483239
856 1.8590286423165627 6.407471741209495 -5.144771782414363
731 -1.7215658278844994 -3.144153421068306 -7.791607487481974
119 -8.681659854162234 1.4185755143980836 1.3405630727360414
123 -11.878867358833668 -10.479709390756582 1.3313023622450884
100 -7.647752434841067 -4.5009534566555125 4.562702341784771
104 8.606395225612685 7.072913112259901 -6.0958339247422515
127 -1.2991620526123515 10.440145640334078 -1.8771611334219676
852 -2.112329025026992 -8.602322493233295 3.6204083354252674
108 -0.5028443751870793 -6.686375926978626 10.265911665274746
131 1.1915457427364973 -2.4596420516034048 1.1637449209377067
112 -3.6578321022688316 1.1943250116524222 0.4462714314464495
994 5.97472968527779 1.6631279463302822 -1.2776703143796682
827 -1.4264387936460543 -1.041592823621679 -3.9364827071109287
135 -1.5381911234805463 -6.802196131574683 5.134194486671574
116 -5.266126944781584 -5.571571547733021 5.444684796458909
823 -7.813610865944748 -10.512138427231351 -7.974916254803069
120 6.403433304119208 3.3241837945103656 7.32100467817763
139 -3.138407343842421 3.7787797577738433 -6.461388892222286
934 -0.23553005577611694 -3.131166088040389 9.634556715967221
143 0.017863923796015858 0.7390844151687392 -0.10538608335021672
3 -2.716999063300897 7.826072092659511 -14.99734299490814
124 8.438117754267177 -2.9389678532129992 3.3205083673652678
128 -3.4106813583311886 -3.1426070041655807 0.7725369562816685
796 3.393767158722919 -4.109420572696434 -0.5252744997267719
11 1.4630074648588491 -6.059438545790406 -0.3367689726365456
132 11.067571312872664 1.395151054161898 -0.08175127282702292
727 4.235215843590434 -8.137263867694056 -0.6254642736553944
136 -4.500214269284374 1.4875368767367214 3.992019627237714
848 -1.9302193859590064 7.782022764503771 -7.105559434795563
819 0.7347631449405142 6.573351030909356 -5.813218710982878
140 2.871826814581695 1.9562725456706032 8.940648882970715
723 1.9675635191091985 -4.487043773632189 4.473592419205815
19 -6.826623273401007 8.457546641343077 2.20357472971904
144 5.256185904918487 -3.0490353225259823 1.118782427633273
146 -2.320162421548333 3.323089568554501 -19.283486247334967
148 1.014818037393739 0.6299321493112691 -11.816526092687324
150 -1.2947446622574115 -4.509197335931892 -7.7135310542230675
152 -6.518214388733817 2.473155891384999 4.210670696482809
151 -0.7713002740243792 3.299500299555907 2.4334489594496165
154 1.318864840733625 5.159977617742191 -4.849838799889627
156 -8.644479714610611 -3.4525051726856417 -1.5075123165823814
155 1.3496535481275866 6.443533588982194 0.4946167126284759
160 1.7570370589013664 -1.176925527547458 3.9022987982644675
157 -5.122192020524467 -5.169778455094601 -8.372200601674898
158 4.068563607874752 -4.716147843415558 1.4042324177512757
161 -3.207162417834487 4.967794888054585 3.324778935353685
164 -7.7009175850890585 -4.037375662821583 2.012519055164082
162 -0.024399575122558765 -4.047438027588223 2.8529674423252644
168 4.959576746063624 -13.49102968340298 1.181856933525793
163 3.83992682499637 -1.4778209833022364 -1.1953096341271037
166 -1.8153675000274387 3.021618981375022 -5.028719070187771
145 -3.6220602572075613 -17.150225927823477 2.6929450638721795
170 -3.727148397528893 4.3598955382240705 3.451160399947884
171 0.5323330617291661 1.9162982021635753 1.834869540413072
169 13.136910084473632 -2.8655076408460878 5.632907084889948
172 -2.1014122966675073 -11.208028155325481 2.6914081236702727
173 4.5320426634871005 -0.14127733884002183 4.104196468691332
174 -3.8048409870075433 -5.285457808591765 -11.488702352581305
175 10.716643654683075 3.1498651369097277 0.640140021876701
176 8.163513659736331 -2.2866997915027336 10.074574447948635
177 3.7331337900802457 4.913409507567575 16.88261153256328
178 -8.535512874684132 0.5909668146127981 -2.629246170650336
179 1.1092307926003369 2.902062895193548 3.756270234354312
180 -2.3976162165893835 3.145579532590653 14.936546769456939
181 6.33802087893207 -3.221152109377517 4.336497443044333
184 4.767747184364645 -6.385262725084837 -5.02258444437093
182 6.30731186576442 0.36931878143041197 0.5540016303432898
183 -1.9909115398800619 0.830529417643589 3.532165230540958
185 10.48023615276662 -0.022554283910701085 10.41491964316624
188 0.6221691049097176 1.9588299215671043 -1.6444452960465055
186 -6.677579059044957 5.522721206199344 -8.638459425087966
187 3.828235716997775 -1.2346281928082268 1.1520594383229783
192 -5.0627849665017735 1.7376407660299054 1.6778896407210415
189 -2.0834517084164044 -0.04908532796015416 -2.5819158252696717
190 0.7451666038224173 -0.18895847525907505 -1.4267788659128706
191 -2.3598481421600743 4.934073590037003 8.371925728063049
194 -7.784520657754401 2.9326148708355633 -0.5120710153298315
195 1.7118175367780988 -1.178910300955509 9.682437002580226
193 -4.750494044494095 -1.7027423289184316 2.5542126153700444
196 -2.3555027429103195 7.7946906231804824 -8.284379215279593
197 10.411375998330548 1.757593093158874 6.055980258671463
199 9.845933701362393 -1.0399891230688592 1.1314873213659302
200 1.8453308649328146 -0.6544687428886381 -3.0673782863795176
198 0.650499161487468 -5.923787421215816 -7.3765377674667505
201 -1.4047601949482074 -4.177259237889254 4.27241712160292
202 -7.574028078009288 2.240859493860874 2.3083810953166544
203 -9.141102366672714 3.681257209566618 -4.3257503130295065
204 -2.069312891943557 6.770768991983782 -4.784446956990093
205 6.085657853236211 6.263524807018649 5.964276812567209
208 1.8142075578124053 -4.214278750581322 -4.321097050121908
206 -4.628583989654729 7.258509206823657 5.734262839468806
207 0.837496569257167 -8.28839168922769 -3.0447922523997497
209 -16.485466036015517 9.81954775519225 -6.128248836277887
212 3.9951499714585514 6.928143524426363 -12.128700330791162
210 -0.1626613461066154 -4.564295532245515 3.2137341819084413
211 -2.84916284175716 3.9803251809810885 -1.4370819902738425
213 -0.7085016806097184 -8.222644438840407 6.6005702099268175
216 0.9442920526602496 -1.4797208722894895 7.641798313477194
214 7.357656700302114 -1.01607687647772 4.650224108801043
215 -4.559176375353746 4.140241181261932 6.507931708258267
219 3.4694585605450827 -5.36709211986526 1.6000480689856003
217 -1.409070024037083 -5.31760555064249 -0.40136604215926897
221 -9.972667681587058 12.232963353298695 3.0226496807364134
223 -2.85021332307344 -0.6022144987217519 -4.150306110206199
225 -4.106380319970071 -5.551731210649852 4.398413940163647
227 -1.929182479061317 1.8671978422114965 -1.948488700508867
229 0.1402117801465242 -5.099658511521686 1.753296116583383
231 -5.968538198389401 -0.7973553510727126 4.423245808316815
233 6.659792714451143 -5.705531838040219 0.95223653428827
235 -2.62350985354042 -5.490598774737932 -1.0901912290420084
237 -1.0819219950711043 -10.817727946297847 -5.643166449571374
239 3.034928236225244 0.1349540943542434 1.3058469202901888
218 -1.425889235879602 2.680874680506749 3.9078154754747625
220 -10.223881309698005 0.973784003335026 -7.868752955792551
243 0.5133697205282779 -5.241487198048098 -4.47858790880921
241 5.258391800106362 8.571324502057344 2.813898277588246
222 7.8345781543326884 4.30401096582966 8.581129658451946
224 -2.2346750830099507 -1.5116403823236448 0.9207916402764151
245 -3.4735794084324563 2.9620035331445798 -2.12797560089811
247 2.128856704998924 -4.465994661165827 7.5907702749569514
226 -12.037363962119496 3.8831381113270056 -0.5817775204693083
228 -8.015923154880689 -0.4080096762762116 -5.529140725848541
249 1.381510268706782 3.655953081823302 -9.336532451250855
251 7.373606656684212 -0.18307683061520869 -7.7641463081326005
232 5.128984423319185 -4.110133007431708 14.92995932343682
253 1.7436755053406847 12.056421839362166 1.392664348354229
230 -4.445233141234063 8.06919881029602 1.1058755910218017
236 -0.9273094271512915 -0.6849498543544322 -1.1507938193767433
255 -9.153461615262723 0.935446356649443 -3.108985549583056
257 0.10268376456574284 1.3931203314257794 -9.669353971637452
240 1.0733131567427783 -7.070570462324129 -0.09233067456482712
234 -0.28594188457591646 3.7193939211067906 3.713811118059997
259 2.544862091155549 -5.852320250253812 -3.7368069530206593
261 5.28570457404247 2.941559565448268 -3.923263715167416
238 1.1936600150787338 1.6619088682284742 1.1314147126859295
263 -9.584498030841601 5.1226326124528985 -7.197433687064012
242 -1.9481796217332026 12.986939292507476 4.655551455370324
267 1.8101836215946396 -6.300428042870995 -2.1172261507633485
265 -4.922999336814845 5.638209702752584 -0.5153679028911601
244 0.6258967743644569 -1.8684178945053174 -7.851471355465124
246 2.887066236011546 -8.373391430855804 1.1065438459114398
248 0.0664872222909905 1.8957190802296968 -3.9587429578666606
269 -4.621266594960709 1.502701787396597 9.36439314902941
271 4.852079534310906 0.640153889161745 3.077073604094455
250 10.547208130784709 -0.6433266052448381 -9.688891456384946
252 2.178740155713355 4.501334948915732 0.9384209346099617
273 -4.1301336955399055 0.49151220362064946 -3.729067411694364
275 -4.08010803573726 -2.9170006368497523 0.4252485680071837
256 -6.853252002387308 -1.373830215149288 8.91424588840326
277 12.407516109162108 -5.029563291746274 -1.3593703057849018
279 1.5446385794899897 4.3985473519849725 2.399851448192118
254 5.481731075879237 -0.02924719850086883 -0.28008465817680395
260 1.42055465028406 -4.369530609430345 -7.922978925608501
281 4.1593571485107805 -7.270577459377862 -3.0473105798796403
258 7.339991467230165 0.6552818583172478 -8.349160922031139
264 0.784917639037103 4.581074535071587 4.623718988088851
283 -1.6716003240196093 3.318945697348755 -2.0592700991970414
285 4.209842108633064 -1.979353600461951 -2.9240400899848247
262 -2.5920737820374384 -1.8624477339050203 5.948458345173577
287 -1.1839500738024988 3.763461342462845 0.5673447634067992
147 1.3155060088774762 2.0942079466799464 1.0389839875081084
266 -6.493851327428822 11.758734870135054 0.7017226217433096
268 -5.426322059899046 0.6019918017567565 0.4595758428300776
149 -1.9420570482243182 -2.925312049572555 -6.024182795467551
270 -10.690148296223361 0.909983071009196 -0.8195568707853251
272 -1.1618466331023876 11.877564420498473 -2.4567106823698626
153 -2.032172395338297 -2.2193885104686983 -7.661089456027801
274 0.29601350632491497 0.21294974729877295 4.455649470624134
276 9.881267507724983 -3.5327607630851277 -1.6869870440100252
280 -13.158737258890302 2.8989588326768967 -7.7299757043081225
159 0.7764634874661762 -0.20879181508095876 2.673539734653472
278 3.27771601973699 4.6615527371759375 7.5983953911494915
284 2.8178350892135637 -8.12247732992274 2.369238893596549
165 -3.905641657774823 0.7860903608581402 1.8838099049946255
282 -1.2468831562001337 -3.861711461002258 -3.7916693463055697
288 -0.439445000191039 0.8544355749971385 0.6673539080732684
167 -0.5640937281652653 -4.2840743629445495 -6.003046472063424
286 11.773974016400048 4.20524444610382 4.969798927896511
290 -3.3747341862526414 5.943924842343806 5.747171132738787
292 -1.3472042680638086 -3.892479759979005 1.6503425591769678
291 5.994456634090753 -10.771355181402187 -3.8225655077467704
294 -0.09947843974061893 -3.6313562146144 0.35884535281630825
296 -7.2650939566833115 -4.994350375311411 -0.18253749853743342
295 -0.9116323150015522 7.288347065807232 4.593748285065903
298 2.299790342322478 -4.218906801687863 -5.136887441928125
300 2.1435676260449266 -5.653560598523949 6.682266376114198
299 -1.3565529512296626 -3.493476525700972 -5.81489935199619
297 -5.384135608842894 1.840328503390453 1.770507970418484
302 -0.4307459529734861 -2.063992585987454 3.7108918001066042
308 8.036357740076875 2.1366250840932297 -1.434194097696542
305 4.631493720692308 1.4471109799338027 -1.5680960531028727
306 -6.635942417473625 4.517303212602876 -9.037765455361601
312 -1.2572512661794564 -3.0922766862995124 -5.006853006203816
307 -10.709523937708717 -2.938449440754958 4.003707859587258
310 5.46638204724003 4.490748048064079 1.1123402464252246
314 -3.3978517257093275 -0.8683871187978096 -4.5254464857770245
315 5.017893843694404 7.652256660037255 3.000898845808176
313 -6.53510137410053 -1.560391450080526 -6.419660377751897
317 -9.046259259476749 5.51777509538313 0.632932938243721
318 -3.773877794173768 -3.5977444343983236 -5.119572005840232
320 -1.7769372879716 1.014844484907625 -1.55578489663912
321 -0.3503810181170141 -2.953952315741427 6.041768221776736
322 -7.235201250538166 -4.008456171099853 -0.24660784256849172
323 -6.926207400735599 1.430012570467539 -7.916539969847392
324 10.420124180034593 4.039343115365468 3.0858585611507627
325 3.581822082001935 8.573481034019624 -4.526901655763126
328 -9.798990361555235 -0.5427892290987956 -0.3497767346585643
326 2.9613563631491115 -1.9382870444342963 -1.4347074612112938
327 6.954568158979644 0.34761728780471296 3.380711070622448
329 -1.0548080681795498 1.2707204999630102 2.4593016303648434
332 0.8272803855106805 -1.0237860071424782 -5.261591767820112
330 -10.69730568355593 10.136337962903532 -1.108706705428311
331 4.162049279003569 3.0581089262266747 -2.3810871626339276
333 7.583328228830306 3.678271780375378 -8.928776016621883
336 8.412324237726253 -10.012010138054858 -2.4740271811588204
316 3.889108475774509 -7.9827347040626995 1.087572965498977
334 -2.500603284213746 -7.076931300349044 -4.330311569678905
335 1.7216388557385551 7.946902664472883 5.88422979172819
338 -1.0122679831036117 2.818528967700553 1.5311474830929968
337 -8.42606188081759 3.726962558870578 3.2688870545633932
339 3.8006083161310698 2.741861101918384 0.6230822438552552
341 0.7272594631530453 -1.090920882121024 3.0589490119233447
342 -1.5075280448069157 -6.893084261180502 -3.0486405129869536
343 -0.7570578031049754 8.164767701675343 -1.5717905091826914
344 -7.577552405748914 -3.755899111280223 -4.863188772999329
345 -4.785791776813266 -9.57435691135045 0.5021703370553144
347 -0.3625526052941571 -4.924081361252152 0.3791044927084649
348 3.7962242556466466 -0.7802200771520302 -0.7729690529473368
346 1.3425178310408592 1.7232923424877848 -0.432184310621245
349 -14.132363394509824 5.996623705372325 1.4661626796025655
352 5.090967432622023 5.898019265936457 4.832146543789926
350 -1.2873810338217344 2.6541923020931755 2.1228865309472185
351 4.0775324630718845 3.4581634356599054 -2.50527197866827
353 5.465138034945393 -0.8789052727800505 -4.072227158818385
356 -2.1366160450477394 0.8403294007083403 13.571232822565374
355 -3.2240669931318253 -2.0308890844108687 -1.6456276023041854
357 -10.655436689633824 3.1467368786588517 3.633178740840943
360 -3.2345221963866786 3.7697810043689826 0.5838039538222461
354 1.1978752000762416 -5.450044602502527 4.678294736321661
340 -3.6621987638701947 -0.31904329777349294 -3.771280215774853
359 6.469807810901936 -7.404457120251465 -7.711173912507145
358 -0.4373996438263414 -0.633899452550321 -8.498878754319485
361 1.7604362893339185 -1.4384256166557339 -2.1057461375484716
363 2.0312792745986292 4.930772311721031 -2.2057472324130836
365 7.642996970858521 -0.5662812440871204 -1.2029010617402423
367 -5.022552091704257 0.2702521998518054 1.8898017028897092
369 4.079895229864964 -11.320004887529208 1.0304651904551299
371 0.8752223761430216 3.2672107253499645 1.214442116302898
373 -0.810376389912047 2.044337617165649 -0.32031701115842576
377 4.509008913227016 1.5779848799601195 -6.372396882407932
375 0.7374152351835542 -13.791513805621923 3.318991253598184
379 -3.4733562233775954 -6.231309842854665 6.44755450231127
381 -0.3202073645687474 -1.1642441668618233 5.105961045602259
383 -0.18892145830876186 -5.55919903511166 -6.588986624586076
362 -8.07740477371066 -12.992620300460102 2.6583114326953496
387 -5.130400835136315 6.313553531008533 -2.823513791356803
385 8.320875639385001 0.5742903072742706 -5.012453505288352
364 -9.82618704701767 -5.642632849693157 -4.4355313625597
366 3.568109824659191 -1.40528417675099 -0.3675661805459172
368 7.567873340717556 3.235539869620008 -4.5489726393788255
389 -5.454777008151528 -1.8474893754333823 0.6485037866603918
391 -7.060482095229922 2.252113638456057 -7.519659030343324
370 4.73993583266418 1.6436539422695822 -6.5156392551365645
372 -3.8659788823120707 -3.3111237369003717 -8.512776458963517
393 -2.182952012596198 -0.8354300269371019 -3.0868400104071663
395 -12.941101352945159 10.05943312575239 -2.3358307917549466
397 -0.4078940006215966 3.5217711504435845 1.966595716890402
376 -6.003653854411554 -2.198117415101352 -2.4503236328084546
374 3.978181161642344 -2.5502113612516726 -1.5486933857916039
399 10.008634971530949 -0.3062249842447451 -5.352432208173639
401 -8.745317371900116 10.815207716228356 6.223210360817464
380 11.301061617273694 -3.58911048138858 2.018779051309967
378 1.3985357051559009 1.1946748259253848 -2.83121004519424
384 6.621203270451109 -2.38220744658551 -8.508540737206106
405 0.8595904480542049 -1.457051563623888 8.555509834221006
403 -7.871966220230864 12.80852763789217 4.7001899729384355
382 -5.823083238854448 -1.0879326247556753 2.853954272713689
407 -8.108837288929125 -0.8552322230706338 -1.2488146246726481
386 6.133922049390756 4.483678460537585 4.273972313766396
411 1.570269368883831 9.296936742387388 7.4186158345866415
390 2.460257896304447 2.862797484514784 2.8535238069873774
392 6.243276609272279 -4.312607266522817 -1.2691439289011885
413 4.18351684027378 5.091094728527508 -1.5174134657936715
415 3.184530686228193 -1.0869635244030118 10.086322923156574
394 -5.418013036830636 2.5902394670056927 -6.412843877199064
396 0.01014084006519983 4.3499369026108115 -3.062322344121472
417 0.07044153617455143 -3.4655099440085713 0.14405545664647923
421 7.928743512495456 1.8297095324976822 5.364768697346073
398 11.19097067302009 3.9748709962517297 -4.481616104082116
423 -11.240445099614229 7.4767415271644895 -0.7060301207495066
425 -3.623251234463429 -1.012329847653506 -2.675080351940591
404 -0.8521038752282372 2.8782674461091364 9.625123917664089
402 -5.544739025891233 -0.7860556089640001 -1.889340762124404
408 5.570139681189436 4.998082851129578 -0.6622941277660295
427 -1.9661313944341525 5.868664705754319 4.912784539661785
429 5.540581931715006 -7.658135717053813 2.4697632805402243
388 -6.585692159951562 4.283641162389348 -0.055911891465871874
409 -5.051296448095184 6.57124920757781 -0.3326452143215902
406 -3.646767509390892 13.689603799682644 -4.916764132355002
431 -0.884911448553188 -2.306651480540834 3.067214306362226
410 -2.0422752857679027 -0.6705459280770973 0.2796089624270959
412 -9.097767695587779 1.879292082920447 0.9980294989731254
293 -1.2342693383428713 16.169969642229578 11.724811614129933
414 -4.453395769693722 -2.3507859775814963 3.53250921539248
416 -8.812803420494077 -9.389413192762374 -0.029623984960631764
420 1.8940632289077484 -4.373687180012084 0.3889712084298385
418 12.67764043637508 -7.196485901862309 0.7737655442807948
301 -4.602531622821677 14.219103073709054 9.244216295484033
422 -0.2773612763266429 -4.452385302266777 7.430393355673176
424 3.069008084990353 7.536951704293592 1.4326065176316825
428 -0.30552157920778755 -0.9559522644500245 5.097692422398201
303 4.4277695111349935 3.742923845293907 7.675163202910349
309 -0.1686545458510034 3.500818632340386 5.742610059231463
426 5.746908584976929 -3.4253369486209797 -2.1599292578997877
432 3.025260843518911 8.391864335382046 -3.6980347234501134
289 1.8459710489562025 9.042179198273901 -1.3589239393372126
430 -0.691711622161294 2.864917103005639 -4.674465594859658
311 9.133898210863693 6.483722077805596 1.8273824231547906
434 -5.101683000051174 -1.686804536645639 2.768268116752478
438 8.836421810265936 -3.974801779978829 10.219260441676692
442 -2.822855573172207 3.4568013445948873 -0.7438649784860233
304 -2.988507159045544 4.561227528494743 5.870556841818555
446 -11.473925475654383 -4.794514380934423 4.896696568114336
449 7.696098669679485 0.6439172658626358 7.694985294775801
450 -0.9139674839477279 5.127534248343992 -0.38567237029668255
454 5.322854677416132 1.5388634423920182 -8.460983306477276
458 6.525068584663331 6.5487165948398065 -5.912568180259015
319 -0.6974113701367001 -2.089693771616112 -5.775564582568365
461 2.732535542580245 -3.777279718083354 -2.291207764789687
462 -6.477987907990457 -0.8757250275823055 5.0224787201106595
465 0.8821322925444888 0.4181667859014439 1.7840877265336088
466 3.400938300225743 -4.520402800832582 6.374425051658398
469 -13.797077830006533 -3.5399410128625957 1.2841718329464091
470 -6.3316968658274115 -3.111536314489321 -2.8948665736565826
473 0.1422242079740414 7.672265951454621 1.7292717848786925
474 -3.8552356704841997 -8.71793823127692 1.6483352453847002
477 0.9572436955226734 3.016122533720028 4.283297267191261
457 -8.651784053743821 0.9522187923816187 -7.021186991189323
478 -0.8007090635439854 8.495136264063209 -9.293486626194419
460 4.647637557511072 -1.1360194314038097 2.5545918484252383
481 3.0852095381135403 -2.5348514763981815 0.536241213347785
485 -7.209183367810316 -6.857295095232966 -4.28778994086535
486 3.004001180087205 -3.6912296449715023 -0.9236448564019629
488 -3.846692769916815 4.817348870846008 -3.422696344384244
489 0.7433070819610589 -0.09562154475334296 -0.3096008350618199
490 5.901211219010615 4.047399858189389 -2.1579978908158135
493 1.0090537814994687 -11.461852671822927 0.28683139666480956
494 6.404099878015526 -1.4642633300803312 -11.44355163221861
497 5.706101999025761 -5.135056727662046 0.19082822566707747
498 -6.403243513537266 0.8735057209077937 -7.0596246933296
501 0.2639038792241926 10.66151660581408 7.180839123158276
502 -10.295911563798056 -5.946814315388623 -10.711798429590365
482 6.207077219057127 -0.9102956334716892 -2.0764600517538305
505 -3.9100227989642695 7.596696671942875 6.6859152646245255
509 -10.877388119384515 4.249453051451256 -1.7189859877510838
513 1.2674783485090768 -6.669338890874214 -0.9495529043094109
517 -0.8767086523186376 -3.513764575652661 1.7098320002788117
521 -9.386358660165174 -0.3396619777583305 -1.2409857199172993
525 -2.4207837148134526 12.988724262354415 2.639695114356321
506 -9.73206351527405 -6.842546722889856 9.311795716760349
510 -3.9954670655366806 7.715658911557929 0.14598808649940104
533 -4.685258117468075 -9.411866546208136 1.1792727690183198
514 2.708100145053168 6.615834729623717 -2.1176765288589516
537 -3.986829263303836 -5.272432695973473 5.201937801393906
541 -10.159597919729674 5.471554627349822 -4.1235582505474575
518 0.6533872911397762 0.4013689213928393 4.332688170050375
545 -2.4861785750791836 11.84700423948198 -1.9373413191642648
522 11.76656393948507 -10.145864860003844 1.9110130009097246
549 0.02869557812468834 5.587115611571048 -5.174584732716153
526 6.112023209949078 -3.414510532832722 8.120930651656497
529 -2.7329227674889633 -4.1668500075009485 -6.184125594702312
508 5.864311588662246 -2.630382801255324 0.9082413232216774
530 -6.359366862513309 -0.2510192750700001 10.82849143888716
534 -1.2544402813962903 2.2030485660029986 -9.523636453764901
557 3.4775843365638712 0.8666789123979054 6.88148732278448
536 0.6821374382671246 -7.28306792363875 -0.489395549153796
419 4.937829552975503 1.2469264369775188 5.724386191854269
538 1.472417846386878 0.16609929266967083 -5.038983131234112
561 -2.1263717445633934 -4.55799475376873 4.963311289138949
400 9.207043589806911 -10.58598395343736 -4.061387239583941
565 -1.6331442476785927 -9.637155778577764 -2.42609611745344
542 3.822868163006701 -1.9504618748269875 -7.921225858884002
569 4.95484965367637 -3.3556932800614856 -0.21691878240708953
546 0.5392663131807622 -6.439609642620551 -0.05175984300823044
573 -15.752707365835883 -9.485334927831248 -6.780169812783047
571 5.606063134221 1.1539005245375382 0.26326888714267366
550 2.878458648397324 -0.9271718394708467 1.5199723431941217
553 4.846882514173291 2.155321891121082 4.538510489377013
554 9.230645827220188 4.585752684353977 -1.7103503475225257
437 0.8993282776658196 1.4534820240034123 -4.6683716148990815
558 -1.5012692774914091 0.28762990202019434 -0.5655122132994863
439 5.186752822775427 2.233917095316124 11.13257681109593
441 12.979235912407965 -11.378748297649354 -0.4016494378657486
562 10.464042302907739 6.061476850292523 -0.1166082770478717
445 7.42100822622118 0.8854193866143242 -10.323717012273896
566 8.678186702467018 -7.2768937269535146 2.2229495507051076
453 0.6525092300336658 -9.007682925570368 -1.7004636549871142
570 -1.4882151295699104 1.4945509819121796 -4.05438345185602
433 -2.895712433775432 -2.8626426442146804 5.97579639968813
574 3.448998809156108 -10.44379206115808 -1.2018736531613008
578 -1.2234651432681654 3.12163913040531 -2.4243069553490515
440 -7.350285196319269 -4.1238671286190325 -1.5477773823154468
582 -0.9329695071071159 7.405075143047361 -0.8377546074168628
463 1.896525863835771 5.809890591650942 4.128636662414183
444 -6.197077372379538 0.9741240552510738 -6.63106384195026
586 4.775308078414349 1.8295657143861725 3.17626415427238
585 1.0014092887963373 -2.751625458520536 -3.5910170212088954
448 -1.564345085425781 -5.944078507756496 1.21930320706747
590 4.839317153152296 4.60210768304061 -3.942040367756216
452 -0.01807359790007361 -2.7759651520140824 4.492427826785881
617 5.383295423654462 -0.8833870428078939 1.1658270932511925
593 3.75250030327813 6.582558093589859 -1.438409859697713
456 -0.9247082649054438 5.0649740079193775 -2.3320119782576545
594 -1.7415940258408442 -5.6114807901941655 -0.7799732427459004
577 0.4903366961546572 -4.310875808698803 -6.172791630088626
436 -4.0384728756881 2.9343964035510255 0.7524587146360621
598 10.232066179681272 -3.202902098212593 -7.942561900104149
459 0.12342994384573236 -6.904744299345842 6.602576248838088
602 -4.207336289374648 -1.1295279131080966 -1.9843520553372758
464 0.39333514894493815 -7.41866882851868 -6.408876016929281
605 11.413492296105291 1.0799232375661467 4.366454104780027
606 5.351421564558202 -5.122222759853768 3.180823056286881
467 -1.9047896483122 -0.6290698768808016 1.7965284276391822
468 10.14322077890242 -1.4909393672713174 1.4466029819577382
609 6.427780616971297 0.8768768253207541 -4.559213768309111
610 -6.995850097460358 -0.6689839423258237 -3.87914708397023
472 -1.28917308863229 -12.07814089840719 3.036158534873515
613 -1.346302320006502 0.8572820999991383 1.1843558422480112
471 2.183486929616957 5.474454014002506 -0.6158035957890092
476 3.8996808597776904 2.63728498263347 0.7517923107021791
614 -6.603406886584698 0.8772078623312018 2.964590040945432
475 0.7222739068227371 5.4751532948101955 -1.0454089185388789
480 13.161094924693636 12.754657112908125 3.939183849608869
618 13.826946973359707 6.473660470988893 -4.1517169258055535
621 -0.9340411481783298 -0.12715260646910556 -3.7546144849630063
601 4.159690638723996 4.712563450534638 -3.864833573197621
479 1.0062916499561736 -3.519781468908681 4.988722222120352
622 0.19870617897749013 1.303929421988465 2.496187407202374
483 2.0706254163150803 -2.2740288381612856 2.938956155990642
626 2.691394511570659 -5.301560322023528 -0.16843083972152798
625 -2.3985178862234373 8.303457786423184 11.730307589029206
487 -0.07210226924802857 1.302592748807553 -5.591363479940411
629 4.203942675123542 -1.2801172912232388 6.178140024728737
630 -1.5040934506220518 1.3098939889522574 4.521567271136021
491 -8.289214347166844 1.364039463674727 0.5203413467211222
492 -0.7223960571817016 6.471579675677484 2.010523068262716
633 2.3613849873907022 9.59915482043039 4.471912269504855
634 0.1739831961028422 3.0373966051389325 -1.6808056524716797
496 -0.8020186754075787 0.25651332576761404 -10.231077934770394
637 2.414771119661975 -7.331070383783904 -1.092130483195555
495 1.1064511226485254 5.635188300911534 -1.3238332757549798
500 3.5060978558078966 -1.360071163509108 -2.305751822149652
638 0.5094548469507794 1.4461186199423652 -2.506235950149426
641 1.9948971300838794 -13.400544102157356 0.033251315217733564
499 2.979461259058558 4.9989787788750855 -1.2814683897722425
504 13.274952439839762 3.7889727738221834 6.936686872478971
642 -5.313055188883732 3.4861344756460624 -4.0746895916216745
645 8.298566598157239 -6.785034644132193 -11.081963671043303
503 -1.8328035178650375 1.0371116367699427 -1.8031102603415938
646 4.517601054725885 -1.1247804422367964 9.460750581135537
484 3.09484337206682 -0.49724197273898907 0.5205034498451903
507 -4.557768727065423 -1.6999989194892702 -7.079382045525775
511 -0.6875228021956407 1.1952149227259126 0.774520925008806
653 -0.9098647807816453 5.178543626562389 -2.0223035084938905
515 -3.0834939448142134 -5.789196132505925 9.223123069289862
657 -0.2779240882570309 3.6371499354962777 2.0183702576250777
516 2.6356731791149124 0.26627678819789224 -1.973963558365748
661 8.332215248396182 -1.4912432936470092 -6.454158909882668
519 2.520751662273098 -2.6159303097523803 4.474944014669934
665 -7.340204133606381 -11.640929096553204 -4.505845641140471
662 -3.1271778678125974 3.7982187253184194 1.6870600672852454
523 7.180222871636802 -3.288014677214736 -2.9170636740682885
669 1.6311448560484596 1.7236557000639825 6.439159449103809
528 6.189798507459543 -2.6337377675774505 -1.0065097697073664
649 -7.750068753591232 2.1042482665382023 4.646301947696512
527 -2.82624068646868 -2.898348300793291 0.7268048010047536
531 -3.423243939846126 4.199962064801661 3.880491067698277
650 1.520219161862317 -1.6411557641128935 0.4732018582941511
654 -2.0483512760835936 5.747790097630589 8.484247234922838
512 -2.7412293685999907 3.2102517022857198 -1.1675419280556498
535 -3.24791503674222 -7.656631535140913 7.915102061706532
677 -1.9846862105260497 0.9347344232363765 5.602872108061626
658 -2.419992775265882 -7.776223344177105 -3.2828953629627726
539 5.839593393765165 1.0396837554809877 -3.190052489118009
681 6.618838840815398 7.530976893309067 -3.328413489755065
520 -7.016611002113179 2.074017357116783 3.5294920723463625
685 0.7216141072027434 -12.39355693341795 -11.804895182303884
524 -3.4705099285900256 9.878740073418586 12.301889465691508
543 -2.113957709408112 -2.4389430742019615 0.10276096599740306
689 -8.774711781248458 0.17373588124632652 0.0379749427958982
666 4.3689758316350025 -3.176735388960539 0.530610025414253
547 5.500921565370136 -0.8586304569214996 -3.7641722196852894
693 -9.469362899381752 2.134088790998886 14.488253135621088
673 -7.2767543962113965 2.281855153910197 4.752806794555243
551 4.868502080994334 3.768977376582366 0.526542479760862
670 5.8238189797863855 -3.74187246467879 -0.23619145464797403
555 1.2474790841691106 5.890788386359292 -0.16595220027171342
674 0.028825110228511752 2.107996731912602 0.9221673111621371
559 -5.7465141948028275 6.602149489958962 -4.9910371732598175
678 -6.597264390199614 6.020134079977189 -0.4212971341680852
701 1.3910580378878945 -0.4979995363349752 -6.9371922385262526
540 8.653211032053678 1.3964728443273673 1.887168945840811
563 5.60451048481335 2.8882899210106263 0.2812232403732757
682 -0.3250623419361031 9.238143863602975 -6.414269273701835
705 2.8527265824739607 8.893766737839298 5.135708260642959
544 -3.5413109288725755 -6.564138022231878 -5.979795279633214
709 -2.655176314101157 6.17807928807646 11.02603913993542
548 8.055664842429241 -3.228772648346937 0.5839095067551207
567 -12.021424625968994 -2.7011052827534026 -1.9597122904362472
686 2.854396242565281 -5.639407159335858 2.980963897148367
713 9.220269383102528 -0.18292245135588392 5.547581991645761
552 -14.286831061952162 -0.4484559137314173 4.9362384872631075
690 -0.15844997608931372 -11.706363339763874 -1.7840695142905707
717 2.7325752368498932 -3.466947602728753 -3.4301903244268592
575 -0.66990395056412 4.1806204454268725 -3.783574548724194
532 -2.0839116522782866 7.514781672335326 3.9112110255558985
697 0.27718691199925743 -5.445730684605982 -7.041724853771017
694 5.127696184806581 -0.05524785357962673 -5.7250836651529
435 3.6976365043954753 -10.252748905272464 1.7716087854428006
698 -7.162512801754254 -4.496284607118775 -2.391084542602148
560 1.340168925106095 3.5055642091074968 7.706742007034967
581 10.59681377023317 0.32366877092399626 2.0106352016685074
702 -1.6482920333525808 -8.681891903638872 11.574563747506255
443 1.3433235631981453 -11.64518811790157 5.708571824321826
564 -0.6171702234695821 -5.617957802186386 -12.085139261219078
706 -11.878218666735405 -1.9406579943992517 -5.630039510092268
589 8.806940029388548 -4.868769740826184 8.231611187245239
568 4.698458183039295 -0.10454504336224668 17.623218050085978
710 -5.146052686593138 -3.4950755058910676 -3.5476085711907555
447 5.263987201055747 5.039223445969762 -5.018656507222686
572 -3.375699119895132 0.7741430264123779 -7.1503807195379805
451 5.009153905342875 0.23068455682266284 1.2934506765323137
597 0.6462553041289232 -5.26837189005389 -6.575740730553575
576 -3.207608075163417 -1.015878146930008 -10.795096662703907
714 4.7206236219703746 0.5642737354227949 -8.889048672714772
455 -2.2882385841978023 -3.1707318877808617 -9.529694120881821
556 -2.267804853038183 6.355555455847322 10.920137652293274
718 3.5953604262654846 3.9706518000230253 -1.2324271981650528
722 -2.6421364547236026 -7.805619936876618 1.6741798987349779
584 0.5672528639680939 6.766694417172931 3.3937933436182828
726 -2.1403913338803275 -1.841921878115009 -2.262857097931626
583 0.571636880831193 -0.9839599985686209 -3.834113386283433
588 0.01370259494889378 -0.7742350932195061 0.05028231553519536
730 -5.894749163540129 -2.4153346184352 4.60617169229959
592 -5.508937344149825 -14.463586002466974 2.771389762506531
734 -0.6553232784218124 -0.007448599403907284 -2.309634412163656
596 1.0436079910333491 3.033137480726949 3.2675323064620203
600 2.1634948231634357 2.0464818138811216 -10.143139126319696
738 -6.740352068389061 0.09256333295626404 2.7851435418582855
580 1.4433885573942111 -0.024231813256229733 -0.6640095980456301
742 3.8619818652854954 0.9521628758139409 -2.2047235336692057
603 -2.8552895506595193 -6.211377091369274 2.5077332570855804
746 6.350647489787859 -2.5859733280913666 10.775804398993838
745 1.2878744230048775 9.152480917247162 0.12013895335486288
607 -7.206803230273396 4.9431471770219275 -0.4873570157033521
608 -8.615641974163296 7.301502553460497 3.710498311844313
749 9.631982108606833 3.0798105316530173 4.89733416128289
750 -9.428781050311517 -4.5300049488897445 -0.8716386622949639
612 3.1709497999191343 -13.624925180935096 9.480814724249106
753 -9.37091833164541 0.811708728579441 1.8373849456520912
754 -0.20784971841506084 5.134644971265874 0.3237873726189697
611 -0.9531035726375459 3.433384024359549 2.087386737389758
616 3.6855605658129393 -0.07515275440717388 -2.74359897880091
757 6.566419767763945 4.111814217700095 4.512511782096838
758 -1.7919663901511436 0.8767079483438093 1.2556147039441452
615 1.5625912640312456 0.39084798321837966 5.487456592283609
620 -11.750299910818804 3.3003841596114705 3.0339570670113867
761 -1.1342641032413998 -4.510423246884276 -3.855829631799136
619 -7.2231779369748415 1.4006519733536427 6.830223388292543
624 -1.5781961415367805 -1.0304399716476749 -4.9393066754160495
762 -2.4707675910146603 0.6106329855748589 -7.008949791251003
765 -8.606761522429153 -4.661781195283375 -3.9586065482487114
604 -3.3553263773641975 -2.5437146007133196 -6.495600927574162
623 -6.543333550563444 2.645202045004049 -0.28366297022453596
766 -6.371490125927566 -5.870080085113143 -0.6585465424380705
627 5.492490797648116 4.486565990882258 2.103328082755188
770 7.4433135848612 -6.843323703385955 -9.545228897539632
631 0.2739633023300175 -2.831062316406104 5.974142216499829
632 2.4093466146472258 5.958274177931871 -7.013935538257387
773 4.6099706770296836 -4.141138464129993 -3.6122404156911894
774 5.858828286259667 5.986713962214089 -6.70152760438705
635 -0.9711124941327295 15.519488973991402 -3.013844489279552
636 9.006213575668076 -2.7564233527808573 4.757060617622772
777 5.572244685882397 8.76455051652866 -10.986071868300058
778 0.8488266478717399 -4.889644762074075 -5.528854647092839
640 2.0564820096745993 -9.497031077194897 -2.4859225869323436
781 -6.07374276015113 1.1213303791416758 -7.68644119909406
639 -6.3160200685284185 8.742170552122815 1.21915277943087
644 1.1072283524711826 -0.862410885603062 3.515053300984638
785 6.433635251963106 -1.5334539318539235 9.03173838205801
782 2.50647770226309 1.0603730529393642 -5.985696005578511
643 6.1989478929640285 -2.4236174885280817 2.561715865273396
648 -4.729168070664922 -1.8657192654173536 -7.155430995119001
789 0.6665986997426936 0.26461272684848947 4.807340598163367
786 0.9798078675065479 6.339537730293637 -1.9077678274204661
628 5.67903605982566 -8.700696529263503 -3.6205083602678436
769 2.7277677471488806 -11.898498541149166 -0.2048939552218926
647 3.169308559021256 0.031626755392260834 -6.872635649836277
790 -4.474412179301978 4.410715913630745 -1.8091391895135276
651 0.10611919042285022 2.2294972764199734 1.0631395725281199
793 -11.212561849834483 0.09590375891364504 -10.841982725844037
655 -5.435569246531493 -3.004525968851059 3.41816704534987
797 5.420241719075484 0.2628264694121733 6.9771993803250885
798 -3.51730630958985 -1.8073658344424712 1.783858269670165
659 -7.047785396831623 -4.114597265705298 1.4685985833749564
801 -1.0686443054577264 -1.7212878922913408 1.4885904102595238
805 3.3758417758530337 10.189290489297118 7.476046406353981
663 -3.3926226650949145 -2.1829075449273727 -8.447525617565566
809 2.765799043777834 1.6832694162403496 -1.9382013565823912
667 4.314547994020867 -5.235386739753815 -0.7910847901307965
813 5.117083829455046 6.8290596995769 -5.550089251659534
671 -12.036019409999017 5.104996761103122 4.44630223276146
814 -4.669219255197972 4.046404291767509 -1.4599106094051784
675 -1.2484179260275667 0.8280114638009307 0.8673578296379999
794 2.665355000531607 3.6643334711035807 13.294419816391832
821 3.0950203011247894 1.0493934354874757 3.4651420037977676
656 0.9962598215097477 -6.647696593582641 -1.7861023347192952
679 11.699179021223696 2.677925842012296 0.29243839011515543
825 0.023528706046341618 5.766302266836671 5.309382270539787
660 5.279086265266945 -1.4698154205294403 -2.5670736314803078
683 6.780149415170473 4.9474267795381675 -1.5741156707408908
802 3.0835653894090647 -5.402265853435382 5.415936127817599
829 -5.740664787796018 -3.7399796936735243 -3.4341430692847137
664 -6.064262937651081 -5.084874589583633 8.81005337533636
806 1.217145462336537 11.533191596246589 -3.536559163878234
668 -5.695655569273398 5.174747239756609 4.909569882324736
833 -2.513049190663623 2.8032523074993283 -3.8302090865870033
687 3.432327318498401 -0.4281785515962334 -0.8483051074927483
837 6.865244411710877 -2.818579417893854 2.88399184872751
672 -3.3972436784263853 -6.049041946824816 -4.577310574869637
691 7.270565353488952 -1.1827925665054289 -3.0584214315107534
810 -7.601846685678769 0.07154604331901801 -8.085485380227459
817 -0.5500704822982073 6.700598790312246 -2.403921459506116
652 -13.925176645014014 -5.97016051995976 11.635252593347332
695 -0.794205484122705 -2.0190447232056044 11.058555673870519
818 -4.541197706579099 6.6657998642085525 -3.1983956959942463
699 -4.463077989911382 5.345450212830163 3.740943127109913
822 3.746905312528289 2.611970549083845 -1.707871431373598
845 12.416105429325032 -8.777477162894703 -4.951488278219773
680 0.9451153472430232 0.21987292406951928 -1.7260203137204635
703 5.71609384363492 -4.75270861556994 1.3593235573086468
849 -0.8178633166964836 7.9029257905933825 -4.304342886751529
826 3.5080934069696026 -3.014728439939444 2.547258415562717
684 -4.01008962689457 0.7776838015920229 -11.18540089160651
707 1.1491212673900715 -9.387167022193891 -7.1943174845142295
853 2.488458800155062 10.728999461323673 -1.3432861572816823
688 3.590345637008946 -2.984216526959893 5.291599340235009
711 -6.728009512094761 -1.2118291149136184 1.5877829436918838
857 -0.5711392078883051 4.070122912602224 10.884373613446941
830 -7.453375496653151 -2.956896302327993 -1.2252293243174595
692 0.30154690185151806 -10.474579779207053 -0.002305795849042607
861 8.276060606498309 -12.93928958351403 -3.2716047275504705
834 5.562514927956853 -3.335784802380898 -1.2445417526620604
696 7.710417957058366 4.37757518798134 11.46439751996665
715 0.8637812907915607 -5.706688014736637 3.1447815160173462
841 -1.5854838849433497 -9.374798825650597 12.937363090167322
676 -0.45351190333524655 5.431250383145891 11.20091889871966
838 2.6200272878840325 7.812071063515927 8.166875289204993
719 -1.6995164230468096 -4.7019621527250175 -5.164347342913768
579 -9.63004608984619 -1.0463363319705759 -0.5246924768417597
842 -2.1622420156275113 -7.868850230050645 -2.728990165303169
725 -9.772110973413406 3.090355789170278 0.1335513654091565
846 -1.537838988452809 8.50485572429515 -5.61579885750057
704 -1.8546271238760375 -0.07543017546102286 3.1737298148724054
587 -3.1952099766708293 -8.616096994695193 -2.7054334206225703
729 1.4202791481982948 3.9983429038876186 3.543367910337727
708 -0.4984619773230321 -6.423391769113549 -2.7012449601809347
850 -1.8434770527901738 -1.6568164528618152 -3.255791126827282
733 -1.2248051492918006 -1.1616369331004235 1.1823281726092343
712 -11.51475901201481 5.862985865733357 -4.499558418426688
591 -7.49814256351359 5.659651680438468 -0.30412324472429203
737 1.908041905575789 3.7279219495554674 6.734138407004107
854 4.035913652479327 -11.22533935102938 -3.5908809898522116
716 1.0530861605784707 2.1018677314990786 2.485028369875002
741 9.76056034798557 6.240453780564293 -9.284134097376965
595 -3.9018681924635152 7.2102650128097805 -5.151787476997807
858 -7.43571291089093 -4.557872368282688 4.279571020285795
720 -0.34924669240581635 1.0247330515874715 -3.239734022256681
721 -4.741831239777903 2.7984770848497895 -6.137616782408932
599 4.410878177477615 1.5504459878977157 -14.398100835500754
700 -0.7347359399767273 1.031041880740269 4.246109040248764
862 -4.4011078636704815 0.5430124153218874 2.6954242671179354
877 -0.49633074549858447 -6.09706481546677 3.2801721077901296
728 7.791270506639 9.32627350816819 -2.3191120330507604
815 0.4913704811599603 -0.979901430940249 0.7123927108818369
732 -5.3264142822546 -0.8809438771851857 8.591714443541472
863 -7.792597043771669 -3.380235398566224 -4.115468299737231
736 0.5435453875380195 -5.756500601417514 1.3977864449217008
859 0.8850532126297831 -6.6599589011300795 -2.8152215296696332
740 2.3157821077108753 7.33594435489351 0.9716476585969298
744 2.527790221256945 6.617828268938675 -5.154623149364103
840 -5.032418418713202 -4.783697714653962 0.7991231316182328
724 1.1981493167479664 -10.224198635317652 -3.063255369945973
953 3.455163592940341 3.2221311795872367 4.536258267177155
747 -7.556354759444387 -0.24395702640178737 -0.7809940146233687
950 1.6626008666381442 -4.386828412113711 4.004592259888464
751 3.4124912991168106 2.3355783579769134 4.909379806189451
752 3.1828118607543914 -7.9921046692019955 0.760485472187197
873 -3.3040832497114163 -4.1300886793697655 -1.1869802482071818
755 -5.147449477112339 3.4994450063933487 5.560928904903482
756 -0.7833930812598809 -0.5426518248616374 3.9376580193004576
855 11.991069574969224 2.047769564894973 0.8642832665659547
760 -8.286329959268915 6.108386756657971 -6.362039534359655
836 -6.478293079718237 -3.9677014937343786 -4.842743874189914
759 -6.864680447611602 0.7462651911537052 -1.2475810169033368
764 -0.4425238066320748 2.8796688147400107 -0.5106963899519972
811 -9.273614467768526 1.333068193426875 -8.150592515712873
763 -4.51971193759869 1.232499805286233 -0.9950559395471765
768 9.188408902656109 -5.148762835306279 1.1384219539825176
832 5.098366948040444 2.656169914674523 8.81837423468324
748 0.17650046284327148 -0.8999855160058362 -0.1559640274873431
767 4.596034358124485 -1.1727703752540395 2.563058571310731
816 0.8816797372141996 -6.462251343729181 -7.489368391285277
771 1.2443961206068146 4.857150207654789 -7.716024613626519
831 1.475998778012106 -5.798402496146674 1.121340374625433
851 0.2582227723300874 12.247210548311712 -1.2481822940534455
775 7.694923554083302 -3.22829232632956 7.331402574676305
776 -6.043841371251088 4.815599200677988 3.074548861412711
828 0.5282140416556016 -5.518411206611271 -0.8996940045713776
779 2.078855805602087 -2.847177418898941 -1.5620560881002767
780 -10.798459298218127 -6.345058469173775 10.164742481955994
808 -1.4163653637178635 -5.401428023994588 -1.1056850639187803
804 0.20005444744307263 -1.82147115971359 -2.0522142498808233
784 -5.869669902886659 -12.375446293997065 0.43553547633001144
847 -1.9723601424027746 -0.32576801806000305 -2.1222836096370052
788 6.626473376255539 -0.04127402208448014 5.067907004228612
783 -2.471555931026133 2.5445740869446523 4.176250299436487
792 6.151980168530907 -2.097118325508557 -5.001494706376225
787 -4.898729236744399 -4.5423328533594365 -1.1866613003404411
772 -1.5864226073003445 6.56635716026217 1.6144528547061576
791 5.97920858412064 2.4751217253055304 6.843936663102318
824 1.5198085576855134 0.3182379906741973 -10.01570959494314
795 1.6293942723735304 1.2746423999844876 -6.645819681186932
843 3.4732589518853487 2.453910604392565 -6.734638116405839
800 7.192085647497767 3.924861332570852 0.9207329841592853
799 4.318969734482223 0.6931995421398112 9.833006106936853
820 10.900606620288293 -4.764559967063679 -1.7890955319156783
803 7.691333643046119 -9.412849447355804 6.773257721566449
835 4.4682429880464225 3.960071113719548 -2.073344951651865
839 1.5012646865824884 -0.2584415605903396 4.253389054484164
812 9.19122457742053 1.1146571776125096 0.6463340298603449
807 -1.7915284171598103 -7.2825172055791665 -2.9206293064887876
913 18.33458641254194 -0.7273385383831562 0.8090215536772152
974 1.7238764667571707 -8.802605183394313 2.3827270385983432
993 4.154180424677275 -2.1421340637392348 6.088643246821007
954 9.58144417168255 4.981708527368789 -1.7961793804855903
946 0.1579541906665895 -6.96275154120105 -5.263586822704583
962 -1.2289925077037038 -1.868414780239537 8.585690403288329
1001 0.8397415092099025 -13.564829171924154 6.404507574423612
945 7.425513767558207 -0.26689732852710507 -3.582741656754886
918 -15.071018415316129 4.725857905584619 -4.300991810012074
865 1.8048136129807286 -8.687933198777802 1.3698734093706189
958 6.929135676303309 0.3137443762631949 -8.405916490410137
981 -3.4335287940882258 17.688662366096395 -1.9824242120034776
874 -8.534870875926774 -7.047205688512469 -1.5542350138644476
894 0.21503292030701324 2.0344383967695094 -6.243604791008722
870 5.4858836832399005 -4.516674729967629 -5.731246049548929
998 -1.0833784895922247 6.821026968627418 -5.699807485336588
982 0.40783527061195746 8.214105541526504 -6.8100242944142355
973 -13.56280486813399 -1.97334424295794 -0.9020140062158524
34 0.38297954575012777 -9.109271348033616 1.2204630818971014
126 2.032275183479062 6.145309768386388 7.776431331778256
73 7.664255904213668 6.4585725138388606 7.509294439383704
122 -1.3479977955580003 1.9028263149075662 1.5703776726593026
137 5.1257425891402235 2.4460768528327175 6.021713055227946
141 1.1747708860073605 1.95792522016986 2.398293736266211
85 -0.7583602391157807 2.035808393729737 5.124644358085162
114 2.9250352976590377 1.0492975823868407 4.817574716631891
97 -3.1180514641196564 2.455719760443336 7.222481388306953
21 -3.0729889212210186 -9.608276027245493 1.901287596479925
54 -2.7504329287961866 -4.308509399756978 4.948268681772425
61 0.1439084494138376 1.6749095770195404 5.853703229259774
867 1.8339920800613068 3.800769403766579 7.211575127999659
872 -2.1564509304881185 1.3724802445755442 -5.2589604464909
871 7.622261572694245 -8.003320551500366 -1.5824962085694978
876 -0.9852569362819991 3.5896760063034567 4.368049273754645
880 -8.69348427370262 9.2081117800599 -5.374955581606472
884 -4.083730330518583 -2.063190049266959 9.327347125026957
879 7.146907345252275 -0.18195285274003223 -0.2417350089716017
888 -2.6592034940512947 1.158463581402266 -1.2807699492405356
883 6.209812374933169 1.083601211989634 -6.053342762220679
868 -2.4392691394952335 2.7303105477671377 -0.5581060653492761
925 0.1548400682964796 -3.135524736985032 -14.519526943786689
891 -3.3090665355320876 0.8395562393723012 0.07167580903439344
895 -10.947953010873704 -1.7189971057255815 -1.4121702015873083
896 -2.6804198450594607 5.640534958044194 -3.0306842668017513
1708 5.475974551501306 2.2095234744964105 5.915328190462137
899 -7.920055840945081 5.139735719945123 1.5300212293010866
900 -1.843494138546561 -0.27272507018677483 -4.105633583147042
904 -5.134350974837991 2.8998054738339265 0.48136648972894935
903 3.0334981695472854 5.841089109891822 -3.6196762322968072
908 -5.8749004590096625 1.2491632952767244 4.307719996756225
930 -9.809909947999694 4.911561464016969 -3.7600574060377117
902 1.1091548621036837 -9.359908865321316 -1.793536141326216
907 6.790047423838636 0.5793269331526598 8.806485439867727
912 6.458761390680161 -10.353012991298785 -1.8599303503436249
914 5.188579294344916 -5.83186943843292 -3.8692246328261857
892 0.8245513353929119 2.5255784133472288 4.3358850715836175
911 -1.8878829891778455 -1.5619909485841819 -1.788985316086644
933 -1.9605662944165116 -6.445382860790555 -6.819888689422819
915 -4.38056924843024 -2.6065690524012637 -3.2023605598818934
919 -5.220674239159367 -0.30540379081537716 4.564902674331483
920 -1.420995305680454 7.549902198258998 7.190959900132963
923 1.5851549916502394 9.315932784189055 -7.672521926047359
924 1.8517764425816525 8.318311347699678 -3.8994354666142774
928 5.525234378885413 -6.58204618888728 4.653282192117022
927 -4.3711542013632325 -4.353032250101976 -2.712019453106739
866 -1.1766535703267627 4.30314749186707 10.993084322024881
932 -1.739450053850747 7.460906105686564 -3.376899940748694
890 4.996619503595356 4.1414868554551285 0.9791791175532758
931 -7.098152744176379 -0.5539761856610051 -3.183990740753825
936 -2.3412940160039715 5.11314277836308 1.296436327263574
1603 -2.899153187211573 2.919092321996482 -8.764813523289373
1728 -2.5249270330885407 -2.40188917168608 1.8196949580498993
916 -0.24179096439939596 -4.1138590712432315 7.995293966809469
935 -1.3248470445084801 -5.254324684508703 -3.3721512602968624
939 -0.9253027776054945 6.8376995722441745 1.2853162961168547
1724 1.8750563185548303 -5.327752251954721 -0.19744064671593545
943 0.11981194953298102 -17.299671875642243 -5.315166271740061
947 -7.786629365608716 2.6774637807080732 3.9674262257189334
951 8.445950000360092 4.7150197782459955 -9.033488707366796
966 -9.336687426468462 3.233338312133549 3.2306700595831765
955 -1.2921667539660504 8.42134692762207 3.691307694079178
960 -4.025338620465651 -6.299058488874613 -9.312834085741738
959 5.875883969415847 -1.2283100348359963 -0.5834780914832222
1720 -0.32553491392488004 -4.539233337763081 11.029041197555063
963 2.5787985019201645 6.675601295721479 -5.717164600929803
944 -0.03636194431033306 -3.5753930728809595 -6.095700978964324
967 2.5288729365134603 -6.1271040867865025 -6.937373486775728
886 -9.43949817806795 -8.92207766073829 3.7252715878880074
893 -7.674434147266047 -3.4116482517728817 -8.90959290503052
948 1.3848455393727666 -5.766706833795637 1.6097243761514768
971 -3.7822430419625346 13.860797433119469 -4.845154402854404
906 -1.6634958005192078 -4.0723232377686545 -8.307943663653829
1002 -1.6761201443560667 -4.417208273117609 -0.9297171006176982
952 2.226927484264431 -4.425226623323404 -4.916268700204497
986 4.822007359730165 3.0779475281876905 1.1213602236115379
889 1.5633559639822199 -8.943841421328896 -2.9166848984217206
956 -0.8418494959718136 -3.0832775990785852 -3.6457933353716405
975 -3.5325477197137456 -5.280647919128095 -3.2662695482874886
1005 7.243762784081964 0.0320839173871882 0.21168563533191997
979 3.849599566607531 -1.1828108571946616 1.8178283554131676
940 -3.3169527644377963 -2.6051442284257997 -10.089009613767322
983 0.5973900540980694 -2.0540803000825325 0.13674225423980957
987 3.093259830303804 4.225275257957917 0.22585887836596164
964 -2.3816403486661755 3.159867946615036 2.301410221702206
968 1.6214031669612505 -7.194947982164392 -6.501116323766195
991 3.448548982497659 5.3563540711524045 -6.827197508069325
909 -0.21909583831550766 -6.1069317026392 -3.6428240978950823
1716 -3.285681649991641 -3.817949907447414 7.0533889887004015
972 -13.84448965218692 0.16255837984932664 -3.5922816981927572
995 -0.9194155105354472 -5.578568658852263 0.29762587818606306
976 -4.96597408222809 3.630684830903684 -8.814624234401862
999 3.270920406110284 -4.562672916638135 -0.15905081815196515
885 6.198254496923592 -3.9236246095423826 3.7204537311173382
901 0.26373805093811836 2.116559969057061 4.749673154609142
985 2.105794634645464 -0.2656492239345545 -0.4457887906098085
980 6.6572344392654585 4.301628016282343 5.6361215976386125
957 6.560776057812831 -7.487101201443203 -4.8381972478726105
984 -9.49633683465779 -4.025682064384436 -2.1021275280323173
1003 -7.501285152056061 3.396190009322196 -2.9893095726296854
869 -4.460357900854202 -0.02919303832009919 -1.8514242100265155
1595 2.7033649000290843 6.5016268390460015 0.9088724189364457
1007 -4.184750488718266 -5.081592833314049 -0.15565031574278915
989 -3.842653094918457 -3.7907520992684374 -3.137993183885049
1591 -6.153659271144521 9.253612094443525 10.122735067420061
988 -1.2068583983154024 3.0130188543094825 -5.204366296502469
992 -0.677422022078745 -2.6280864757701003 -3.8880863400190524
978 -5.669868228227711 -3.4548940811351687 0.5561023853194893
1773 -8.646547809787295 -0.9518704015597637 5.278939023398558
875 -0.6558590017369063 -8.299330413094413 -3.2099797179571583
996 4.2151886993839955 -8.549413415404791 -1.5724947565957963
1712 -0.6588002159238184 -0.5032432077727692 -5.673430355260105
1000 7.252929883736957 1.5217696328657722 9.194926938404675
970 -3.3294633657700734 8.257376466415536 -3.880405361414773
1004 -5.801899086731749 -2.2923209980893606 -1.377358609621143
1664 -3.5351762485475753 1.3435586623040994 -1.1306220377370957
1691 3.9042960535453792 4.960202743739786 -3.1828890932857425
1668 4.211247560523735 1.2762300156885598 1.7862247910264815
1008 -2.68056658218242 -0.6936780383825855 2.1528052695282205
887 -0.5880932160623304 5.082867658756541 0.4058320890361978
1010 -2.4753333297270443 1.450577552282782 5.362775637521603
1011 -2.6232444095277803 -4.554423879482955 -4.075339291590095
1014 1.43151220245381 -11.727282649542772 1.2295043356966255
1016 2.666785997454127 -0.685914232315002 -3.4096276828267422
1013 -3.832742269716682 -1.5847302407905535 3.4614791984857294
1015 -4.72693610261674 1.2833723210532908 -0.15720501049304303
1018 5.263903605850936 6.000821160139744 -2.146923383351915
1020 -4.745516661411592 4.623532767460438 2.7087733213943346
1017 2.591899514126576 4.281196281798779 -1.043496516332854
1024 8.309716633600416 -7.91950712482771 -4.18817620095178
1022 -2.0917010891377936 -0.18737434289119959 5.116210507359697
1028 -8.368086045674051 4.6187617706178825 2.700659154547468
1025 -2.2156012810491648 4.332412028239975 -7.050217514085424
1023 -3.4652142608383283 3.556205988034646 2.20270115683124
1026 2.1487460419508495 6.121138551331986 -2.4400537566431946
1032 -0.2235462515698525 -2.3448192703685335 -7.471343405684169
1027 -0.9974934717598084 9.904907192538346 -4.423909601788277
1029 3.9030666154549163 2.959738431025939 0.892095007805999
1012 -0.28794477969483484 2.3520285641294674 -4.075672927430642
1030 2.6128657429880255 -3.5818829450452534 -8.643645660723628
1034 -3.7935002791150096 -0.42448530790973577 -4.981304084662656
1035 -1.9481348390055897 1.478729358203983 2.6671791783486136
1037 3.238652968035751 0.1923029937342936 0.8698524708826788
1038 -0.5181519400026805 2.014755145960048 -1.1679380697796418
1039 3.9395424645565678 0.266642366838261 7.8562749111183265
1040 -3.1546879402787553 -0.327806572526206 18.799192592077972
1041 -3.180746492714839 -3.140677909099541 2.7635318793509267
1043 5.001381947197077 -2.9459040477549463 3.148516067757459
1044 -8.549718763833623 1.5233899419019326 4.938923071689336
1042 4.087100343338959 -4.6401966179973435 0.6159007952546925
1045 0.9835774930808108 -6.388905201087865 4.774898971250563
1048 -1.3474059295839473 -1.5943206957406948 -6.572013990258283
1047 -1.1558482644336072 -0.2246464400417122 5.538362824791961
1046 3.2600546729631006 -4.319553465442731 -0.8395864711948855
1049 -4.1536442248004635 11.025298849372273 -5.942284530072529
1052 2.426787411539572 7.873617131269073 -2.3800466052008353
1050 -1.0098061608582123 -0.14549900686298922 -8.572633611767415
1051 0.6997583638323491 5.966933972234809 -5.691151654312978
1053 2.9487328781769007 4.149368917080225 -8.716705855239809
1056 0.7249978661080801 1.4316718989039643 1.3105626382038642
1033 9.325088410393256 3.195745270608371 5.011687648850725
1036 3.6154715332308602 2.414019799664152 4.10244907889603
1054 -4.1019418025582715 -1.7432651122619967 -1.363857205087621
1055 5.982234474015174 -4.363250720696252 2.306137336944465
1058 -3.1960561126339324 -8.518618491363908 -3.546627863796175
1059 -2.865312160992995 -4.720369468874381 1.7183084492810945
1060 -4.961794598432645 7.7349010096709305 0.08836083063653674
1061 3.665454292746356 -1.520199979636603 2.365176558691098
1063 2.811799556068074 2.8315104937959243 4.022162485581236
1062 1.585658863669209 8.478468336124617 -5.707719571929131
1064 6.11626023202646 -2.8816798756909168 2.115664658623217
1065 3.8200412952448777 -3.121471543763969 -6.679878879227964
1066 -6.306509271144617 -0.6605213013912706 8.577305006298088
1067 -1.8084273342240786 -3.5536269936974754 -1.655167647064077
1068 2.5600852013342124 -4.545243077766774 -1.4550931190626755
1069 7.972155696127282 4.535675924826982 -1.3160524238923998
1072 5.589893070956745 4.517690660022037 -2.1226367783031184
1070 4.3155884124814445 -0.16928113664652777 -0.7402123279144991
1071 0.5262570850983188 -8.36575505818239 -2.375204253416365
1073 4.530756418982392 -6.449277162393965 -1.0216926361312828
1076 9.496977915355806 3.643490864045491 4.58717124890608
1075 6.982661181113914 -7.148084045823634 -0.08209584085120218
1077 4.452721920775781 -8.71171553576015 -9.296321734355613
1080 0.6527054898733426 -5.5527203339563505 -0.5792553046299174
1057 -1.9073438866117076 -3.3324239760479735 14.944137354207951
1079 -1.359031637761993 1.3870597551887327 1.8701689574754732
1078 4.866337654709163 8.115743855529042 -0.893849710447973
1083 -13.727629392618686 3.197134048521608 -1.9449864665471883
1085 -5.8303290885888 0.9960018886354988 1.3833006335759128
1087 -1.2157006770591519 7.375062781182448 5.3925679233561805
1089 -1.127397516941172 -0.46944580378824247 -0.1178832710853312
1091 -0.30575282191538505 -0.3654288284968634 -6.183563476937854
1092 4.8307222029139965 -6.282571781542225 5.522360161329285
1093 6.276314939692282 -9.52582965937566 8.815772017019803
1095 -12.649557041810924 3.7354580016353935 2.0155817088088326
1097 12.273786126583595 6.842353855344856 0.6287965787541054
1074 -3.5174533719288674 0.9957978095725765 -4.737103298042859
1099 0.6319628618619207 -2.724389543967168 7.521816411942557
1101 4.484199752659657 0.48658754604894106 1.869731889891168
1081 8.067357542021421 2.6741076911261126 -4.189932155851192
1103 -1.4014597387376824 3.72855018922196 -9.09742747238014
1082 0.8285298207173204 4.526624923587267 -11.541019863287778
1107 -5.672473885479082 -9.581145510448048 7.011075498303662
1105 0.3133962203956667 -5.4450857894694344 -4.444560120948573
1084 -2.2051920276205585 -4.873434163395808 -0.2677953829075917
1088 0.9300964053671916 -4.609660299541966 4.755443877037081
1086 -4.923818104036905 -9.333739948410603 -2.772315214048932
1109 -8.367231456459908 1.2587990389789343 6.701938425687228
1111 -5.923898415359462 2.1005962576415067 -2.1230980964229413
1090 -3.558625342143142 0.39697639717147865 -3.6227996311572968
1113 3.3175785144566587 2.8592678388245423 4.212916191918744
1115 5.444075573863658 1.1917099621829452 -2.046906926926414
1096 4.138336425797487 7.634169169755343 -4.608073363567468
1117 6.110401768612631 2.920722487057994 -0.8583164021439059
1094 -0.3928805391195857 3.2516322716991457 -5.51610793272436
1100 4.223019677806753 4.609838867245623 -1.127487455007022
1119 1.1792533013539117 3.8498583794057106 3.657266126793994
1121 -1.089238398481224 -12.07025895634055 -1.9022882536089876
1098 8.74828941514751 -3.1370733485522866 -8.003827008347084
1104 -9.566670064641194 -0.014067635637207818 -2.9397602325877563
1123 -1.2510306250331629 -0.03196041597117188 3.6903037359852586
1125 -1.5383393822881506 -3.1102472911223495 4.63501548396445
1102 0.5600832742586962 -8.434709418543918 -5.80705118894556
1127 1.0114652750995121 5.547378668360157 1.4229893155989268
1106 5.456309907821929 5.136028772753218 5.591659122195038
1131 -1.7092928481296081 2.378006649024237 -0.960657133109699
1108 -5.371312527416682 -4.9291519971295505 13.888600757459919
1129 0.1838599674452205 6.671420397284412 -5.058556361387975
1110 -0.10031760567027435 -3.5987063640786836 8.46381619404068
1112 6.777155521732158 -0.05978719142759938 0.4524530353919062
1133 8.242076244695216 -3.622474738164556 5.512124756602001
1135 -3.274274373691473 11.877312928874566 -1.1802773296609614
1114 -10.192953398128996 -0.7641080688578713 -1.436998440636423
1116 1.9450711869518236 -2.319694422716644 -0.9035978018464789
1137 4.61270544196353 2.2489427952699037 1.740806517086196
1139 2.2233828599550556 6.863560171535616 -5.345820108868586
1120 -2.0124413698035255 -9.595730725364522 0.4339614235805107
1141 11.978577091751118 -0.3178280963943297 -8.289032733759754
1118 -10.253509006440867 7.722319453554926 -2.745523221651725
1124 -2.1696687427608596 -5.297825388837249 2.442324617815606
1143 -0.3311018379285447 -3.4799154756322723 -2.1133930616739947
1145 6.255727936524516 -4.134786506743502 0.0152054350137926
1122 -1.5393307117753108 -1.940100817112425 -8.456823526750192
1128 4.031925302015731 0.2749853527221251 10.339599469855383
1147 -2.3526074344477514 3.046621098092381 2.3669773098482043
1149 4.944351775609552 -3.0336988451211977 -0.9975366590246851
1126 5.98797463953641 -5.897830021541617 -2.3844917211789523
1151 -8.912630729288642 7.772618762794951 8.040351034286438
1130 0.6252571412222776 11.36171446756973 -0.3515879900278742
1134 3.4357448882137738 -1.2833888853866569 1.1320969406460164
1136 -2.8464608855638835 0.13864474940987712 2.9615001176048374
1019 -3.825326686616108 4.503571013185291 8.032156757209988
1138 -12.11285304034553 1.1355815805741754 2.150904939954339
1140 -2.0411644326257914 -0.040806291008580776 -8.886714718237876
1021 3.294585851993697 -2.59045740106152 5.7762953492098985
1144 1.5555607071262096 6.986745922508886 0.6151947780803353
1142 -4.135971037954795 -10.82385790549071 -3.0282379833030766
1148 -4.32639817201449 -2.6876865154443634 3.610234334972688
1146 -0.6631442120227123 -4.652909738263051 0.9083723251399405
1152 0.5299178194778441 1.9905701251389523 -0.9490060024578094
1031 -11.242180546959974 0.4010885158371277 4.902160622312539
1132 4.151477006573129 1.9886327309164833 0.5067761813550337
1009 0.9233891980729904 -5.5754150937546685 -8.640303091796769
1150 5.725862589511821 -4.697751679872737 -14.138448712231824
1154 11.231430890106889 -0.01919778919680402 -11.857872117958488
1157 -3.658609748006658 -1.7032374668623296 -3.283933235276412
1158 -6.098713960589551 -5.156693847757888 -2.4981377973807746
1160 7.283942740343288 -0.7817810882471318 -7.420945171734383
1159 -4.267997563174812 7.692810726328638 -4.320811635624693
1162 10.048357168016349 7.929596324411497 -5.566054681183777
1164 8.631046398683363 9.448305063598891 -5.886624453704056
1168 -1.335260256408157 7.437803416796576 -10.612672448987276
1166 3.4737181716519125 -4.917534948062633 6.8344841819766815
1169 -1.6676765432888243 -6.999782126492525 7.8999989092608525
1170 0.618545305961127 -4.49018987734741 -9.046117023043667
1176 -0.27200821400648834 3.0563795149975546 1.955562138257236
1156 -2.7989329844967448 0.17573461378860025 2.98283285913661
1174 -11.884650023322843 3.72715260140687 -0.5130316532152508
1153 5.59294051151581 -2.513315539679981 -15.120320354942374
1175 -9.271333268445474 9.430347593860326 -5.061550800377778
1178 1.7800279846102345 -2.8304585299484826 -2.5683280413058838
1179 -1.3284467691865705 -5.387724705568312 12.32194912659341
1180 6.300406284313519 -3.008356340056588 7.53326509147061
1177 4.140664400657055 -8.163899931187409 1.5648540337473364
1181 9.012141489200802 -0.4627967964071727 -7.0055699100884645
1182 -4.802748385852348 8.14772631635238 -0.8046746470746181
1183 -2.1194312100893473 -8.293940758413777 0.7242126357620945
1184 3.134083337513945 -1.7719404043379003 6.050476698894712
1185 5.833650047707989 8.510150278871368 0.968847756758201
1187 -1.065482709300599 5.150429375566097 -0.219828883211294
1188 1.6202398766489239 2.0140797670382193 -4.6889752157794105
1186 -0.9068278786954969 -5.546401910749234 1.60767979006507
1189 -0.5079387939780088 -2.582796118742043 5.0385675244826675
1192 -2.8031504544241588 0.6578103029053515 -3.5618665306376145
1190 5.934879261593764 -5.39840882773508 -3.0639805178700206
1191 0.4517031699031522 6.261361229973613 0.04516579924020043
1193 0.4958456838080151 1.3416355181152773 3.902744064995495
1196 -4.3936496736821224 5.994118207545962 1.703634652753091
1194 10.455199633502161 -4.016180978470581 -6.6943629207828295
1195 -8.294135452191162 11.116083969459515 -2.584935363302555
1197 -2.342731918146674 -1.4480681543781497 0.4717501436139771
1200 10.66478956427479 -1.2048544011778242 -5.308954705626721
1198 2.5109020798625656 2.169588942781824 2.8500014911797518
1199 4.0509931705800595 10.616134546552262 1.6408206273120876
1202 5.694862209401475 3.7158295527989798 -1.1367146185902623
1203 -0.42048512556567913 -5.674461142895983 -4.459691653363461
1204 2.4937777099950527 -3.0853086888053 -1.3859165275607395
1205 -2.4467859185952046 -0.017568491809225543 -3.3453835549196262
1207 4.856318289562812 -1.0388700893040483 2.9016595503276412
1206 10.645787311889906 -5.913876607471146 2.950082363401227
1208 -0.4713850236259818 -4.8796173325755525 -6.634104430160662
1209 -4.34176908903836 3.7505802124600387 3.094937388918507
1211 5.741228331345836 1.9089061599418262 4.671852566406596
1212 2.7870232770709604 -5.207474441079342 0.07496956087638251
1213 3.7887079134040254 8.190358138947925 10.023276924207071
1216 5.88603104897986 -1.39149290372786 3.5663259375672363
1215 2.797997233738459 -4.88432858390358 -2.9518094766190566
1217 1.4711735769646401 -3.3647194117206976 1.3457056837041756
1214 -10.195559851287957 -2.732586083169274 3.719165205442353
1220 -0.15150916021535712 2.1325170503741724 -7.549273367749677
1219 -0.9937987133126387 -4.499996380932124 -7.785575967013624
1221 -0.6443533006962715 5.925409363765096 -1.2715910015066316
1224 -4.796310082727586 -7.549120609507496 6.931734994787542
1201 -7.902760605040612 -2.8300189596091574 8.785428752175003
1223 -4.550075896784782 8.587795496182826 -1.2349172401912807
1225 0.9352545581283801 10.492594312679788 -6.074091658292844
1227 5.5232428682246875 0.04539449938023459 7.310853438575279
1229 9.186115348566425 1.0602117185481597 2.5423514268798577
1231 9.848954299151115 2.4674526789475646 11.68938691307131
1230 -1.9787466964822793 -3.3477110222075215 3.2701643102780062
1210 8.382904506630625 5.921559137393857 1.8461925285346756
1233 -3.565181161930851 -4.445060258410404 5.220680805947965
1235 2.479949487563683 -0.264720239464866 -8.905162380081753
1237 -3.0653036858362084 -7.155124474025985 1.1838708423800859
1241 2.336202556545475 8.135480230925998 -7.7725909058996665
1239 4.466291854040165 -2.197216760961517 -6.5263822636882685
1218 -1.7402470775950043 -3.8860432148204826 1.0804594811232662
1243 -4.6148114023923945 -2.970356638523012 0.5250088541328162
1245 -5.413534590072075 -7.950118873062995 2.7766755844777617
1222 -4.357706855957903 -2.212301039252899 -14.499424066917607
1247 1.8447356121700216 5.590597366500834 -1.0614788535259527
1226 2.321261751335556 -6.057929540497399 -8.00006843812361
1228 -7.614991600593075 4.443637208905601 0.12076004355957325
1251 2.265553592021033 5.761755552843579 9.6306887660366
1232 5.100622899215643 -3.856989894349264 -3.010253710023223
1253 -2.7757173395005905 -3.98192560509853 -0.049815838834295044
1255 5.604294918744914 3.8607277348387385 -2.730001149819729
1234 3.251383142391777 -6.382535128533186 10.110536512906924
1236 2.5351637591271223 1.078015946299858 1.5910701458590568
1257 5.023564946447217 5.812898175469402 -2.739818258407618
1240 -0.4974463350735357 7.125435853438029 6.197029926450837
1261 6.469215078459122 -1.3406090518276617 -1.0192991836065302
1238 5.983211548283432 -6.435758805066158 3.3950875617621628
1265 -4.742727577682419 1.6961559332455287 2.4221597156518504
1244 7.500528305710635 -12.31330656777806 10.544542619591486
1242 -1.4286363834100062 -5.54671967291583 1.7472267331019922
1248 -2.6413671622511092 7.508775818174555 3.580885370928643
1269 4.906875067093108 -0.2384611966510372 0.306440426179224
1249 0.26545805488019386 -1.2922997373116833 5.440284376166864
1246 -3.220437795590432 1.649885704865385 1.6564927337119422
1271 3.3527386957659817 0.20410444859796395 7.040020532437449
1250 2.593979896949043 4.823215823930951 2.9545000445509126
1275 11.474012380804478 -5.804347622506461 -2.9659053150769057
1252 1.4856212453606386 5.900511955919099 -3.102214410100136
1254 1.8118436067252148 -5.158437133545634 -3.2740429251075147
1256 1.864001405831061 4.088714916563381 -6.675733141566181
1277 -4.266595490969261 -2.985884422021282 -1.570961004144138
1279 -2.1952986513819823 4.292699004965056 8.904039829579684
1281 12.484880806072102 -4.430565370882593 -5.426313297675105
1260 -4.993047849337682 5.988850073060028 -8.105350650956064
1258 -0.9576931459984858 -2.0801250804185845 7.293840599511996
1283 0.12367910187152487 0.7547364212739477 -4.523239405988616
1264 6.197607662994886 1.1633297646564995 -6.584742560953306
1285 0.41004442481524095 3.636276627141474 -0.3232949291069315
1262 -2.186537890665228 -3.6483267664145003 -7.9703686854520335
1268 2.333585992499788 -0.1248418728052822 -3.6506879444042792
1287 -9.300028951772891 3.6240535145557535 3.8219823401086104
1289 7.544700479986369 -10.289148983788808 -5.575610860118106
1266 7.383238880089785 -7.490320046921876 2.693963446741524
1272 -4.802753006649217 -6.3804984934818805 0.6234846579491633
1291 7.161701022063604 3.1835488710328463 -7.841517130607515
1293 1.1513042306359365 2.659752923050663 3.2853038235705467
1273 0.9607233445490104 -5.308374881253575 -2.898009341704531
1270 1.5198447389872616 2.796901229742126 7.486220522315019
1295 -3.0034822572616515 -7.471400843636435 3.969565760137558
1155 3.187847148269988 6.6500493501100095 -5.152317032704942
1274 1.334197282935065 -6.118633172873993 -3.4023858641182616
1278 -0.6523789188519129 1.6288187097552467 4.233309939963909
1280 -7.887920544028829 6.738353503855291 9.337708939858068
1161 -8.360094556063524 9.605153484349895 -2.1863319636322585
1282 -12.35057869429381 0.42498066593253003 -0.09086401177747763
1284 8.304613568628008 2.427483799388872 1.3647389746816825
1163 1.6644384219379427 -2.8247894442153183 -1.2885877745066359
1165 -2.998001925584236 -1.0527689534960691 7.114223649858546
1288 -0.4790501789605699 0.923005333408271 0.6015235711182075
1167 -5.399498062174946 3.452023021848647 2.397859341621877
1286 2.8832899689149496 -6.521153696317486 0.33891766178029653
1292 -0.4604034893432132 -0.7046395717931848 1.3074375837551298
1171 -4.516945562169843 -5.096071890899555 -1.6155641750530703
1173 1.87053903858522 0.0004248598803424418 -4.795250935247119
1290 -1.571828758388886 5.703431490930602 2.3366398888789908
1296 8.45120762133699 2.1332002608375578 0.8537671373447636
1276 -6.2536044094441685 6.142659346295678 0.540306075774316
1294 0.8809260577756528 -2.2040389815058004 4.272758896907209
1298 -0.5309140443038785 -0.4794280581981042 -2.4268376837399592
1302 -6.14132990365911 -1.214553167643782 -5.877119278170679
1306 -4.832781317018067 -3.639596368328223 5.559418873987018
1172 -0.3373464337408373 0.07005495297410344 -2.1082688144279813
1310 2.1419778907914 -3.2575822927440004 0.55083937232565
1314 -3.1935457863338113 3.221885278137858 -0.8086197678952219
1318 -8.118995657630062 6.46178722748679 0.6552613038118031
1322 1.6163056162933553 -7.320930505725438 5.780815233540328
1325 -6.258091149694279 2.180044780266727 3.732678777059731
1326 -4.4404828291785785 0.4459189355424312 -2.071994401324153
1329 2.550497473906477 -0.6074726909574054 -1.8824164975895858
1330 1.5813835991374658 -1.2205258330262343 0.6258930241374417
1331 -1.1420866920267567 4.766975875869491 -12.452788098870688
1333 5.649848313017927 -3.198756656484374 3.512382855628382
1334 -6.672912434600617 -7.589635733661913 3.390756890445262
1337 1.5613216685687348 -4.8796265032341815 1.5362984010828065
1338 2.1873677220907863 -3.187297939279429 -4.569696246094174
1341 2.3186348411702116 0.5117624168840452 3.965941769470841
1321 -6.21133133029684 -0.461027256172692 -9.133643682532982
1342 -9.67860185528325 -1.1513098171141918 2.8146615671134847
1346 -2.0326738272418807 1.1013335024779023 4.733502439720766
1345 -5.284777671992611 0.5510283825900583 2.0342850985494683
1349 -11.586113406941724 -2.6098352421662665 -5.367179437274811
1350 -9.799663597490845 -4.627422773057252 -5.025483387003064
1352 -1.2754858256718709 -13.983534557917613 1.3355289547989948
1353 0.35032578921831364 -7.621974647602174 -11.00287697557333
1356 -3.3417673684421665 -2.4946134011443726 7.99197561230298
1354 -1.2318884893227113 -4.521568641584035 -5.575405210891446
1357 1.5746914123635072 -3.0485486483718063 -11.15782737567906
1361 -1.1049225628393584 -5.265491687236867 -4.107061435225962
1358 -1.7187450509932327 1.1493740721086119 -4.689189479938142
1362 -7.97518133093324 -2.7466563660721883 -9.663112184440717
1365 9.5066439622651 6.416642770808447 1.1229539455041706
1363 0.21666735992061165 -8.081881537485794 9.478098577956194
1366 2.967861074252569 4.032992186925961 -5.448837119556484
1373 6.922892279312209 -0.21689683008512314 9.269094319503155
1377 0.8478746371469419 -7.169170850832027 -6.578948061772588
1381 -3.2441204032272593 1.8583331490528137 1.5913686883391005
1385 2.88909445574497 1.1845612140339672 -3.968951773558807
1389 -0.8657197402372032 -4.5911861881549845 7.268885862540072
1369 -2.8966457697801093 11.059349711621925 6.997596708228479
1370 0.3385450210139172 -6.024241873351697 -3.3459488776281945
1374 -6.040411949594603 0.772761166906448 10.200782609023143
1397 3.2629409821340585 2.9851915686749475 13.106029929467745
1259 0.2544781722218683 -5.27724965853718 -8.19183345412691
1378 5.200322594554105 8.412696395159896 0.2915552873192741
1401 1.807066301322588 -0.9194713309507793 -6.732155130876939
1405 -3.064362131706145 -3.109131995453027 -1.5838417434415795
1263 2.022523553823291 -0.6771507491546865 -0.6342607315761593
1382 -5.048624401159824 -1.2949718044760867 3.2500609240137126
1409 4.162581464838424 2.0066170413015874 3.5261378285941283
1267 0.6440236476213604 -1.287364166557136 -6.483767168371299
1386 -4.001533967188129 0.7320738506509131 -0.6018696073352393
1413 -6.347767633244889 6.818445397882411 0.8591383270817781
1393 -5.589356134196532 5.2792062154308645 1.974352972573064
1390 -6.099545572220642 1.3750823256095333 -4.416084387155706
1394 -1.4378263762259866 -3.701230715862032 7.517706718275329
1417 7.92300704387364 -4.4295276725456 -3.0827897060521385
1398 -0.8744549519342674 -2.3270838963801843 0.4065032384678277
1421 0.9389320506042317 -0.9953774986160534 2.3114691579222946
1402 3.3294137678690645 1.2030528610533393 -1.0649903003392849
1425 -4.575777282313619 0.7121124661211002 -3.7174428633901915
1429 -5.467868153793358 2.708232679262454 1.4180356621710188
1406 4.674672632014698 3.618027444753007 -3.1185209411597623
1433 -2.8755411153966994 1.5069858237416254 0.8484461347753256
1410 5.650204822543124 3.5597211692390616 5.085822254219928
1437 -0.7479063980311361 -8.190872636608463 -3.2687103766872734
1414 11.653624421995373 -8.946063900793616 1.5234199639844694
1418 -4.055343108535928 -1.5622160944889312 -3.5052877701513667
1301 2.2275528640916336 6.750187751445042 -2.9718991381326396
1422 5.3389756522316185 -4.545163326831877 -2.9065533345116257
1305 2.3937939732269573 -0.5120158165225407 -0.6858104828954974
1426 -2.19690624840949 1.34747857001894 -2.3459801085185505
1309 4.1698512703042185 -3.790728416301113 -2.8416913115025353
1313 0.15128765846949796 -9.55381515938289 -6.863762789686997
1430 -4.7851419688523125 -6.153267440115067 -4.212846712060832
1317 0.2998254151942898 2.2533479787297956 5.3265190936691935
1434 -8.20813254906325 2.347633952114805 1.6836800209527751
1297 -2.433264494131784 5.486209299897033 -3.9468244611527785
1438 -8.92621556670423 -7.658432148597473 -1.5675139663110302
1442 0.1760261856226992 7.676395260882449 7.539893162452545
1300 -0.5160206022057708 -6.188996074656456 -0.04436981033921527
1304 4.591960383417661 -2.7650356463631933 2.6486989216987453
1446 -6.934435746805559 2.4927840619945885 1.046419013022119
1445 -2.5097221378356895 14.16289428792045 -6.29918253874441
1308 -2.609378001555056 -6.680908044961144 0.24981581339222156
1450 -3.826836306644644 1.8657160811121896 -9.80826426869538
1312 -1.6565787088734691 -8.113580562175452 10.957420130207117
1453 4.501894571472301 -6.566871104110586 -0.4336134155860548
1316 11.01960313529226 2.46624409239442 1.3102532085428713
1454 -2.2878796301748894 -8.527958154878398 -3.2669928294175694
1457 -4.392962293868724 4.908183165858498 6.2272113539438525
1311 7.422419962164298 6.917893721434559 -4.202598128157657
1320 14.320704176555754 3.209090878562634 11.547399302270422
1458 -0.4483885466339863 -3.882718110674863 8.76284492541786
1315 12.789349581614422 6.177793529876682 1.1523133079127053
1461 -3.4828643136631796 -1.5597580924903673 -6.140841249098782
1462 2.0338522725332635 1.1231078023921033 3.4096881265045442
1323 -1.7022379648162118 -6.949860326940998 0.40184715198239124
1466 -1.7832857028501277 5.5366063087939805 2.1310502066901362
1324 -2.2278308988677478 3.5778211755937486 -7.348681493872612
1465 -1.633070376795711 2.097563267910986 3.2884911433521626
1327 6.645842186565013 -8.436382781197105 -3.9291107951550184
1328 1.618217673431155 -2.9790571660852923 -1.5764056663490709
1469 0.005923459051430695 7.913760169021742 -3.053637536865971
1470 -0.7206933437479169 9.598724920403187 -0.05952298203004336
1332 -1.4660728652237123 -1.3529484548994455 4.877558080820532
1473 1.2275774307499616 -1.127235582629874 3.936968012730446
1474 -7.00635537772361 1.1404348442624994 5.662905452677222
1336 -3.5158447903655086 2.541374818564564 2.3101162768542722
1477 9.9328737298945 0.7469877407994386 0.4965684325521727
1478 7.564391636084389 0.4412313803343983 2.0580439104488404
1335 1.9425711465220867 -0.6491867211034232 -7.285693691605671
1340 4.077045745010773 -4.204689749908983 -3.5115703687616135
1481 9.22843119919844 0.009045720140275104 -3.144552205938818
1339 3.145888761850312 -8.923849530732937 1.6739223095408482
1344 1.5867625105733103 6.299712857218334 0.0515229916903613
1482 8.618829155136341 -7.422221550521026 -2.687112280626629
1485 -8.32658146241847 2.9695580805435324 3.4342670787023617
1343 -1.9657142260798044 -6.799897131215287 0.2590844366815968
1486 -1.2987176085969372 -7.008432723053129 3.3147202400777527
1347 6.504157752569181 0.24535593858780805 3.5987489265185024
1490 6.686727745259539 7.467638468444453 3.58686265546795
1489 2.0153742995155195 10.206501218992708 -5.18302163637547
1348 1.4166055669496689 11.45741248897966 7.312793526656309
1351 5.123459829517074 6.38637928645887 6.95528872278318
1493 3.3614498817751013 5.209150098995579 8.027880377856588
1494 -13.974247213201247 -14.45541928666583 2.389264661440029
1355 9.969510541053781 -0.43902381126760925 -3.6490090499071797
1497 1.8853976721702355 -5.217389629235623 -4.523089053737569
1498 -1.9852680207280258 7.212227986403791 0.0575504712200048
1360 -0.17290059382228662 7.460806360861727 -4.009967492690478
1501 -5.17219215687724 3.274151965384032 -1.5570567675855256
1502 -5.4688144047080725 6.748867653917647 5.303984390446529
1359 -0.0925671289875826 -7.369917790005366 1.0347684251320262
1364 -3.384029094236425 2.2773951050128707 -6.85358124930523
1505 12.080903306641472 1.031574735510923 -2.1158985817967837
1368 -5.1957456879216535 2.438932088854262 -2.889971075134271
1506 -2.4189957892283522 -8.393906905001844 -8.551174562114225
1509 -5.327402343421587 -6.568870225182435 5.682449140081024
1367 -1.0961041161791656 -2.785347673999633 -12.22507400399196
1510 -3.7689768779798287 4.638751775799254 6.190348473275359
1371 -2.3708938640060926 -4.232469076656708 -18.173604249220503
1375 -9.009911821728359 -0.9665412035574558 -9.58971694568216
1517 -10.99936377530292 -0.793497155746277 13.379489666787025
1379 3.7672414013245077 2.6625962569651587 3.8684936516438984
1521 3.7902706777439894 -0.9412987751638071 6.307114100101724
1525 0.7802371423292778 -5.9142013442843835 -0.42986191342313496
1383 -0.4847979053869578 -3.0478611632187844 0.1147924789084287
1529 6.49790722542315 2.033106162793442 2.186849465597898
1387 5.840810851107939 1.4923476592747595 8.324840346157684
1533 9.937077530464384 2.576758473516837 -10.295462511243768
1513 -0.9461332185752953 0.3596059108728793 3.346731951803378
1391 -0.7176017813130126 -2.09638829564735 4.347598817939492
1395 -3.1024332674679203 -7.732771695811892 -6.37695916860377
1514 -3.472658622233605 1.0000038248198082 4.823319547907777
1372 6.155997426876822 2.1229095530791686 1.290687865166981
1537 -2.2587880876032815 -3.675544207814529 4.68795540624564
1376 3.248918680181262 0.757780865119294 1.8211001649780534
1399 7.060473896436455 3.8303381057968435 -13.383843761736772
1518 -2.1176890744202703 -3.5966150231830896 3.8606011561447153
1541 -0.8228609738230926 -4.166916622386835 -4.878561808234866
1380 2.575645339028767 -0.4500845704873615 -1.680948764606493
1403 10.279875004359788 2.7872638367499483 1.810637876556053
1522 0.324253978657785 4.266470080147044 -6.850110074977421
1545 -0.10221872402537387 -5.226674228503455 -1.130844908736903
1384 4.687315242133272 1.5912642645981292 1.831152061466399
1549 0.8010555404650141 4.9543135214256875 -4.65130055709645
1407 -2.1749216216415737 7.73373353384601 -0.12135434814247131
1388 -5.896796098491695 1.7409376264695795 4.3402583413368605
1526 -5.872325724587696 2.9460034218184816 8.374011564990026
1553 11.033761052990476 4.991635644817495 2.7855653766134494
1392 -8.177031839958214 8.550062382573119 3.5998987368566344
1411 2.8989784905883624 -1.6910195241618895 5.704069020643022
1530 1.3443980936557678 -2.063606523108592 3.0568154811525043
1557 -1.4895380539904925 -9.962951315817682 3.969475390467272
1534 12.26674605842461 7.888396962671742 -1.21644890594297
1415 -0.985558061698948 3.4654748827102093 -2.423958980072778
1419 9.547576662514905 -1.353319584159002 5.865837871398783
1538 -2.6194555536207456 -4.948303743436678 -1.4474945055034034
1396 0.021222354694863152 -7.436308840134619 8.982704014886856
1561 -2.043987031223349 2.3262763546973413 13.871640172978234
1400 3.1651721887683695 8.231266515978787 0.41748572322547023
1423 0.1250765069019158 -5.5018010514782 -1.047631210026694
1542 4.03537917501684 -0.36532888840797434 -0.11584140621319089
1565 -9.516082095755543 0.7910538332233509 4.164853614159224
1427 -5.871423379012561 3.717965662688699 -8.442925203676012
1404 -0.2959837905994206 -6.7713433886168195 -9.30860516501646
1546 -4.865828495197949 5.401101773855797 -3.6085196857895268
1569 -1.4036615334232212 4.450553552321134 0.12857937309357567
1408 2.8709868613673786 2.9253765281429267 -2.3880645624398102
1573 -2.088993910102623 5.91511301998461 -2.5376288914477123
1550 0.9583899153555707 0.3502626545075148 -7.239489939104827
1412 2.541873222087666 -3.212429599965752 5.069025677357902
1431 -0.3082249651263409 -4.3712245289545635 4.9064215828068996
1577 -5.181411022886209 4.312677154644426 1.7326556560048316
1435 0.7413830972505526 0.46801614416590415 -11.454700541717958
1416 -0.5771099219794256 4.074008159452316 3.0165801990832075
1554 6.61996192775781 0.00405232407743302 -0.16258870290944163
1581 1.9057390287147478 4.413318194834932 -3.241936460385906
1439 -2.3279511862319446 2.834660920678081 5.062650678629659
1558 9.335271839589225 1.0030809638231208 7.073739443189767
1299 2.697482576924663 0.23900466660904626 -7.671943066456207
1562 0.23153658745538186 1.8249817393642147 -3.8499923296053846
1420 -1.8314156070428327 -3.34543244923225 -1.7501028102946712
1303 0.18435723863287654 3.056006309942216 6.286111131368541
1424 -2.9195122451791473 -12.879360397327197 6.049957373940024
1566 -4.77053237051387 2.0051945891839122 -3.149877631939889
1449 -5.482228452177334 4.857169078113478 -5.238005454307707
1307 4.115105302816646 -1.014942415555095 -2.772193079636272
1428 -1.343712253072024 -0.45622923929682 -3.016258407101176
1570 1.2515333544367604 3.5843102594343756 -0.10736765352755914
1432 -2.95726362518351 -9.270024868712047 -1.9452037255281518
1436 2.141803742409503 -0.2825829661242726 11.053956428550233
1574 2.4629716381808318 0.5239025179159327 5.785440197085413
1440 4.806085953631723 -3.3690137547404007 -3.8541653818729995
1578 1.319985366334476 -1.7064509336857827 4.013153662881407
1441 2.1167986598896995 -2.194025961867106 0.7388278772790391
1319 -1.35828979738204 -1.8214710213770589 -2.266697558483547
1582 5.032102669707854 5.318112603082385 18.3933219281931
1586 0.33691589138473077 6.929407585498501 -3.4963440873917153
1444 2.738380942255371 1.467671969955926 2.930970949544971
1448 -4.354971798656671 2.793781345101394 4.197676146039499
1590 3.0732589243022344 -2.5668138806046388 1.046596446193528
1589 5.197117025241481 7.019080982186356 -4.30985405671189
1452 10.081422392608768 5.164385549017946 -8.570158420770188
1594 -5.214811293460779 -8.719028763898013 -0.6761417790415888
1593 -2.62281214849214 -0.4692728471746372 -1.874961467609485
1451 6.917064124725228 -6.387757245263505 -2.7504730701058873
1456 -7.824103922403612 2.0892914731170262 2.6342865327183476
1460 -0.8202096534921735 -0.9726850068258773 6.5387181018122735
1598 0.5182631584287617 2.4305982928353695 5.614572348916682
1455 -0.921357582271421 0.7141722823362797 7.069279768374865
1464 6.869459157052291 -12.140970045188899 4.093671843263553
1602 -7.643756095405315 1.3244212501578092 -6.064846154404702
1459 0.5278678310671144 4.151234220636104 4.844649514383544
1606 -4.0770486934029035 1.9021037672458647 -4.164474556024898
1585 3.586751768352414 -9.669422241228963 -0.4174333951037925
1463 -0.8537417983574325 1.497489691032717 -9.41463471318915
1467 -4.058890247952945 1.028403111007794 2.001407636595255
1610 -1.3476428062491763 -4.52010120473674 5.367059771700118
1609 -5.913630281606973 5.806556303472815 6.265077527667442
1471 -1.1385848808279393 1.7280024792963193 1.5534911785255263
1472 -1.4071970611769298 -5.16679881938695 2.3432540035038856
1613 -2.0925387991150033 -3.609578358862969 -3.77465517774903
1614 -8.181887465325477 1.3048729813303364 -1.8162891112595358
1475 5.663459006370899 9.054637469084225 3.8938181573216775
1476 0.42219584327854637 9.381748119454146 -4.2901870668313355
1617 -6.266376721014475 -0.8782016000376939 -7.21316565013691
1618 -5.283027714700943 2.8372431788780696 -1.182798305997286
1480 -3.344632250257472 1.138492980885227 -5.056730609849412
1621 3.9364283380632643 -0.017353405504965558 -2.879874366179146
1479 4.904286796096738 2.9013682010158264 -1.3260606693057917
1484 2.9728468317405934 -6.155692174251871 -5.912285523311671
1622 5.982331244227574 2.5268696974253007 -2.297277792536706
1625 2.9531888628908702 -0.48640173598931086 2.3729209225490155
1483 -7.577532013217309 2.007421693998946 0.019366434970470536
1488 -1.4763366993218927 -10.63009908842006 1.0544367029950465
1626 5.706333276424026 -8.362657609743042 13.471014554465444
1629 5.088047385059131 -2.384106169430776 1.1201731694941044
1468 12.058881019114049 -6.8623134003683885 -7.0574018256786974
1487 -1.5370188095287933 -5.352978821110234 4.20198422619886
1630 -2.061086686589615 7.158651489387931 3.879160723516044
1491 -1.9300060055154025 1.157706343879014 -7.14624960595674
1633 4.233443274141356 -0.017637046654628643 1.986553477749114
1634 -9.349335982415143 1.308626816339298 -6.712640875999277
1495 -9.150190406758313 -2.8318818853468 -2.0005936601013854
1496 1.5336987984572639 8.203545214351221 -4.154747713349251
1637 -3.0566194935081055 7.604580180117585 -5.0782079406825025
1638 11.55103443410646 -1.1067766827075134 -1.475067815501044
1499 8.520336717092233 -4.5888603203954546 -2.7414229098323672
1641 2.965954370084897 1.65058105764982 4.623130657752466
1642 -0.9092962419787777 0.4617464786110685 6.5331687074894935
1500 -3.2796109119803383 4.158365280929502 -0.796635323481949
1504 2.798051841018998 4.944595946997191 -4.504644353093394
1645 -3.459186107187212 -9.399682203281602 10.988357114826856
1646 -0.9711916657014215 6.652246862169255 -2.622085584515204
1503 2.2364198391390944 11.748456439966024 7.8748801004511115
1649 -6.320214972484045 -3.692454547488863 0.48383297276666765
1508 3.9544660175954696 -6.685819045094506 -2.6998286469005577
1507 1.6002652668046895 5.984522318876267 6.18489477104751
1650 1.9125851373541733 -10.83073853231475 1.464446960038807
1653 3.142705089415082 -5.0995275143000764 -8.465120442814058
1512 4.992164435825765 -9.365617649643381 4.871626771495614
1492 0.8902450987579366 -2.2075652997927144 3.934723647052359
1511 2.529609969300881 -3.126784773587008 -1.3770841402971532
1654 -3.0984591348362396 -6.77670418859671 3.2914294166296805
1515 -5.376146913783498 4.04472974429914 6.265934046448115
1657 2.813037961671393 -6.877377861954587 2.1164396777555536
1519 3.401408639448408 -5.5404125816404655 2.152193920214946
1661 4.948386317254006 6.767106521169144 3.187656859402606
1520 3.8584714840358125 6.126029857991376 2.4885407640023325
1523 -4.6384968277444445 -7.6364059196245595 -3.413848968828433
1665 -0.4442744995716868 -5.242563842429458 5.141132231086711
1669 -2.9202856284175738 0.4194614456078177 5.035799608162197
1527 3.4825126444881973 -6.01481591980145 11.201917225734721
1673 2.0728975832890923 -9.884959753520636 -8.340261418275102
1677 2.6284345913603673 -3.2571686809481513 12.52655585518737
1531 -1.6633634567735354 -4.729958657870958 -7.940296084323873
1535 4.427809737366134 -5.420576342577062 0.0260416498715337
1539 10.715502029092672 -8.037711053318386 -0.3778845823362236
1658 -1.391795096009908 5.500407011910712 -4.0336414473870965
1516 -2.091539962847385 -5.61484785830508 2.6801369218062203
1681 6.912046619092713 8.9843495879814 -4.3775248099411685
1685 0.39028136794465995 -2.1637576082189973 -2.281400131604723
1543 1.8997817320591885 -12.60427209984854 -6.542380010767705
1662 3.6849005145354354 -5.887259737782938 -2.650725309839353
1689 -15.500220892588214 -1.0849755708930082 -1.9712035025818404
1524 4.361535767064716 2.2573848926961033 -3.756939243413842
1666 -2.1440734466926634 5.484475828462792 -0.3654731988564627
1547 -4.169661946549916 5.255034126673443 0.25367776751214
1693 -1.6714326590274537 1.6424974402079249 -6.529393540050579
1528 0.5865963393800019 -2.3310403318667374 2.0046942509360672
1670 -3.7228363207326614 -1.8825544297215246 -0.6942784248786199
1551 -0.46211605820052376 2.101502872871828 -0.68664916953445
1697 -0.6557338771979613 -0.39886199223616886 -4.112947213831201
1532 -5.736854548727802 0.5145617654587525 0.9061556071468297
1701 -0.006874375106053181 1.4168982668662773 1.9811373082980648
1536 2.977994018319797 1.5689857553402209 4.744577698379455
1555 -0.22755051973652665 2.917506462031836 -2.6537826533823625
1674 3.1994813359687226 -0.8649392171839798 -10.53488071303272
1678 4.371531639606266 5.100454031512965 -0.3633511213649577
1559 2.9137380470324277 -6.710677185203995 12.576577270516873
1682 -1.7995065524163874 -6.994384397704846 -5.275661003854923
1563 14.486654848470396 9.016430549245026 4.795634884696848
1705 8.87436510580206 1.4866459283610598 -6.867457397876666
1540 3.8639795290197885 2.928143538591574 -3.7724048080606143
1709 3.24384946751503 -9.505464883533266 -1.2633999773106164
1686 6.545740870661477 2.930304849939607 -0.5021668460803413
1544 -2.2731671971114222 -3.5339419774795506 0.7051958570156444
1567 3.712739929850323 4.241532693475994 2.171115697512641
1690 -2.8566793606793794 -6.5332554900676465 2.7137788786870622
1713 4.461943679423583 -11.06213637158703 4.231771546578166
1548 4.9571290992254395 3.974498077692807 0.007069323362704374
1571 3.002033501699474 -2.757477956884161 -1.6945134555831436
1717 0.6892033117817311 1.043997722722335 -2.2213133683652484
1552 6.398906014857248 9.569988108316752 -3.576583643168012
1575 6.649728282041031 2.354907680359597 -0.17103723013306654
1721 8.749882173891661 1.8748673315298674 1.5795171542563442
1694 3.2531057721581558 -5.333031991658767 -1.0584962107950968
1556 10.008896174672069 -3.1482747542046394 1.7338248574075894
1725 10.143305025300574 3.6317492712561905 4.363083981588932
1698 5.925349121956218 2.9396638253900482 7.63887702789019
1560 -1.0448400848140502 -4.653229237636518 1.1882654037464515
1579 1.1634785419983937 -0.7420929043220509 3.4601353400570063
1702 4.528962052071619 -4.705739194256689 -1.4616757606721713
1583 3.448533784828899 2.1325974845118196 1.4876964597263531
1443 8.63287951790348 2.366216099709771 5.3688803102729965
1706 2.332252564523141 2.7198054378466807 9.080909517666267
1564 -8.304851089806407 2.6219470829902467 1.0736314625838665
1710 -2.189313982769465 -4.516501444139586 -3.6293909915424356
1447 -4.4972233495612794 -2.232447110926669 -1.6185191344100116
1568 0.6538945200859566 -1.5037308644262468 -4.261668189598997
1714 1.3288304040720686 3.9897226625917526 6.425406082425715
1572 -6.217848396675429 0.6842992839923798 -2.7649849738528283
1597 3.017476226614838 1.256910202270361 8.31870949122963
1576 3.4168461978419016 -6.5966504607433905 -4.871861458188
1601 -11.975640147902952 -6.832752511607941 -3.2486921230759633
1718 -4.844965939743439 -0.012706301223611539 0.1199479732007141
1580 3.227361772021711 -6.328226876361882 0.6904482559987174
1605 -0.8140528521196877 -5.744039214698944 -2.8629274575078885
1722 1.8103028457050467 1.3645892933789492 -3.017113889789557
1584 4.024361114730441 6.5714415486112125 -0.5774385002478986
1726 -6.133657153333745 3.744292438891122 0.207168609471007
1587 -5.232391731823501 -3.688408243366884 -8.94801766114291
1588 7.8789909193652425 0.8618560346479468 7.457469165547857
1592 -6.746322371408596 6.055181997279792 3.7926717706816473
1596 2.6649103455572973 6.091850371136747 -2.977166424090702
1688 0.7148813973714288 -4.995014220288506 -1.0532894095673835
1600 -10.01441363383439 0.8803795901526273 11.435634982573717
1599 0.38179309627244584 1.2129771092984685 -3.0663766718372933
1604 -0.8761934027415761 8.993525063694332 -2.8332402247630775
1719 1.6294582929264971 -3.831939012461669 7.008312938404529
1608 -0.6368128866243048 -1.2296958916813334 -4.326732934741662
1607 -1.9078869780289496 -4.152044330950332 3.329790182604583
1611 -1.6618254816628864 8.177654803301074 6.513676436190727
1612 6.116258069818391 9.505279880607171 0.374218151932032
1615 4.031051538241934 2.6285970930601272 1.4049775384362047
1616 2.7152519867273224 6.149944381035396 6.394228984879355
1684 -0.0378757944032647 8.750633903142786 1.4539863378483369
1619 -2.3017526480228128 -1.4498063179415175 1.535104935269806
1620 -4.120209417314653 -6.138756266453447 1.1485508884214675
1707 -2.634634831076374 3.7232026869493295 -6.505019037108608
1624 -3.452905235224722 2.9361126123506547 -0.8231299699503539
1672 -0.22034352526521536 2.350632488949853 2.8718108194283527
1623 11.86498545309861 -0.2776179395348307 -6.020468436622506
1628 -4.8990120258306105 6.685172420307916 -5.174886391377268
1627 0.11839842765448255 -3.610566935150343 3.73486718961461
1632 -2.7431907042800097 7.814449221342088 4.01475430992147
1703 6.096629170682271 -0.3925567298970829 5.401999299164128
1631 1.7873544676532 -1.1787579727637325 11.853046589983272
1699 -1.575357928050548 -1.5706898779194194 2.5988366186915464
1635 2.78386459803661 -4.869899169967915 1.4022902715923904
1636 -9.46005836804991 -3.065841830543757 4.057656504033264
1696 -7.598918746767523 5.315252132602478 4.353241117126398
1639 -1.9880476539976086 -1.012018704449836 -5.930322358964463
1640 17.128736132480107 3.5668175857646673 -0.2333543724844346
1692 -3.032793377543564 -2.867528420023421 1.2372943900674083
1644 -10.114607901766757 1.7190660272177143 0.3651853748319872
1727 3.4084000956466514 1.2641077018525817 -0.32538753126009795
1643 -5.113861311466578 3.4469372657534723 -2.945556312600497
1648 -4.464668253066713 -3.206245396680058 3.789150855568648
1680 -9.672689916321874 5.7586728193865095 -15.481446791270423
1647 -1.2991411939874524 3.35611667494509 1.9089360310553902
1652 6.804888478261271 9.594232824975501 1.1056412484907923
1700 -11.791465022458244 2.56308081929442 4.142047908043326
1651 3.6621703569235353 4.845174802496445 -2.992005899134093
1656 1.7126808938717009 -11.150681964262887 -4.123353297557741
1655 7.015124602260134 -4.94982411462783 4.805368851107884
1723 -4.037869645897776 0.8932866676556915 -2.7934800438965643
1659 10.098175584496815 -2.3929863709728596 -0.8692788016204162
1704 0.33619918864919135 -6.4289563445531694 4.964369418459281
1663 -14.292789689526419 5.029496488122704 0.9069955802651185
1715 1.6669531517139031 -5.900793096122237 3.8481506772914367
1667 -7.661271348388412 3.3097508086525025 -9.214614039989351
1676 -5.7803036512945996 -6.484576325755038 -4.832871225640927
1711 5.784673387583026 3.452668498459494 -2.6001125644465803
1671 -3.574377484214734 4.394269558733978 0.22119795816372712
1675 -0.13901106064371102 4.8188460833908575 2.3295130202104057
1695 -6.4988437735596545 4.031354663862786 0.6155888292919257
1679 -3.011274054059258 -6.271440820291808 -5.9501232909994615
1660 -5.084144549101496 -4.113179375999952 10.6871831947075
1683 4.492207214003116 5.328398921300316 -10.624270379451957
1687 -6.09957323666901 -5.370731062613789 2.2518550965556234
941 -10.132875373438452 -9.555211847323362 -1.8778500969775396
1006 9.659043627700912 8.459285528862214 -4.797810940861681
917 -1.4705846544535632 4.22468303891234 -5.714055155638275
905 5.181159253330097 0.6861795274127382 3.347816824726497
881 -0.08426621485264317 3.4936436255226613 4.08454401335822
1770 -1.1023240037079214 5.591701747065046 9.558793184188474
938 -8.954507659599258 -6.257933359370153 6.371011388088981
1821 0.4056433033054378 1.3623578906772573 1.3674092580752744
1774 3.629307103649545 -0.9399221805723309 1.4110073537539816
1798 -2.4707085171074183 0.103741773602616 3.487795378463837
1857 -2.236411426532582 -6.6902712246638245 8.294854655918494
1797 7.700859035285808 -2.961379406100315 -2.2509126168602043
1745 4.850344225456991 -0.7897448903355778 -5.419156724642633
1861 -5.477827212767215 3.542196579539608 -2.380959343377557
1838 -4.376253566809421 6.013881128824619 2.7676183049105365
1837 0.8946051356381176 1.4733588195591354 0.8738185989170235
1810 0.3575737941254351 -1.03285519974942 9.40791759384146
1754 1.6652377544482662 0.3575098217598281 3.0659622631908965
1833 -6.262397300152716 4.841252107838441 4.253831130176408
1850 -1.8161158751557318 3.3212587905907935 4.73067659119432
1793 -0.24323064885025025 -1.3175297750903008 -5.850284909030207
1822 10.52196458816177 3.557406349024521 -0.6741569013088727
1730 13.301083180846792 6.666517786549193 1.6343142474092007
1757 -3.6077001549227945 3.7170568055893063 -17.28201494505979
1818 7.87712896076153 -1.1884756262067528 -2.8125274831922975
1841 -0.04668963870986944 -3.754003548560419 -0.41338197397646625
1814 -8.032113778597003 -1.8478329292226425 -3.9780791811754908
1854 -4.036080390051553 -13.926117733021592 -5.722442434352483
1846 -10.055877170026724 -4.044846525021311 -9.308728314588548
926 -0.9106585917356331 -0.8670680861986346 7.990877948022269
942 0.11277460452352686 0.8502741717230645 -5.039807939282601
878 6.215890139408076 -9.955939005772562 5.1733383248667515
929 11.519144043151943 1.6259224684841278 4.06494293691165
882 8.899635987762379 -10.45278475369677 7.3427079437257285
997 2.8146964594509183 6.954175919504719 13.077504929667693
910 1.154382242316291 0.9152290578324923 3.4143526399751627
897 -5.533603214634026 5.445439003388704 5.647233151434063
961 4.009863961374461 -9.921267684288923 9.94446459455633
965 -7.430407431417977 -13.416380956489727 7.529343920579432
990 0.931839820028308 -1.0935258584041763 5.518482770123408
949 8.28636304738024 -5.173673981216426 2.218658716700937
977 -3.5054381565673416 -7.8508719336050135 -0.9336792246622936
898 5.061421672410353 2.8688650447873925 5.3407386005004795
1732 4.493143051424865 8.01471693172344 -0.1607618008787815
1853 -7.691464621283098 6.919582427045674 -3.8696803759896525
1736 0.7165762263252969 -3.0659277700838543 -6.633188765937044
2572 -5.210792014754589 -7.088741953652546 2.3452457480159916
1740 -1.4123337963402331 0.07525545437452852 2.95159736141791
1744 -0.35421243189931123 -9.845252927088197 4.252811307500261
1729 -5.830930213335597 0.8634115655509442 6.066032153278808
1748 0.060929077264068786 -1.1093628881890591 -0.6623971419980798
1865 -5.084938011296435 2.7127345179007696 0.8052520094139463
1752 -9.538387231605338 -7.668154227914293 3.3763868653987297
2467 -1.5922125067455817 7.991079193098114 8.926092410495938
1747 -1.4052696670512879 -6.058403548650634 -0.9756486199447821
1742 -0.6718367413806766 8.358783890383139 -0.1495661378573422
1755 4.6792411913767085 6.366285341417406 -6.333218947044447
2592 6.434010167274753 -2.8192024919218057 -11.986861384116276
1817 0.9561234595501209 -6.403124261485073 -3.3362845476366276
1759 -8.11846214917785 6.965852417867009 0.6205474629169219
1760 -1.8032010799402673 1.4961502383060512 5.406100266364524
1762 -5.461797348018417 -3.94830511266884 6.942235714279022
1763 7.766892638110033 0.0775199169040207 -2.8121984957380666
1764 0.4239597784702899 -7.794730170741077 -1.9746851467967828
1768 3.860961249298494 6.454968891004081 1.1840370011231331
2588 0.4869491703200321 1.1710367053511803 14.974990848902154
1767 11.194190729127499 1.1355389742678064 -5.069374160242218
1772 -1.6684440034772459 2.4164043054869704 6.112679992402193
1870 -4.3269334065035725 4.431840899035925 3.0764006313163996
1813 -3.5450272791808506 -5.652546844098924 0.969991854535321
1771 7.811028431526981 -7.972953889284588 7.4249897189927365
1776 3.4894966764346798 2.532813672440765 6.864115939050314
2584 -0.8376695286387095 -1.1795687804409272 2.048543642443047
1756 0.553043139933536 -4.122261533807988 8.318874254227682
1775 -1.949063833997318 11.122888397116455 -1.5933319268462154
1779 -1.2265598042198573 4.933894571568841 -1.590053565358375
2580 5.281320713098043 -10.036345524037547 1.4327833950100486
1783 -5.210677931665248 -1.5563601248187975 8.904078630941468
1784 4.084724050934752 -2.7416586846288453 -7.4503757507593225
1785 7.097847912194216 2.4030188258637026 -7.898095384221613
1787 3.0878337804335394 2.8745793522678933 -1.5605610013555964
1788 1.6403331285848815 -2.7836542468597467 -1.7282760435394295
1792 1.0003130408333305 4.151449819911458 -0.12278380905834535
1790 -7.2845831471507445 8.020200656985775 2.462007818101238
1791 -1.6829452873003183 2.9907726062451214 1.786193344098287
1796 5.360745210329028 -3.472460161684515 -9.086635033060388
1826 1.3983245904900348 3.5861999579352055 4.440888880429867
1795 9.315165608830235 -1.6291986087995345 -2.762042458100316
1800 -1.2705928358489782 -7.282429559164448 6.6095285735096425
1765 2.411379515837718 -0.2381230474305756 4.3161782283454695
1780 -4.8798821390948355 1.5309695814634727 1.61683876987061
1799 -3.1560782433152657 4.193026707661993 -4.6572886817374135
1803 2.3431498152272128 5.82643130978476 1.0855954279812614
1807 2.0520137740967517 0.6216255531400832 2.035255951883328
1811 2.2754373220049953 0.9401932058106496 0.49598697093216476
1816 -1.3897665583917669 2.626444533020375 -0.1551119122990208
1815 -4.066265133407244 4.087465956432071 -2.8121201541077827
2576 6.145445617328921 1.2648978470380676 -1.873096015677647
2548 0.6689887948963141 11.667622786379091 -2.3365261291327855
2591 -6.609488092112904 -0.7444653758378715 -0.6567659503684627
1819 4.279770837558896 -0.5868274325808196 8.996817011705517
1823 -5.0993555661882475 1.0098114368088589 5.507381207580424
1827 -16.256407948209542 7.416672641451304 0.11997678458828955
2587 1.1167270771522186 -5.645526979753558 -6.9611256102722425
2568 -4.078951077606579 5.220184338236779 -5.389983930872943
1808 0.029933254097996177 1.0528707871336478 3.3817932427137145
1831 3.653110596535059 -6.0883473850344245 -1.5316026893152817
1812 4.392763239026383 -4.0289022578813585 -1.1476267056789673
1835 -8.842301520844902 2.140136775341113 4.0888517111702685
2564 0.19228404976804941 -15.110289875475916 -2.526758431505937
2560 4.927726561203328 23.40484369048432 1.0747199595320782
1839 -0.523987712979322 -2.378776780943047 -9.685353566365148
1820 4.780263536468264 4.568577300694679 -6.960513306831934
1753 10.930505621960078 0.27908002417124456 -5.2536466385896885
1842 -6.571437969400844 0.7955536764905692 -3.1927742233885836
1824 -6.598173503656511 -1.522847924416204 -0.11757790173003142
1843 -7.306997165585877 -9.135483566622044 -3.977781054828078
1804 2.1188353689760278 -0.5259200354181665 4.241320807964585
1847 -3.776266539703841 -9.292453573221302 -6.436871112030167
2583 -0.9571730531127 1.1323017325385183 0.31596265196188533
1851 -6.363339515346613 -0.778942730124562 -0.8777515129361896
1832 1.2832892413593286 -6.710941201048612 -2.6560666616818733
1855 -12.938669648155987 1.172073554269046 2.226636009068617
1741 -0.8384066688752695 5.1347157612076 -2.0087277704275603
1866 12.674277868647847 -0.8849257228351652 -2.0725588671715167
1738 4.494178124591319 1.4432227430607316 -3.2842343797968514
2556 7.665489036391877 9.265931385096621 -2.986066397594333
1836 -3.1028348906229373 -2.4563088299808857 -3.347289317360872
1859 5.060993104600052 4.911629172745811 2.868603809762971
1840 1.0960782852311406 5.082401950554933 -2.4185488970410165
2579 -2.0388555532025547 6.407437679683863 3.4771292922043244
1844 -2.70330419723687 13.261607679060468 -2.1930531829228843
1863 -10.186619394253974 1.8063095771209223 -8.047194978169244
2575 3.7776415110920643 -11.766320602864923 -8.59635889306333
2552 -5.011898008669976 -2.4205873935598596 -4.802366851546702
2571 -12.906922832399289 -3.719592543617298 -4.220654878485613
1848 -0.17500454639879665 2.7025921401658843 2.6143081227040823
1867 -6.615597140081785 -0.4513931469916314 -0.23418147964670272
1828 3.7866879287563546 -17.567703279768512 -1.2939953791772387
1871 -7.644437032918548 7.433291514463135 -7.964725068734814
1731 -6.006592941513238 1.4596790153354895 -11.38458673495839
1852 1.728623237245411 2.7957124001523077 -3.66697242052615
2524 -6.45471414713604 0.8499245963530492 -6.216769221143737
1735 -0.6186592649359454 -0.8836966583953934 -1.8185096118805752
1856 4.2636303571736445 6.156756948530625 -1.4551167229944018
2629 3.187248848914047 -0.012887828896297932 1.4350902267647396
1739 7.140961834471576 -6.1752024079639325 6.758583214730697
1860 -9.01425590753121 2.738200561931405 -0.5460209239713995
1864 13.295251751060528 -2.9303242444651483 6.541833445530841
1782 -9.588284629486507 -0.1680986391830536 1.970617500105468
1743 -5.6515164711451416 6.412599493741642 14.553629883848718
1868 -3.9422490331469744 10.48787970205131 -1.168873785848401
2567 -4.524411724008517 -5.063360909335689 -4.25802432382951
1872 -0.4402557346529396 12.529299257269203 -3.0816981927900207
1751 -2.8422978410547564 -3.943897614917312 -1.2560293698489549
1874 2.5952796015400175 8.301099003855434 8.765868768009302
1877 1.0798194570286657 -0.10188537224098479 -5.617319491963873
1878 -3.075868432140223 3.9922630847163503 9.537259386619114
1880 -3.028959566198245 -6.498363016921017 5.910591301618522
1879 0.9501481423039636 -2.1985395414829405 2.811701633666128
1882 4.103898442372588 4.979523031672311 4.756489503193964
1884 7.148759419868423 0.9141179296827572 5.260729222842271
1881 -7.131268537854579 1.7312884416981351 0.06295483230579042
1888 -3.1154325897910025 -4.47830941949417 -3.7046689654363543
1886 0.022180807533324777 8.36286714756243 -2.5669031243206852
1892 -5.008201737763074 1.7548397865390004 5.066609572858557
1890 8.510307194578933 3.419015292955412 6.921485508345381
1896 -2.9166193266663107 3.806523419480833 9.721958390376543
1876 -1.2306780566473914 -3.2051665981950843 -6.647624515798365
1894 -0.39223807152342016 0.5442265838116158 -6.083412985138392
1897 -7.635922263059115 5.775038695098971 9.117653400558256
1898 2.272076229585395 -10.711396098461444 -0.10202004310428676
1899 1.35156881632595 4.260988078713909 -3.0343417476873227
1900 4.44800125001827 -6.024707396655766 6.1856297173650905
1901 -0.9840631731574965 -5.004315920461468 10.882382716668747
1902 -6.061911937217266 -4.721107394449682 2.314634525275852
1903 -3.376861405415644 2.6531289965756377 -4.645654896237356
1904 -0.2716573032342872 5.133820396145393 0.7356313225981268
1905 -0.6146291851453616 1.3296266842540316 2.844742465429353
1906 -2.7919358260528284 5.957779991013503 -3.662025611916793
1907 -5.129185362334956 2.1570200679158957 -1.267785441251586
1908 2.2277936705616517 -1.8012355995091855 1.1518283411126282
1909 -1.600553001743988 -7.6301047357844345 -4.866588315508296
1912 0.597795283342186 -3.5996333340845568 1.975047978945993
1911 3.9331893675614444 2.45514816445231 -13.111223578006534
1913 1.6971832007407233 5.432712520441181 -4.0332906530471835
1916 1.289659847591393 6.5531240120215415 -8.558595908375834
1910 1.152988341235192 -3.7750995971236447 2.4450062098984513
1914 -5.303999405867527 4.477931325002707 -0.07926429892794988
1915 3.964189513736763 4.280049481391827 5.957643265957167
1917 1.253816549830776 3.954048455433154 -7.777237664976478
1920 0.6144684129564967 -2.9219685935694124 -7.26880350641895
1918 -1.851329786252108 2.1342436588229274 -5.023971884185643
1919 -0.874524523291287 -5.864435033380497 2.601066772856351
1922 1.2271376225091257 -0.5447580900337382 1.6983966055479909
1923 9.313972003375968 0.8194927325785002 1.226431060850362
1924 8.936184486692378 -0.6597170616984143 4.617241969468288
1925 -5.989541311698935 3.0142681379969973 4.183151779112085
1926 1.7792002376112714 3.1720824961986818 -3.6607622746740547
1927 2.812116445294791 -3.9584018035765975 3.3054983690760946
1928 -0.4239009387455814 -1.310142266931752 -4.936343467320308
1929 -4.143174996862271 -7.344490237602642 2.5530356183839884
1930 7.771510566700006 3.7221925568004792 4.3500742456191155
1931 3.466591913763019 -3.6638042846263033 7.902658047718827
1932 4.2558035675917125 0.8938213501345046 -8.574759575720492
1933 -6.577729840491106 3.561901870101344 -0.7510777004345419
1936 3.414740981926816 -0.9662143072070934 -0.8834463463675953
1934 -2.1778390154436194 -3.6211861701524266 -8.30580525361236
1935 5.195850639563897 -0.25549795129752956 -1.7461532583757593
1937 1.995084701676726 7.163798462348212 -4.282730960870898
1940 0.7092949407911201 8.106895816211345 5.366358384373895
1939 -1.0644400347813405 -0.14757872938299696 -4.266156206736935
1941 -1.0484893682659693 -6.752626483896265 -3.98067833751125
1921 -1.9091885376273439 1.8460403257143887 -1.6837016170240242
1942 1.0897652719012565 2.3477277280517863 4.350971897851159
1943 8.627726108475128 11.837655779448847 3.522317647757272
1947 4.266117018567228 0.689988053782333 13.339419185673375
1945 -0.26236902938147294 7.711120176354624 4.865376057652496
1949 -4.370508812542762 -2.1288610859450396 -4.040243981905264
1951 5.687834985915914 0.4909042729927355 -6.120457141677711
1950 7.723954359854686 1.4425797725932505 -7.069020763073701
1953 -10.036917545437863 -1.348969483062575 -5.285444748819188
1955 9.645418173626839 1.9915945018245191 -5.417832807893529
1956 -7.261898769343075 -0.6270318034966242 -1.0214868063854239
1957 -4.908572005486859 12.900203055947593 -6.100342149940775
1959 -4.825152977876219 12.357175070929461 -6.056502306870293
1961 1.4397702823716836 -8.22780799947272 1.6737747397795801
1964 -2.7624848509120734 -4.476059934677326 -10.773965883608062
1938 4.951736041390116 -4.508816178771921 -1.031644929591505
1944 -5.6101600226438135 1.9725599060197676 -0.09478035833705306
1963 -4.7526227188741075 0.40955881668046107 5.544067888265045
1965 -1.0852866797943024 12.501836827500153 -3.9501763455869727
1967 2.9341792177057955 6.273570821139123 -8.797191084109325
1946 0.8394514778734504 7.014245815151401 -5.01018724044417
1971 7.958992857045213 -3.7047280466726185 2.3848126738812865
1969 -2.1951299843948426 -0.9365039780605321 1.5513941101961213
1952 -1.7456950386856938 -2.9791145691815784 -4.1638671691459255
1973 4.685028056147569 -7.143384668236554 5.024420151376894
1975 -5.141646180334548 -1.9274209945583751 -6.967878591887171
1954 -6.717186687969561 1.4031064848977848 2.9468747979257848
1977 -4.986255236016239 -2.9073583476348444 8.594312684834167
1979 -7.613013888973957 -1.9891546975657268 5.424252986019061
1960 5.106061414340811 0.8443737430174844 5.562088956543314
1981 -1.912649277166151 2.3224387943977485 4.259265451301899
1958 -7.224004876077056 5.7349085583409956 -6.0851689860458285
1983 -7.84512628193361 3.1037853490059546 2.2278569531788626
1985 -3.769053385342721 2.7021974035703984 0.01762430552194745
1962 2.7828602561329867 -5.916896030634915 -1.4672540771253932
1968 -8.679702215857732 -12.023831488045326 -1.7057446829981124
1987 -6.2770607931213585 6.470776616109617 0.7353600133813712
1989 2.344229395001511 -9.67139516377017 -2.56403543348381
1948 -5.020338725133798 -3.86624251858208 0.028914568759389667
1966 0.5297063999616805 -0.6579790004522363 4.275696144712185
1991 7.75333133925387 -1.9827632059960651 5.9367699459689005
1970 -0.33377640165950717 1.3317070729621165 6.672579599596599
1995 0.17552626997811535 -2.6668360713919426 5.541540059380822
1972 4.6586483257453155 -2.949577345054434 -1.6773826117861603
1974 -0.6548162997616963 2.3134449051299004 1.9832599047909596
1976 0.7834274241208237 -8.578830120110075 5.082881152442855
1997 -2.3579042426768706 -5.803123168320928 -8.23414636676003
1999 -3.881006831747692 -3.1535360388519993 5.127184978565592
1980 0.8901992847153529 -1.5839735480478967 5.023320146002093
2001 -4.7021910149471315 -2.107706785218249 2.9610267004203927
2003 -2.306934138565291 -0.28732633067578084 -10.274198119223213
1978 3.413502626365735 3.0933642016827236 -7.508957373979623
1984 -0.003359339231777018 -4.4873025883954085 -0.0745650903127931
2005 -4.662421872270474 -2.674860023925614 3.4115931471686554
1982 8.38034752767069 3.885413846384418 5.55676135091202
1988 18.805883326259877 -2.5575594765308427 -4.278716991174271
2007 -0.9997363293337469 6.8669858941060795 -4.227399958152033
2009 1.7736113602984007 -1.064416362313046 1.8697890131242656
1986 -0.811004289248832 0.7339038090671175 4.699688112409423
1992 -7.0036883702652455 1.0511695937526186 -9.594076396909491
2011 1.6856508543336304 -2.8502805710099 -14.498120831253319
2013 2.4639286479294737 -7.705527485363625 -4.29926812417785
1993 -1.6685681818568394 1.105963493294153 -2.121602494519033
1990 -2.5904493623506104 9.950627485553733 5.355895480922986
2015 -7.533335650006996 6.113800601258896 2.428640570440018
1873 1.9001857560806126 -2.0064445287853645 -4.587245769881119
1875 5.824555907418209 -0.21619388666208803 0.1560306349358861
1994 6.257044444900514 2.8095300419532494 -1.6563650585599978
1998 7.711774356849722 4.560765871538519 0.41846556608997915
2000 4.233670754141294 5.980877902636142 -9.363470476628857
1883 5.689751158311327 5.0006017154850735 4.961719228866732
2002 3.887241888502662 -4.527067866711337 0.1067605956502064
2004 -3.785355941539319 -7.375985384634071 -0.6936684178933249
1885 2.496292940642894 5.359807090948631 5.669575274460523
2008 -0.8105250129335582 2.5371919026861445 -6.261228899339298
1889 -5.0710088740613894 -2.518986969460331 6.70306812068326
1887 -5.502331285314458 0.553987614805389 2.6288559207390447
2006 5.722182221395554 -2.2504014425291565 2.513963713243262
2012 -6.56876436682589 -1.0301240063974642 -0.9435821019387578
1893 -5.612614764538464 3.2208253729136476 0.4398393413945727
1891 6.271399667649351 -0.503670298451369 -6.921109082739545
2010 0.939576231931744 4.203820458703684 -3.600947553229449
2016 4.2627364622079025 -0.7326210400758849 -3.693940493125159
1895 -8.042773483264185 -6.123295332978404 -1.8835799242157243
1996 -6.1407317535074055 -2.480636503074193 -4.265939198057174
2014 0.14362899582477917 -2.878230477330204 -5.771640035684063
2018 10.495818055300493 3.064259374534002 5.740354370750154
2019 -4.062032605579013 7.678107193441768 3.6739136069892315
2022 -9.785313881301343 -7.31486362621625 8.300958454428006
2024 -2.6889813706551036 -2.1649175919870873 -5.539452525363023
2028 6.255042423165091 -4.623982794439851 4.269928032409362
2026 6.348504953894927 5.42729618315003 4.669664737210116
2025 0.9624223309126497 -0.5778312862323045 0.17874135252118725
2027 2.639023555529442 1.7986599117238087 0.4751407209430747
2032 -2.1638033247687027 -0.037533516814690276 -0.9539854288883965
2030 4.27975102881283 -6.605995202352569 8.081318250028797
2036 4.714247307958493 -2.7839754677462984 4.896266750161005
2034 10.00455847223252 -2.177087858822654 -2.531625788354575
2040 8.264278980258055 -14.964648455287909 3.3453345936286194
2020 -3.1700032610048265 -1.5739097430381737 -8.901413806179725
2038 9.36325675593658 -4.036556743400343 5.796698397992889
2042 1.8777701652029646 1.1568805664876722 -6.693847911280895
2043 -6.209283342233505 6.496914987376679 -4.453573536133311
2045 7.626547223464366 3.9214310495245503 6.9730859174666096
2046 -0.27859736555514014 3.592580048290611 8.37717869345367
2047 1.1842654691349643 12.193104917785194 -0.461114093003101
2048 -1.8538109730608208 2.8960452957842286 -2.949591084153732
2049 -0.6275367494201817 -8.088140885719433 -7.173377226854202
2050 9.470487711560473 -12.2369826702279 8.420044873893458
2052 -2.7070847432988705 -1.8143051272475184 -6.387588636495586
2051 -7.011952625476344 -4.0844865158068915 -0.2642581520255913
2053 -6.022678650157619 4.776860888522525 10.939377270274829
2056 -3.3601418497739814 -6.131913692941029 1.970658131160208
2055 -5.720179658146923 5.821607700637564 7.913487776424958
2054 0.8569743497431324 -0.21555993950352959 1.4435839425306356
2057 0.4950961333480033 -2.248987216198108 -2.096978192169634
2060 6.352158778045852 2.0745557440754627 -2.861561468388902
2058 -0.19456143414144758 5.3455849390385195 -1.7529885653420338
2059 1.8403740844269905 -4.110136397256595 -5.750619112506596
2061 -0.7473923051402892 -1.1226881849285477 -2.182054865159776
2064 -1.5773417738365179 -0.831172646189202 -3.3960185292367906
2041 -0.14789645921778866 3.3437119928379087 3.70163798366689
2062 1.305042787696667 2.879671056291011 6.871309337417435
2063 -5.368334481394041 -0.06922913210038582 1.2573967645447863
2044 -1.6358526915287506 -6.023755388465361 3.5661170012139713
2066 -1.6732306259673422 2.021019883224792 -3.9172039360650284
2067 1.1544694199855081 -0.09743497204446507 8.755117619351521
2065 -2.8209240804043905 1.4747448523678424 -1.0780777171518945
2069 1.9495973190354625 1.5852634771627487 2.2742468882305933
2070 0.30912069453841123 1.4342064388351745 -2.9173894290706595
2071 -2.6764315855815517 4.166222134659033 0.6348584043505501
2072 -6.906070503238587 6.8261829048133835 -9.81630043255538
2073 -7.538515417547566 -8.665500934025834 -2.86601211169692
2075 -0.6908056954365956 10.903303387335301 -0.5006133556446378
2076 -2.31021623990276 -14.09132589800839 -2.1609909509450933
2074 10.508884239059215 -7.72110412712874 -3.374690910426616
2077 -2.449478637244061 -3.8112113995241055 4.869889946007261
2078 2.307320404379228 5.768975437880288 5.232389110209631
2081 -2.9583032939496827 0.878496117749061 -6.469898792623328
2079 7.711475805620256 -5.012438493517779 4.99788656624774
2082 -10.604610389613091 -1.8271449102718924 4.06614796641924
2083 -4.169294393950632 6.527897954738718 -1.2544880868095776
2085 -1.1711160450027658 -4.203620135089063 -2.9714811783585593
2088 2.054944097398235 -5.97140666037157 8.968898413815955
2068 7.2690367723150455 1.3675101056788217 3.2892687603321167
2086 6.044181902353718 2.1228568816523374 2.4997560924411157
2087 3.3217504806721143 -6.211548011748276 3.600607211720942
2091 -0.27766577224341416 -0.0703398028469829 -3.8791663052081504
2089 -3.1736964686283113 2.704913779645875 8.130928905808426
2093 -2.076471501269111 4.507438977332445 0.10760641103658604
2095 -3.3054567214692714 4.063930282784548 -2.2537748055406346
2097 -2.6000684218835306 -6.798858363958637 -2.6705381070247425
2099 -3.0921084232135234 2.085148171232623 1.2319480572382366
2101 9.162740251378457 3.7301404812117616 -5.980170521183979
2103 -0.49869962279957325 -3.2016342462897347 -9.920225419502346
2105 13.738133233154496 6.827284977391008 0.9373773239656089
2107 1.458036320706492 4.795379980881897 -5.783276950650753
2109 -1.2346282401095665 -0.05456706489338893 -6.2627253364768585
2111 -5.257146707813901 7.3829278227119755 5.897051163489051
2092 8.169760398293432 2.332401793742626 3.8389959048812403
2090 -8.872513308768337 -3.3142128622199096 -3.8969422837695706
2115 1.793761316076476 -0.7374690623712786 3.6856706350349886
2094 -5.29835649674664 7.911194182075061 2.5915506150378573
2096 -1.6248231979655912 -2.071952699304279 -5.636031955796505
2117 11.424759263603747 4.565830718764683 -7.678985907676562
2119 13.809452291819266 -0.4182263813631199 2.295617319230312
2098 -2.23437881901689 -15.188649948915783 1.1346002980737764
2100 2.6501848262779304 5.373591399333628 -12.064296822722328
2121 -1.704976268085234 4.71992887113952 2.4797388222220516
2123 -14.885157956761592 -2.649881650559596 3.1542587358517755
2104 0.3648442891668796 3.2183170998947563 5.8585751145513205
2125 -6.106152804746106 -12.313338060675362 3.3880670013187437
2127 4.386872097437656 4.038322243524119 5.425516446445272
2102 4.809623872104885 -1.4828107474712802 -4.8352807181393676
2108 -0.2042967269656214 6.1764422163649435 -8.44454393665511
2129 2.5135381739670812 -6.841772569577725 -1.4607272883030973
2106 4.184585799717242 3.333510248610958 -7.672463138476671
2112 2.4917701454001784 2.5304553767400897 -8.994010239916165
2131 -0.13580117902881847 -3.716482065465468 8.158162288950274
2133 -1.1880292171057742 1.3070165319232794 -4.183288354008468
2113 5.118272381917055 2.492759719624883 -5.643924372232018
2110 -3.915397419511391 1.3486855894480987 -0.48392875444918
2135 -12.199757015989373 -6.986541108150795 5.035247264527403
2114 1.9491548875428102 1.5972943350793751 -1.4702590553884665
2139 10.891714849267137 8.850250799776163 3.9885254062284923
2137 2.636377681148393 -3.954449447093875 -3.0120145758149905
2118 2.6392637405620425 -5.323374845269932 8.151352321075155
2141 -2.5068377643569 2.5441139385589344 -5.76033712613687
2143 -1.4996805180140407 8.265360964269076 3.0340707187790965
2122 0.979146488139189 5.963109598365014 -6.315232125964257
2124 -6.346805690530251 -0.364019165884815 -4.417890113323262
2145 5.992375518628446 2.206424152536242 -1.195466575488339
2147 -1.061451216511851 6.396645895127285 0.5714758178240711
2128 1.8960564095815082 1.556121770789538 4.619941075749246
2149 0.5478082032272853 -7.968612425109418 1.4669857457146238
2126 -8.264297528804214 0.2988297115946437 4.463003830806347
2153 3.1580517715607512 3.8864543377403207 -9.387929998250376
2132 -1.8309274992029994 1.841760377818828 -6.728855000433039
2151 4.811376846019348 8.699259911729134 -1.5165856129636852
2130 -7.162230450258159 -1.1972969311020016 -2.3677293929232532
2136 -3.578329690642602 -4.523551807134429 -0.09243735802493284
2155 2.1952238406612676 1.7998961598184615 -8.163313339017751
2157 -10.462796105185966 5.001440675722373 -10.34021980502863
2116 -1.510505444660955 -8.649536488416516 -4.482243193197771
2134 1.6120875423280054 3.834804502516034 1.8519376692097342
2159 -9.913666727626522 -6.54883122027718 7.388263762419353
2017 -1.0334125987350016 -3.9037251142776057 3.7436524167849523
2138 9.58332158703429 2.9658463176405174 4.337116258397789
2021 -0.9078091225259252 1.1696897187684627 3.944541456081866
2023 3.078361970330296 9.669161433791045 2.7340452648575457
2142 -1.7345410899713538 3.7048466689141617 -3.6692719727011394
2144 -6.874182104077288 -11.203102036718438 6.514469820319017
2146 1.5857902884915303 -9.229626740837903 2.562563315104932
2148 -4.59428914869072 -5.379562219452701 -5.439560611819415
2029 -2.508927481985887 10.541085608443142 2.61705789496169
2152 0.06630857110540332 -7.768329525617215 2.162568838732792
2031 -7.320599080122289 -0.14526304256547504 1.3249489146505053
2033 3.013681740255277 -3.526679469061571 2.1084695695125193
2150 -3.865632135007406 -2.28510996236139 5.669018674344901
2156 7.565111533666596 -3.597324703948821 -2.0740681183156013
2037 -5.599184031351696 -2.697293123925901 4.378989431059437
2035 5.7941561526864795 6.2064712164558165 6.111952527124359
2154 2.2021751618535297 10.998289496088598 -5.760063773820287
2160 7.274624851969455 0.40058007759817865 2.890103534285905
2039 2.5697454789441565 -3.772137994828062 6.82679203652387
2158 -8.58858867321154 10.199165756496637 3.8041826594573567
2140 -0.04840140045438883 -5.81559657761417 -1.1627620596942239
2162 -5.235970321579861 -5.282907544309331 0.24716285827421391
2166 7.183425740762694 -3.6230070462757644 -4.988450282136104
2165 -1.039815142983557 -13.367853510841238 11.576024349831005
2170 7.943748719869245 -0.12548816893323864 -3.1842193168579263
2169 3.7554854352770115 -1.978502827102045 1.2849647857915263
2174 3.24175813799059 -4.722653804527308 8.068824034863598
2178 8.005112244308467 -1.9452997899319648 2.3330163097904113
2182 10.208729151967807 6.160936114791945 -6.044027786054898
2186 -2.6923308377751547 -6.32204565811669 -3.8998394977766333
2185 2.758399307227503 -3.533365546963673 -2.980713200365398
2189 8.115408369514737 8.477016792541354 -0.7727640840631639
2190 -4.520271840690156 9.240709092660085 5.210323535812758
2193 -10.561039305399419 -6.515725765138185 4.683227061445055
2194 -0.9475541329107934 -0.947101121962954 9.849752382401151
2197 -6.195016708880182 -0.2656637130008944 5.655832496550745
2198 -8.475043549006518 2.4288225980544804 8.449500613126824
2201 -7.444193174786912 7.38962207768005 3.581941016971098
2205 5.750537486036261 -7.145267251652939 -3.887666054099878
2202 -1.1401068441846502 -11.49589322357722 -13.422333913041282
2206 -0.6338233610163908 7.318703125899079 -0.2601988988021656
2207 3.49251591881692 2.8531718516001603 -5.196250397741587
2210 1.1572187549089155 5.312297021279239 -4.015557198905363
2211 5.589822520574632 4.840344825704228 1.5089494412496316
2213 -6.694945543526797 6.172418480537336 2.6559424631585573
2214 -8.44398483355523 -1.6383592003351077 -3.9701373763046446
2217 -0.9078974395588187 2.969490618469081 1.2180742331252026
2218 -0.7114819995023949 6.619781062422555 -2.2677832636613173
2080 -0.22309288123267065 17.275685003213763 1.270611493656704
2221 7.6948601057334765 -1.0516364740527357 2.5718520082964993
2084 -1.2689217446311634 6.014205461585272 2.9545455637579345
2225 -3.829716096589551 5.272393047779371 -2.048578092392774
2228 13.731403417997734 2.6534314409498516 -5.3207735449829014
2226 0.6923464680132615 -3.160014648901976 -1.8648588715584462
2229 -6.168282831335983 6.596706696674855 3.278334756161278
2209 -13.819472754802923 -1.6520524118664437 -2.5019783087398744
2230 -8.703704112617645 -0.9588884656929212 0.24576624125725693
2237 -2.2818873216564364 1.6306923417244519 -2.750580465481548
2241 1.962976990453458 8.213150544818559 2.9162844086500472
2245 -8.392027568652022 2.748463024362358 6.550124870155464
2222 -1.9025433388751798 -1.0824572328843878 3.9027495712448257
2249 1.8587025820252299 -6.829452990834294 -9.759490544889383
2253 5.885219411956972 -0.46071125713462086 1.0158579834962058
2233 10.119332437735464 -4.76415741239354 -2.2321846072016105
2234 2.255814048679361 -5.058074189831228 4.0030663947203085
2257 -1.3871053890700349 3.6455800960773215 3.56324425672706
2236 -6.968427368069467 7.3847982848723825 -2.61442767747124
2238 -4.746849404620366 -2.103789020902737 -3.9171148429987834
2261 8.437810168896464 2.900699885599145 1.5448725504918006
2242 3.6801260683818047 -1.0008604350592716 -2.1146958772093147
2265 12.564301511659876 -1.3640272875601072 4.06317198015315
2269 6.405392925805509 5.88002518656997 -4.912462442262052
2246 -2.3473310830253014 -3.166822425728298 0.46461103819078753
2273 3.01667305555286 2.7824641373701833 14.081526992232641
2250 -2.812245315588696 4.862488265988757 -7.192337368165679
2277 -0.6128906217170303 4.8389706023404795 0.2806484834181568
2254 -1.7021128416179443 0.3723575506840725 -1.707929029015368
2279 -0.9788445780549792 0.8495797264313782 -8.182891507935443
2258 2.8162866817580197 9.03768836420758 -3.546442510616693
2281 -10.423139009482748 -0.9793189638422004 -2.838691827704328
2120 0.7491151688281813 2.0136567947692825 -3.9951922389329595
2262 2.140049502811696 -12.310112534249832 -1.3179829137200756
2285 7.85503020961417 -0.4930544443521561 2.1093277829789994
2266 -0.21770504321063658 -1.2654397826987145 -4.788301034059673
2289 -11.690940779232573 -2.6959002740263096 6.147571241826798
2293 6.4534563391975075 -6.9508580930272785 0.5034532924444899
2270 3.045015418600539 -1.0356227708309633 3.9145229220859137
2297 1.8047376979478738 -0.6771402937337313 -5.400174486731156
2274 3.714881002008218 -3.1084654034145753 10.56307086118435
2301 -4.915169452191197 1.0637113136742053 -2.511076950889419
2278 1.2885112707071271 4.915790447552162 -0.3966060649013276
2282 7.241285321319627 2.0110796077752338 -6.645264725244506
2286 -5.152956420021204 6.040012086611175 -3.425862042298346
2290 -0.7123802700989038 -9.244831782239615 2.0497503765746883
2173 2.4911933303468534 0.8934071271782403 2.4830633781139313
2177 5.781511201408735 -2.5340898078271703 -0.18804850111319912
2294 -1.652445032217696 10.922750580208568 -1.1116324042403596
2181 3.664717810196996 5.902497145899152 0.3400184029197287
2298 -0.015355059584701314 -2.309330675152518 10.098788107355949
2161 5.570566470478297 2.9956458649930906 1.2804775025244892
2302 -0.9197651508949909 0.44035197410066496 -0.4686117104423366
2306 2.3452362852045305 -2.8719194050116976 -3.874394459414013
2164 -2.748863266204339 0.038001541779986235 1.7437858526106702
2163 7.148561169861541 1.446594341104174 2.4038631477289107
2168 -6.618513795648051 -5.231235701803711 -2.0174037245967043
2310 -4.500625507507763 3.618305556910873 0.7080945766270801
2167 4.553140472782472 6.3015263125828005 -0.34122455470827345
2309 -4.582098153780602 -0.11515706809800141 11.27359508843108
2172 7.799587448800095 -1.0558311288900801 -1.0018246534024442
2314 2.147440516575013 4.489547910849302 -1.6679777898452661
2171 -2.2968524897868887 -2.8709179267117637 9.151544019166623
2176 -1.0782703904371886 5.390247328384327 0.7626432952885932
2317 3.9406971356214298 2.2907401078972733 3.3204280151217924
2180 -2.053213466556359 2.5145246761558044 0.40845253370634066
2318 -0.921226872754167 -1.9090549091542224 13.522785860427673
2184 -0.3561274481599054 -1.3496661073760452 -6.2058872014789
2322 7.583630443949045 2.3281425504367124 -3.0237519843383116
2325 -3.883730734581099 1.5717678839024334 -4.83318943035361
2326 4.314999175810289 -1.5833692345884616 4.645788806381954
2305 7.485197301232472 7.354221877886906 6.00788477028506
2183 0.29661349684148197 -6.270453259752478 -3.907338202904561
2187 0.8596646701097175 -2.252691801412173 -3.2100632987706605
2330 4.054229365419066 0.7141850232288942 -4.109450992122076
2191 -1.7352394535801716 -9.417156017759078 -10.213721126192258
2192 0.32824966873907213 10.728537936927054 8.731271579236848
2333 -1.9501891404314997 6.454848604935948 -1.52019099742704
2334 -1.0777054439386722 -1.207789409779759 -0.004240994270362527
2195 -3.9987020541009115 10.257959811097882 -1.57617165838222
2196 -2.995806141605214 -3.1516386504260283 -5.534918554500315
2337 -10.695366505521033 0.1281160823776628 -2.5764469347117216
2338 -1.6029902305296695 0.056759788592388796 -0.7535821329449943
2200 -2.211114747339277 -0.5002650739087722 -1.2220703457764321
2341 -4.996917623242261 -2.4508757221944375 6.14473909855188
2199 0.47393500902008234 -3.218545437477007 -1.4851411645354378
2204 -4.850029704322481 -1.0720759196841099 1.2054836227733114
2342 -1.0678102073222695 2.246108906261029 0.8819702053278481
2345 2.08152436956223 -6.0928704703547485 -9.980213935824736
2203 -6.951500023837704 -4.647823309871351 4.59172124035629
2208 1.4011747257091747 12.429820145739324 0.36181023555551173
2346 6.324168036821426 -1.939893730305783 1.9006034462844796
2349 9.255858849221525 0.6415254820143624 -9.289022341497581
2188 -6.291667354463631 4.128827565820375 -2.171723833479213
2329 1.6593272216023855 2.0512008576070597 -1.305481174333116
2350 1.595660727297752 -1.5694345053868688 -3.6222233291873245
2354 -6.287069725593421 -7.798332511267216 -0.6280670591468945
2212 6.572889433917696 -3.985560968986048 -0.5015037447627434
2215 0.7385244240138364 1.3313207745045406 -0.4139426828720709
2357 -10.665972593348929 2.3672361578897276 8.082986936229398
2358 6.286091900687061 1.5728317105065774 4.852177868336753
2216 0.7737050884308779 -1.3677879670593023 -3.474252415589826
2361 3.3686975587825403 -15.00845043038321 4.47288044631485
2219 -7.235049229118987 1.1884516224052217 3.3353051351525234
2220 1.536643568020607 6.403177195583895 0.1509859642134052
2224 -0.4744733301853128 5.657320098176998 8.475990973173756
2365 -0.1895751340572676 3.1027892682923874 6.473171827835199
2223 -3.174155994314675 -0.7004806237316191 -6.76223965387829
2369 1.8861303677605823 1.6591757376668779 2.6919586098527204
2366 4.094327451619237 11.309646601825964 0.47965631834763983
2227 -10.606398122194955 -0.04041227346521433 5.2912577387243855
2232 -6.9245541910523665 1.4414777430241836 3.9802972418119285
2370 6.952053129110888 -4.533091639616509 -3.566966810952309
2373 -1.7178768441727492 -0.4769014617651185 13.510582051886313
2353 -4.4289959107779255 -1.5231121557161904 -10.417286304283245
2231 3.679627878405509 -8.704422262756813 1.3714990152771889
2374 0.5702611752627254 -7.5363021696367225 4.802732757489803
2235 -3.7092406298115144 10.523513813554144 3.973751647849385
2239 5.270161302916397 2.814617287111749 2.073048384409668
2381 -5.7649616378804405 6.415628955498822 8.32169394768328
2243 8.856556226433174 13.587681871128375 3.235907597995584
2362 4.43729505893873 13.215174562988961 1.2656420698884217
2385 -5.759332715236812 6.207608594931524 -2.7643809408598066
2389 -8.857179371974548 -5.166548666902341 4.5211634784330315
2247 -3.4714316549526814 -5.327372770183636 -5.048083677143857
2393 7.38200501858433 5.425856804509323 6.214832791568893
2251 4.7455142823460585 1.311815672320295 -2.1676333371399954
2397 7.16316340419113 -0.7264188920799027 -8.914125374314256
2377 4.3040912971840415 -1.776697092432214 -8.553382938553792
2255 0.21179062150756336 4.85098188596424 -8.241277198594455
2259 -4.747025346142963 -8.782759945223052 1.033484191342502
2378 -0.5042665623836371 1.3078954745966416 -6.614073400895711
2240 1.129623329119172 4.053260312621764 3.3178082441770256
2263 -4.008366926096603 0.6124082414494476 2.753379915082192
2382 0.3191285461249036 4.580632265874271 5.564272168006104
2405 2.5092365242575396 -4.514147044476713 2.2574399099510725
2244 10.451093304644248 2.386642240715705 1.1523564173321412
2267 -2.0333062767116608 1.3964673002614867 -8.46453265674661
2386 -3.494215479174912 -0.03059563331653387 2.1742156751027646
2409 -9.976734238913554 -0.44029803935339046 -0.6358705689663854
2248 -0.19035566068326285 -1.5770570790089782 -3.755368577908729
2413 -2.5410933356898653 1.7123754955549195 4.860442479071418
2252 3.2011210022657486 -11.789804498874586 1.6089296446943901
2271 -3.432590563688145 -2.2576415685848232 -3.4785339439013265
2390 -1.1854605549428057 -2.064428187807902 0.3426680785820383
2417 -1.7546789349484295 4.548996882050997 -6.25107680285703
2275 -9.09333415694733 -7.862259060891341 -12.571308091199551
2256 -4.584996734800044 4.5858478173774095 1.754419360414374
2394 1.232545292984353 -6.16154731854107 -1.0895217109828224
2421 8.264846460705455 -7.034522128633882 2.359381436999244
2401 -5.303758266273883 1.3225523259942895 5.213933417623831
2398 -1.7720966310570574 -3.892989609081799 -3.4498701933976674
2260 -3.7803590631030004 -1.8533123421492963 0.10044023221978465
2283 3.1978126229035926 -1.5159308512945395 5.971166407488435
2402 -4.940309639661077 0.35139116982997753 4.684989456061088
2264 -8.757289679294255 2.547838772662702 1.1646477619370956
2287 3.328942341236578 6.05150014553386 -2.439573331809192
2406 -5.875451662404053 -0.46572139207044994 -0.7627192494892324
2429 -0.9373225598634131 3.9050337130832666 -2.1764333198042665
2291 -0.6400149546690578 -11.707388474218293 -1.2802524765574783
2268 -3.8813436513691646 0.16994029088277737 -9.286390414404204
2410 -3.8832833618624214 -3.791737963846208 1.7056120968551136
2433 -0.8625639969925932 -0.7449234550866891 2.6235113670109995
2272 2.5081534568761477 -0.3502504950949691 -4.434656373987752
2437 -2.5261818501792415 5.7328138803547946 9.784274320252079
2295 -7.666990050282002 -8.30593415743932 5.491424845191886
2276 4.699800657733385 2.439491740069404 2.1619850475536
2414 0.46146477871128155 -1.9974018593435772 -7.370655245676608
2441 -0.7856795339199948 10.552432948862583 7.799054458954231
2280 0.6751923334845844 -1.9368099685237135 -4.250174896063035
2299 6.6650264990816535 1.6336842559418716 6.434384339802236
2418 0.9852081513438724 6.893799849922697 3.0919774054138056
2445 -9.626519707309372 -0.9603470261047131 -0.16313876606036984
2425 3.2142458186297165 12.791262249735663 -3.444271428272593
2303 -8.282642474633999 0.2927487548969562 2.8312548488575606
2422 1.0118265232583379 8.916475415610078 6.054646636334194
2426 0.1203154980122894 -0.16419601462662997 -2.108021027010922
2288 7.57355600176451 4.577142588016672 3.680529596281423
2430 -4.760920778283443 10.04210860046129 -5.227066989586847
2313 2.8766272155536505 -6.044854892537237 0.13537067691918225
2292 -1.350146431820787 -3.977507059245716 2.4916106012439494
2434 5.524429105525183 -5.285307768565555 3.0343410052272555
2175 -7.937099120897448 -5.1290978939889795 -9.969560683875295
2296 3.2112785828991877 -0.12235364548726073 0.27387558760127545
2438 -1.0318078700571047 -6.767087343721491 -1.6011573890519513
2321 0.4999263725752587 -0.07815552492098923 -3.7495253630344147
2300 -5.223881147572934 -6.978148871783255 1.5200139287278045
2179 3.0681483002854013 -10.057331895978583 -5.704381780355767
2304 8.587101307842575 7.42081553632131 5.309280408792792
2442 1.1231836167122267 -0.04950626152987658 -3.4236860173023915
2284 3.9579320323132796 -4.295080244610884 -4.480055540070586
2446 4.2456147258686405 -0.4079082389909073 9.038969046061313
2450 1.1079222185942372 -2.7267947721528816 0.8067897395003046
2307 -3.1633180532649163 -5.80464313922333 -0.9622532125327566
2308 0.5478723345632411 1.6414144235845383 -4.2408694812739975
2312 -5.809783737616259 4.88743390038054 -0.2818449941047233
2454 -1.2110349672805198 8.059529964635608 5.323884797327648
2311 -1.8033835384017394 2.3798003020307075 -0.164681167260487
2453 -4.303937489732324 0.7173809492808434 -3.6487806494815467
2315 7.836478973000115 -0.037975576355967454 1.8729757273332024
2316 -1.3719696232928569 -9.829104115402767 3.420499190854801
2458 5.729652479743293 -3.51263661252333 1.5386337058136317
2457 -1.4716414698753433 -6.351556699563364 -0.8421048420877177
2320 -7.274399596808599 0.9364057216169684 -1.4762332870124237
2461 -4.083637605617898 1.752687325954317 4.929875219338632
2324 -6.189074457001989 -8.624478730001698 -7.325341889584267
2462 -4.803472888950064 -2.1520775793673477 4.357542029950347
2465 -1.471130167773726 -1.4837143320338524 -1.3613306771411986
2319 0.47801725263622474 1.9085537985680778 2.5431150418761486
2328 3.324863381053075 4.176074801435995 6.908063231062531
2466 6.2586353187501125 -0.048724377779415205 7.921746157802635
2323 -7.846605834504599 14.72454733384121 0.9006282233313029
2469 -1.3186877371722967 -5.2616451613060065 1.7073050545056767
2470 -2.609441695234333 -2.164686340069517 5.783043845392235
2327 7.278463189315262 -4.741916370850775 2.835853032469355
2449 4.871382620130379 -0.7160871964053096 2.672201027002383
2331 1.4748101618611928 -4.905650566308546 3.8336389228097145
2474 2.6353481221646313 0.4752455719319044 -1.9091881019901886
2332 1.2722870621240432 -3.218030112504601 1.4894400331038267
2335 5.0110115255861025 -9.185232901345277 3.4248572031579223
2336 9.42049888048805 -7.381450241497315 2.3021416579644933
2477 4.826040812173402 5.073633319102791 2.440784312556385
2478 -3.490271489323849 -7.490044119503097 -2.183083512672985
2340 3.883636878836096 3.146431497824151 1.6060096182736339
2481 -0.6955857379567836 -5.279991954417896 -1.5725814082129184
2482 -3.761868791746185 3.7262884937946414 -3.6777583951268937
2339 -0.357411290905409 6.173256236957459 -0.40888811175375434
2344 0.622859394058095 -7.223372198073272 3.510262430592841
2485 3.834628333969136 0.4740436610790211 1.5566297455530966
2343 -5.88834855422979 4.237658685614588 2.772966762994141
2348 4.217062762174497 -2.8232537759800507 5.872791767348173
2486 3.190119950214473 -5.206149704889734 -3.947075333807625
2489 7.685194990706217 -7.4496242898946985 -13.05381016480992
2347 0.7828863042760705 0.9344560093274522 2.419322319071861
2352 -2.1035728412721424 -0.22179265232065212 3.986171782962097
2490 0.9193164715157368 -5.463914926593787 -6.5262125080994915
2493 5.21868042930932 0.8879519488681674 -2.2561121060158564
2473 1.004909518889016 -0.1360635140005076 1.378169386091447
2351 7.6765368133383065 -1.8686963023313328 -2.5396312165065424
2494 13.074884978472603 6.899491272618947 1.4769326484960417
2355 -3.052320021894285 2.5214145061601134 5.848728316203343
2498 -0.34026699514115144 2.2649504302251775 -0.2362498782175914
2497 3.461579279588462 -5.237342871129156 -1.2103618354458567
2356 5.975182199808867 -2.686889421383933 -10.895168129794492
2359 2.772828114813943 -3.121132111618577 -0.1892095315492421
2360 3.510142208576995 -0.870937921796991 -1.9736600793317582
2501 3.4857859666130313 0.7005291511242625 6.655940319063081
2502 -0.02842481934161809 3.7167528526131473 -3.0522048398815023
2364 -5.947241171926152 0.6140037092387883 -3.3988040112530036
2505 -2.3667734869207617 -5.1978798647293525 -2.9118947977284013
2363 -7.797585165216662 -6.219105871981145 1.8377207754476577
2506 2.6460933393476656 -9.843505698530832 2.6750676587548208
2368 1.1888962370762868 -2.282983095440021 1.789079335028214
2509 0.267852577985739 -0.1133394583174704 -0.7657043906220755
2367 9.008863094465758 -4.3155122669783825 -2.3002900435521805
2372 -9.951193586787282 -3.3758266804752886 6.408827830740646
2513 -2.5180503761823423 2.0267422696360877 -0.08030648219095193
2510 1.9262639077511774 7.608622669448228 -0.11533072787540834
2371 -6.661889099983712 -4.824924614867708 -2.2265569833544547
2376 2.273527992131778 2.820043305979496 -3.0105896981543334
2517 -0.37971739047268593 3.2204862739014133 -3.7896699925886144
2514 10.400706701007742 9.34286983985665 -1.064906865201804
2375 6.649091541922208 2.1932895368673933 4.332762555938078
2518 5.637609069878807 -1.9144329349737377 -12.339466156750328
2379 -0.691554136490245 -4.598933734841869 0.7041056835954741
2383 1.7943582134881435 2.762194144453836 3.5977610066441263
2525 3.2617887132214736 3.356900429589711 -1.331154275292388
2387 5.340190539392258 3.46220373407967 6.060471483547306
2529 5.825291990308002 1.5141507429616587 0.0749842536525904
2533 1.3286469877458138 1.0144975745987725 -4.319156609338992
2391 8.171460084454425 -2.4074394525146117 1.5849058681968518
2537 3.4333037821466488 5.6743923438866135 -7.84276714066724
2541 4.449578921817225 -6.458393623880994 2.674201424857617
2395 16.915582566234068 -0.3851512268748971 7.724859573204345
2521 0.4963077774883715 1.9050478640288848 0.9369011697998296
2399 0.12977791200340805 3.099428060447078 -6.040483177247695
2380 -5.248885940254541 -1.3732345871301181 -0.33521767822985976
2403 3.652353412359305 6.545560326459128 -0.5512937635224053
2522 -3.9571602038031095 2.3515782751314616 4.3451089527788005
2549 1.5975272920786605 -7.974244579789623 12.830957198090722
2384 -4.901488735424438 5.405845894493134 2.9294092520143358
2407 2.737909495118052 -1.4235790080876847 -2.3140074425692787
2526 8.31048317432123 -9.13974316707271 -1.9452498024935145
2553 2.6782045771142537 -0.49821920686451465 -9.680805731241431
2388 2.5103919008093074 5.59523706580119 -5.337600676435574
2411 8.73720139793143 3.5698167232891636 0.23592619838109302
2530 10.626288318946756 -7.608173625075686 -6.085856118644946
2557 7.839305836043234 -2.9880666627209975 -8.169819560754492
2392 8.775175736496454 8.51983524542065 4.725793542695179
2561 4.488200110033481 -3.989030254436663 4.016805664254142
2396 3.3603527595057083 -2.229983212470301 0.09128117681495153
2415 -2.137540833046001 0.9203600760093109 -4.806201532002527
2534 -5.697967002442356 5.4452809094490995 3.848147480723631
2565 -2.0176094677317558 -7.125420398942254 1.6362228990387004
2538 -5.1769284805747935 -2.938118150993642 1.1413867557634965
2400 2.5155587783899143 -2.2437052887624107 2.8677040788712596
2419 -3.3123965895779346 1.899544002682966 -7.159491695944031
2545 -5.525874581857108 -1.8425372489738794 7.4942791071465855
2542 1.3327335251703245 -4.200886338556876 -3.3087837440301153
2423 -7.435383565580756 -4.279400331303804 -4.861159726809832
2546 2.300097220720075 -6.642043936405794 -5.5717667097011345
2427 10.736939902409166 -13.059605484816176 -0.6429391989114948
2573 3.4697082315587577 2.047601311953492 -4.793319073777904
2550 -5.9496132569926505 5.416573992364065 -6.685972699261861
2408 -5.93983147251156 -1.6210995142806834 0.2399437045411354
2431 -3.437460991621272 -2.1194301802577518 -11.034296707807165
2577 2.1928577931470064 -3.056530538623073 2.266105411509788
2554 4.086777381102662 0.9705527602709961 6.650291188980209
2412 1.4585916735782134 6.228360491243716 7.8087425941797255
2435 -3.9821537605867547 -8.487526296850817 -3.8739209487336197
2581 -5.87424564750304 2.08451736064915 11.140146058397272
2416 7.780752613763804 -0.5715557534750897 -3.3875945344976275
2558 -2.0323589226496135 2.089475568616605 -1.2280149907191753
2585 -1.852730975047497 3.2499684411480114 4.43308237762614
2420 -15.627202627208838 0.2907119687091432 -5.952852251996929
2439 -1.7437302828177352 -3.63152776536289 -6.542147693163833
2589 -2.7736740518399685 5.614248597619705 -1.7525457091184231
2562 3.4347097749285664 11.321221887457297 3.1890475066103523
2424 10.726924868042111 -2.932094451317561 -8.479741880258766
2443 -0.4358834707954836 -5.880923855888579 8.223271593201023
2569 5.804776677923102 -2.9675562502193102 -2.853141122095568
2566 0.5726048841899013 -0.4211556172954153 0.4129811285878507
2404 3.750734000376855 5.171782783385633 -9.89620924523179
2447 -6.084717262764923 -3.617019863697377 2.2780723416690978
2570 -2.8517785850084767 -3.9612456959596836 -14.107650527668985
2574 -10.312878665124808 2.6203732455951863 3.6747017799346677
2432 -2.784897459057489 3.662967961391604 6.213697678532324
2578 10.227059380702727 -2.8915313178074302 -1.0780227352944558
2436 1.3227572180514597 0.7541842652216832 -2.795091401459144
2440 -10.962840439391337 -6.49795302055683 -0.1862643479064726
2582 -10.205434970599462 2.178490121581096 -1.626343966672097
2444 -12.77688502069325 0.5501277481324871 -2.486584389279113
2586 2.4767294994402005 5.802259156594782 -2.7652894276737263
2448 14.623400800536116 14.017872879681542 11.28758113398571
2590 -15.685403469974249 8.566007574300148 -11.702099907272071
2428 2.2367692579271763 8.610175261951733 5.737751238757044
2451 12.993308969932253 -1.8817423249663645 -3.443900490599687
2455 -2.8882003650274544 -3.116649398329207 10.69859765995822
2456 1.9707754360331755 2.601195609212393 3.5777329503090116
1801 -2.903407169051605 -5.8570490679144145 -4.988363088838005
1749 -5.213015609996943 2.1195478670089796 -0.631663901553538
2459 -0.17375069125184986 7.072386793974574 7.96008166123748
2460 -2.738989554180726 0.08491375357956976 7.554214412481749
2464 5.679094342544079 -1.6264593545325967 6.401817575377967
2563 2.0970713228202063 0.7350027974295035 -11.335718303317476
2463 -3.4656353029061733 1.7909738762923137 3.300720852372711
2468 -0.9383589484993448 0.8168911575496496 -5.067905173171327
1789 -3.1948673760723256 -0.7967139187458712 -5.193736394639589
2472 0.7353385173235099 0.4007957806462441 2.130538046129101
1802 -4.6084065400610426 -2.2116317789471567 2.174361604755782
2471 -2.399000754244009 -2.045905219139471 -0.7553125719812841
2452 -1.692601015406951 -0.12870233847398646 1.4751406869140067
2544 -2.0108755664094655 -9.135904813327281 -10.754677167521587
2559 1.78896204232035 -2.6633198151626756 2.5228043586888127
2475 2.223820577701169 8.326345039866684 -1.9453336382833186
2476 0.3744398744591684 2.1274897516995948 -3.0787854927418454
2479 -2.8724364776582942 -2.5677383444392756 13.299500632195212
2480 6.623737632415738 0.6930957354894152 4.536700834963138
1786 4.615077047792456 -3.9995838746711962 2.2948985182092962
1734 -4.883927070514007 4.697678550692534 -4.805365222469402
2483 -0.07586446112982871 6.0791912087318565 5.449035572409536
2484 4.2973146566244305 -2.0829280353917605 5.465575350708975
1830 -5.964593672929623 -3.932466370490023 -5.957890365048283
2488 -7.35677783593277 -7.220373687013506 -1.4662526424336169
1778 5.227721811418411 3.8717492710207124 0.766563586415452
2487 5.2276905326773555 5.316814914086045 1.2989617824685409
2492 -2.3880956673533578 -11.175067132904685 9.27650910752415
2491 4.576330554650766 -4.899570235666009 -3.26293508081811
2496 -4.9416575417964275 0.5165481286797686 -0.046217025446605914
2555 4.495734780797016 1.4446534931582726 -13.128432632030965
2551 0.32651195376280656 -3.8084233136289387 -7.19549811315918
2495 0.5588534140054696 3.2772069845741485 -4.294684419785243
1805 -6.571458311823947 4.950598578040218 2.314511261662704
2540 -1.0959831273159866 -4.252915342254103 4.672657406519597
2499 -2.998333937012256 -1.3104906458946683 10.12751432296742
2528 -1.6205689623906692 -4.878245683213462 2.466016301841948
1733 -0.2391645786530074 4.261167885722127 1.5025785705052173
2503 -0.5588425567783972 -2.221396943613297 4.102637943842417
2504 6.110737050276645 -1.370168581805409 3.062682973562703
2547 8.505059074082878 1.0387562005245712 1.9566858422009634
2507 -0.744321780460446 3.3999596953831026 -11.708236837636408
2508 3.9084151955918873 -3.8989896370680626 4.953516412830519
2543 -2.7505555677683717 9.028933973706076 -2.694333367872857
2536 -2.0205054640935822 0.021566669082718336 -7.855893754991632
2512 0.5540766148746824 4.6894351814603175 -0.4436095501964873
2511 -7.962206989050368 2.6970088138199637 -2.7842619586341275
2516 3.621206155988352 -1.4770533844634857 0.7266980988631432
2515 3.9643002039987603 -3.926823429472502 -5.0469061542218885
2539 -3.7154484489636928 -13.162781029640696 2.1831558715197215
2500 -11.23553152111909 1.489450660506431 -3.9589369073999143
2519 -4.1855140704255405 -9.767449220186 -3.022478266229956
2523 -10.893890303178978 3.0504880097851794 3.702273815409179
1829 -3.480744741219305 6.526107218284492 -1.4406623105476963
2527 9.54203522635992 2.580608155787904 -8.33154400849011
2520 -3.1707035289024 -0.6561769085644106 -2.5546786650885336
2531 -6.613752740379731 0.0024151875477490627 8.50545630433222
2532 -1.8563818789730526 -4.8064635239565785 6.10387422897717
2535 6.611906358134767 -2.888848888758234 3.2088633081950673
2637 -2.322953022512582 -2.3784143904904966 4.759272999675334
2734 -0.9047441485052756 1.7830782951600768 3.322216854194268
2606 0.5095835719616524 -8.767760751901172 7.190558939500898
2613 -1.4396238044469936 -5.066330350457098 1.006899845087339
1806 10.991731605451891 4.195230605564722 -3.6527007769179267
2705 3.09682348897187 8.456746118064162 -0.5785520219554334
2610 -4.764104792685617 3.8253625265860776 -12.020490307339234
2593 -1.0023070872775557 1.58145023270818 6.648722017967991
2633 2.7541599521933007 -5.2180198699821165 -7.5375099673379315
2658 -4.413512509314532 -1.8264790209929032 1.8646829626416237
2661 1.0843017755441904 -4.426673767917282 0.2632219515135492
2638 3.516660510514665 -3.9999821842146956 1.8135732289046234
2605 2.359392543866023 5.373984033662216 10.799649248266137
2614 15.021682210878515 1.0407331507973152 3.888485836752756
2609 4.637215637845464 3.592641884427159 10.739740456758227
2617 9.840117358201235 3.813073032308236 11.280383593473447
2622 0.6815790023364683 5.795689340489901 -1.3670843938359947
2722 -3.4090810366034847 -7.658765521340464 8.764961788062392
2677 2.966846583831552 -2.041404095157829 -1.2287169028895588
2726 -9.567455653154159 1.4461611715036478 -3.0903766367075316
2673 3.5672418955170113 0.986230815977901 1.8204984791552599
2654 0.32057287191861933 7.0784545546867355 8.57644117433717
2674 7.862264193566456 -5.505381450437588 9.182571432065089
2709 13.262285741379634 -5.737259493461955 0.7995263985135028
2710 3.5303063940802515 -2.0096415334428532 3.568622098140243
2666 0.5053707731369306 2.3833091788329903 -10.798990268040797
2645 6.904782701910529 9.681078840538518 0.15571233491157108
2650 1.043012669069793 -4.161015171447282 -4.756811562399869
2682 -4.695207956049098 -1.266440648608948 0.5117178861160521
2697 1.9812302673386442 0.5167405718700327 -0.07234578996849611
2681 2.298782228511969 -3.061649170497432 -6.395907041828441
2657 2.0672477727942833 3.340661006067716 -1.7794883392823504
2733 0.5365704577634556 -7.201595622549816 -10.51829309687701
2678 1.846822823140327 1.89904525219048 -7.65945499150423
2689 1.3107240635485853 -2.676484400303683 3.981921960118093
2598 -0.7808684128515228 1.4299383178847775 -3.562428821726954
2626 0.558620688607505 2.06980106713587 -1.3594563624251204
1862 0.6990999028182248 1.8343118143444073 -0.30479402865484484
1825 4.43225953436346 1.2687770804879144 6.5563288123859556
1737 -3.4468678169960274 -8.878751749230283 1.0416106531077935
1781 5.25455196858287 6.467016808786653 3.002289806470386
1858 3.8398092948779396 6.265762906385314 2.945388381460658
1777 -2.3814867216730207 1.344998113258802 -2.812234672740341
1834 -0.4410487434214787 -0.7674517054229115 2.7770972248742374
1750 -0.08486594656432717 -6.233168651520681 3.6337555033011926
1794 0.39381520619628885 -2.7638819776605477 4.583952714265973
1769 4.499069995141756 0.012878139783327754 -5.847575728712244
1746 4.046772951533056 0.11299256569704824 2.661660233538126
1849 -0.3623404929088209 -2.9456494419591803 3.573223180002089
1758 -1.5112907062011829 -0.33935891099593435 0.16333651049064665
1869 6.901668482263029 -1.7691646680898223 0.23261055379844683
1766 -2.786282372818887 -4.710295975233391 5.444228319473855
1761 -4.940221602610602 -5.401042265728853 2.427948205920091
1845 0.5609709349238865 -5.75644550152499 3.0558019726695393
1809 -3.3692012225056334 3.8267064223115232 7.116979521467827
2594 -1.3384915653633185 -6.0500553558885795 3.5507782701729638
2595 -3.9087225909565224 4.630139074910415 2.9142516050431704
2600 4.838878519212415 2.2732487060618114 3.000899339030958
2599 3.8385425606310926 -0.008252630127642777 -2.185664664813821
2604 -3.4025446060860918 2.4152727861410437 -4.10923843696596
2603 6.133423879798359 -2.557522130866924 -1.060571190718576
2649 10.767832482821005 1.1227345778274815 -6.297582003622769
2685 4.196818668691691 -4.520655401432979 0.5593933468530813
2608 3.711305305165308 5.737897696479155 1.4472601690099964
2646 -10.04474981616305 -2.3041044143034344 -8.088281065895849
2607 -4.8582254826024265 1.2915267071897023 1.330445862691006
2612 0.6458496271624521 4.003542049370843 8.527933342499878
2616 6.36065729514557 1.433247804610767 -0.9109694381817569
2669 21.990773048901694 1.0480727427330867 -7.192750486622118
2596 1.6038948482382316 4.148256849492142 3.165746985078275
2615 3.391447057394867 -2.3045499534860183 -8.258459190019495
2619 4.188818729634375 -0.029834785608083877 -1.9471851749621854
3436 -0.7637187992877066 10.005801786997345 2.5389329738157578
2623 -2.9999599066613025 -11.423667081878717 -3.956539162644355
2624 8.439072317483017 5.733392235633955 3.1805711346585954
3456 3.1860240500996277 0.7772826785668047 9.318834309557769
2627 0.6676289796552483 -0.7860363937397655 -1.9490113016711088
2628 0.16004156155508759 4.084719512838513 -3.7231854916619582
2632 2.754255520440138 1.2518496711490084 5.810892484736997
2631 1.3498668982980793 13.618425220707351 2.5999849250123592
2636 -4.033094682459146 7.667415457506216 -10.00041540320293
3331 4.379827528999256 -2.3145957774842754 -6.200307319300773
2718 0.43195103174817095 15.788954199569261 -5.652248023414508
2635 -0.944908387698346 3.0002280733665807 -1.1815795877029118
2640 -3.504198305012485 4.739076462571405 2.135089313295349
2620 -0.028520859932353287 -6.520794357696057 5.761776830550205
2639 3.9079741730396282 -5.378675845755451 5.473185035134062
2643 1.9080696768382182 -0.4153448897860618 6.263423515441805
2647 -2.728281107830208 -1.7051906535381662 0.309657486123361
2648 -10.495960234441386 -2.0827111655144024 -3.2433760053933955
2651 -1.3080186050975469 -2.272277737771425 -1.628107952656217
2652 -4.463116255882868 5.101871233321538 -4.9223044899983694
2656 -0.9338460181290872 7.952476029177567 -2.39615656798633
2721 2.7062185916356523 -5.145935144477789 3.740893867836764
2655 8.1595839139264 8.279407491294709 5.04676354201908
2660 5.478965152364424 -3.3013262221236275 5.552088951104661
2659 -12.793590968355968 0.5648079366005317 6.83112696738244
2625 2.252121067841272 14.001656877096817 -3.6900826771377053
2644 0.6826989150295368 10.718295245277485 -3.1222360074111677
2663 9.855056572939016 -6.4808231477158325 0.7732776104813178
2597 -6.041358436924126 -6.13688882480752 -0.5905763089133659
2667 -4.932200888131695 -3.116846445306889 -0.9288934353778332
2671 1.458467364021095 -12.188336600748224 7.7104496827565345
2642 7.6223926253835 1.1068030362877843 -0.9546008401738262
2675 0.2647745332539817 -2.2733087239461423 -1.703746831608339
2621 2.8338680655356874 2.6027989877070596 -1.7466079050527463
3327 -5.157112893535094 -5.683496226775413 -3.192917525668947
2679 -4.373113201107012 1.9127561143453242 0.28877161958883046
2713 12.757454754998323 -4.405622528235478 -0.27644326838404426
2664 -0.504317384816723 -2.8919338828095937 4.988317351741048
2683 0.6026388055570936 -2.827578960840314 -3.881700788622762
2687 -4.155442349395904 -4.614657062953727 -1.6968128182463114
2691 0.036744305300948264 11.156537970149062 -1.639091765721379
2668 -1.7763635484005134 2.60432477095402 -1.1395093875327496
2698 -5.986032339614021 9.154979248434879 -0.05281757264705344
2693 2.8886809284448334 1.8790657737779692 -8.203068512596166
2730 -0.8140323913945992 1.978693429045928 -6.041841414692798
2672 3.7746222280750037 2.960635108815976 2.737656873270516
2695 4.547667812472029 5.90853088400103 -13.835024614382846
3396 -1.9746225321169104 4.7221916978893 1.0245602962620048
3452 -7.998656189048075 4.8259039850504175 2.4251409278125973
2676 6.192430287857918 5.706202395735884 -1.1217162260066138
2699 11.256228840278155 2.4646692927869824 5.897694518547662
2641 -4.505629712417608 7.273059063591517 -5.399900271939929
2680 1.181422093760333 -3.810106570235069 7.669645648753667
2684 -4.226427516723575 -3.9569534420260757 -2.7283594188104625
2703 1.826381840771625 -5.846241407349794 -5.011148974809774
3447 -1.521174125787605 -0.5730815083238177 -2.039598210683481
2688 1.1422243737872415 -3.7008374856212947 3.8716986524258084
2707 -11.04182420991385 -9.912673631066815 -3.418489188565577
3448 -0.7927946835202344 2.5806800098530904 -6.264899272163977
2711 6.537448320947501 1.3290595535996441 0.4829879708196508
2715 2.2553200720675077 11.311672665942234 -6.766637808151844
2717 -8.047661492464142 -0.34792204501628005 5.413436892898973
2696 -4.814523040983887 -5.170133191858457 2.638334394365798
2719 -9.88136957174104 5.301732752886882 -0.5249246177094872
2665 -7.545819712902747 5.5276387854457925 -4.287099165900096
2700 3.4244294061859493 5.084943126042998 -8.423285658278019
2723 -4.431798670791905 7.413739828426406 -3.5480683618514948
2706 -1.9973187581715264 5.218405992746048 -1.5013820022908895
2704 -0.17017455343957769 -13.54778993779419 -10.546574221352937
2708 0.4965747462996071 4.17171635512101 -0.9754059336761722
2727 6.937828221500379 -2.8855100409100634 -5.313202401249832
3415 6.777246949047596 0.23814807518343153 -2.304974250910887
3443 3.476139533367173 -6.107356166782207 -3.654852457612229
2712 5.277236763289626 -3.784330160488866 8.216453017227101
2731 0.6005233538532869 1.5114623434872427 3.8378315602015993
3392 5.991689649348265 4.976660775238486 -4.857331007451081
3420 -3.0261820682397214 -7.769361384428649 1.6690657435105356
3439 1.8875133415341618 3.639366776166476 8.583608958607769
2692 2.997413255021015 0.3297151202053739 0.09898178188383645
2735 0.8980039867483552 -2.191776208918954 5.87686410828413
2720 8.863333310508976 2.1686480158094854 -1.5882587994509785
2724 -2.195410640997591 0.48452404736758375 -4.2527215498501905
2728 -7.893398761686339 1.4228902352841624 0.3237316589191379
2732 3.6505448359944253 1.5663758123020033 -5.943277967862602
2611 1.804689477678218 -7.671236244658037 10.613450413516594
2736 -5.355422309185616 -3.7362747235205 3.626423620442551
3323 -1.7477612226811454 -4.334687996670866 7.43073039444431
3444 -3.8175310884093445 -5.310526013807059 0.805324559544234
2716 5.829567429133843 6.373230688943455 -2.32791349293395
2738 0.10632222471849666 -8.617606306949106 -1.9972191784576212
2739 12.548892970907701 5.617870807402672 -5.829714964281089
2742 -3.405224866792615 2.2013954645540443 2.769136823869328
2744 0.358577823951004 -1.4196753839306835 -5.4221482915603065
2741 -4.70252283015943 -4.014443327820799 -8.611673447270727
2743 5.579259871619936 4.9580707626947245 7.9144197768569375
2746 -3.4143836327083776 1.4168094998110197 -2.020667047157937
2748 2.349129041901663 -7.100752722297769 -4.784059169644001
2745 -0.36879359451957033 -0.18791821006546053 -2.0491779142553437
2747 -2.9869398492120793 -9.338587790742652 6.88106039918544
2752 4.441823780267375 0.2962658470640707 -7.779996911699067
2750 2.7713863634328626 6.274316635918133 0.7034643715329307
2756 -3.984424493280321 -3.8947644908825594 4.398824470989516
2753 4.731626862317509 -1.03977382822568 -2.640251006326866
2754 -1.7484414788205052 10.905211214798232 0.8736830715393679
2755 1.252755622384953 7.831538788548422 1.616394887514758
2760 0.590708448631653 3.610020236576003 -3.8432557808563153
2757 -0.046989229261865044 -0.09620672794985381 3.2647413592798036
2740 -4.857637711038332 0.7959766326107948 2.4835000227838133
2758 -3.8288919769713887 -5.013347563034147 -9.39170976852299
2759 1.0128709276767927 -3.7386134555666852 1.2748302733891321
2737 -4.247362979281396 3.5467280096363587 5.187592354122933
2761 7.836333691847778 -14.868678245831388 -6.11095214906157
2762 -2.360905818323128 -0.4644566705510168 -5.952708525690452
2763 3.374449470061957 0.9914475001427678 -0.6758662493514491
2764 0.06410557182391786 5.602567197414755 1.9249932500681741
2765 -3.108316116485706 0.00257627438938029 -10.357108514760272
2766 1.5371769312669008 10.963685074721118 -6.411737896889276
2767 -6.025869604492141 6.482483219898413 -1.4225217912784562
2768 10.592101467945602 3.4333037998138116 -7.731122996608572
2769 -0.6920453414707801 -1.9421925767744026 5.458072747681158
2770 2.6978894153354394 3.765504245773695 -1.0034215383232488
2771 13.149543507164003 0.8643404404758784 -11.373905739940174
2772 -9.430044003901926 15.006881651223136 -9.831096533956691
2773 0.14252682349119797 -0.6801366113440063 6.573896130151492
2776 2.7079601346163256 3.3822068270816463 0.8115623249974109
2774 0.7535739716585532 -0.6270780159586294 -1.2056367390029759
2775 1.903566386293744 7.6534323217037 -5.923101700860169
2777 1.011169157522629 -4.106043738487306 1.6170985971605258
2780 -9.12102990313048 9.446876577765572 6.452325790632922
2778 -3.420948396513161 -2.7055413339346246 -1.345643089908772
2779 0.7920582811789054 1.7587917100445445 3.3971170210014288
2781 0.9294709574132363 2.6802059775153553 -3.1812562376557776
2784 2.142115432851252 3.6609852785793437 7.8533615190533945
2782 5.810129331795124 -7.39088516383814 2.027906709372627
2783 3.6000675486838154 -1.8148988101259789 -3.7473870132121636
2786 2.3769618189475987 1.3206035753784875 -15.15099991336281
2787 1.7121148908456423 -10.78935859976425 10.189720746335192
2789 -4.887190623252679 -3.524386784743951 -1.7384020573843613
2791 4.151918851456375 -6.9791549951120855 -1.2389456550014482
2792 -1.526491458721431 -5.722161308837199 9.320578471493054
2790 2.8470240811958734 7.3102266481185545 -9.464909057353228
2793 -9.838124643929712 6.307094563565095 8.241429979185215
2794 1.0839542688608612 -7.505203212276934 -0.7756679256554273
2796 2.6343835603291748 6.371477854369293 -1.6431211681316014
2795 -4.289537360545888 -5.342276793230727 7.3139128693098465
2797 8.57756638738297 -6.91612806906291 11.707774204089498
2800 -1.5736044545496823 -1.0556668456357339 -0.47170509199304644
2798 -2.443259828534285 -1.5619768872865125 -4.562402973735065
2799 3.0137584690479295 -1.0815355527949762 -5.428344000841378
2801 -3.533992059017222 4.795555991090775 1.7880530480003332
2804 -6.107852518836314 -3.2992831865165084 -0.6139979329412526
2802 3.31827806216466 1.0420880558337062 0.09820228435228272
2803 -6.2918281629413615 8.745320306254284 -1.3747122874568094
2805 1.688845760215737 -4.6209975599601005 -14.136677542770512
2785 -2.0290857248832994 -13.431826755094663 7.8807039061071755
2788 3.6656073691191224 -3.456760470957123 -1.8023806663576747
2806 0.9007352421644834 -2.9429901330286556 0.17351995449006985
2807 -1.7170780836025943 8.137421092329733 -3.6082552243727304
2811 -0.06150715617497136 -2.86034706540978 3.235588809950755
2809 -1.810428506741812 1.0913433364570142 -2.7614094051731817
2813 3.343446949826571 4.729475226073957 7.873443129958965
2815 3.380086121747931 -3.4803251502989494 4.095649521539279
2817 3.6386503393978757 0.6970700391312961 -10.6063530475882
2819 0.836746534744288 7.806207232343018 1.152500146104599
2821 3.331748677220698 -4.368003275991406 -4.082345531496536
2823 1.7783060963780755 -3.619898165151958 -7.014241084258183
2825 4.252099958572848 -3.7068573442452157 6.017327629594991
2808 2.798729047692187 -12.154702778019363 3.1327267102308762
2827 -2.028486113540398 2.7906654729847182 5.003333561183982
2829 -0.03258756864564874 -1.8344712330540738 1.7099073371120956
2831 3.778921924659575 -3.598369533936419 -5.976387919723019
2810 7.097776711788941 -2.9325659427573334 8.998687604985623
2835 -3.795810106633235 11.338796197488195 2.276189651436524
2814 3.1050252008773014 1.26012927053084 -10.40424432356198
2816 -7.653036285158644 2.6359981083105484 -9.349791507369698
2837 0.41263150113274727 1.7625742132229818 -3.535951933622658
2839 6.959975669713854 -14.542347527683274 -1.2913249409094478
2820 -2.8085090162291335 -0.3648086160480741 -4.745196117037565
2841 -12.178346577145385 5.4256066921278014 -1.6954719279048154
2843 9.587299353366266 -4.956399960372357 2.6197439946953067
2818 0.7069617752899651 -0.8358067814678947 2.956723216192807
2824 2.961967018648367 -3.5976546464664767 -1.9032090152618077
2845 4.955352564295818 2.2553774322901856 -3.3309398227016143
2828 2.710664019894763 4.39671901724192 3.1133196990154826
2822 -11.607978469056077 -1.295386952202267 7.002392886941502
2847 -9.982935184802637 -0.6145639536387054 4.45599314078022
2849 5.640274429359246 -5.741536566265185 -9.934152044183584
2826 7.794853464849008 6.488336807175808 3.7206186108079713
2832 -0.7863626627004913 5.905511517004539 2.1044968392161567
2851 -13.21573772166957 4.176301979831531 4.2513651320331105
2853 1.1236080013919243 6.3786644126700685 4.703423271410036
2830 -0.9464435935491866 0.4764817579789692 1.0428130739435424
2833 -4.03311203612776 -1.4769704074607137 -1.7922954452401232
2812 3.4989210582801453 4.603822841459682 -7.169982163130919
2855 3.484953263262754 0.880751398793748 0.5262060066491223
2834 7.989729323523092 -3.9112588099267627 -1.7617665028320915
2859 -1.71123289451759 6.727886845234651 -3.715948985144357
2836 -0.13609307309753202 0.3832908640524415 6.179266028171576
2857 -2.7764109794300698 -6.148593392755673 -1.7830035554805534
2838 -4.334376549076979 5.242405222013255 6.479838091250079
2840 -5.688265629198131 -12.93369936528355 2.7472740963810605
2861 1.7613539755382395 1.8622906759255125 4.607485528050327
2863 2.8663272166469533 -5.054734859273659 9.520611906190345
2842 -4.597170743744134 -8.156243087869194 -3.0054228067688533
2844 -1.4038362618679552 4.182200819563333 -4.222910208873165
2865 3.2535602894713556 3.3515880710311565 -1.844376777315478
2867 -6.277488171225805 5.686679307156182 6.153714160538392
2848 -6.860225209032099 0.16279662049127136 -0.1591491919318858
2869 -3.445030147763148 3.149723743886871 -4.343207950243362
2846 -1.799584502780546 1.1575642577405614 -3.4655986533579592
2852 -8.178374415957178 -6.395258672239416 5.007931174896949
2871 1.3582540078673035 2.155844243722704 5.428876432903634
2873 -6.667657808646483 -3.9944609094413033 -8.371548270122021
2850 3.172372702257393 -2.8297473886094835 1.726622400799958
2856 -8.40659019297133 5.286997687552454 -1.2162985918699343
2875 -3.161476556908777 -7.144615772612535 1.1436534595484003
2877 -4.276925427967155 -11.812970305361073 3.4565404683415952
2854 1.4962759878845382 -2.4755112013786045 3.7157267028699206
2879 9.475930566383886 -5.929594004382193 1.6169540554706137
2858 0.4719658869761056 -4.833473017847049 -3.7949820398760967
2862 6.675196196205412 0.33440926914261726 -0.9003647262893446
2864 -11.936118692893453 -0.38745754988075465 0.289902710493896
2866 1.2207857441374927 -0.9557026127943654 0.29631607546837613
2868 7.135436449292228 2.659969517275739 -0.39757755690073204
2749 -3.19379420473267 4.675695583512455 0.38657302325176923
2872 11.018579883453357 -4.790342868193264 6.141210847769401
2751 -2.106695442078843 2.821674606430346 3.086750953472981
2870 -1.73848315451898 1.8537628850999854 -2.779564026529197
2876 -6.668575450803663 6.272329974238467 -3.6063822119340654
2874 -4.940840339962759 2.0551510068524435 -3.1569870408237386
2880 5.527910365930211 2.855573151180825 8.340136077972433
2860 3.1694633325525117 -2.509648133382412 -5.74611714917924
2878 -0.9759146805529394 9.324222497720726 -8.581569047570168
2882 -5.734406434378562 5.5119545147841755 -13.620953096269954
2883 -4.912619083276182 -1.53189715794263 0.6294077459064368
2886 8.08327969771407 -11.816359652969908 -2.0599998726018502
2888 1.6046934090037266 4.984645320998783 1.2626239145559188
2887 -11.07246026472244 -1.5890186524450571 -8.378030830578481
2890 1.4455174291006037 -8.737548970251764 0.22960932026365818
2892 1.6734901014125314 -2.7558681273075734 -8.721880842280314
2889 -0.7091724720470498 -0.7465281933865457 1.5691538837342005
2896 -6.432327067673637 0.639232863970184 11.264359297116297
2893 -0.32957244933640306 2.8449001861165377 -7.636299549941368
2894 -3.4219185127932716 5.682894901667197 -1.674917378008307
2900 -7.4711637564135875 5.435954840634943 2.8572821232373364
2897 -3.637748021453677 1.6011632227406147 -2.22250403071506
2895 7.622662448009153 -4.022648745069306 3.79462084576519
2898 3.731900541394763 2.441222400911988 -5.5263279438833965
2901 4.58218070702791 3.815517475974607 0.6341470735364002
2904 3.606284235017562 -6.2399901818513905 -2.6182031536999224
2899 24.48517519722043 7.750794781406192 4.957602829673244
2881 -4.209657515937681 -2.277056967306232 -2.4172393770848646
2884 -8.717515063339583 -0.7537360207957631 0.9251768151261328
2902 0.7149424864704584 -3.733855449824549 7.9061785676328356
2903 -1.6978053711003833 -0.5693369982307124 4.424142529487907
2906 4.42320490569423 -6.316267549180097 -1.3562439743760524
2907 -1.1862283450852624 -5.773842147717985 -2.7482178779250868
2908 2.9148587704723132 2.048134915574956 5.598165760916885
2909 -4.070997380367071 -3.5021676396341044 4.284634640769685
2910 -4.112003350999765 3.8459841721153314 -6.24840771802941
2911 -2.7109871867945543 -10.17411069115478 8.881912956466515
2912 7.4631360675040535 3.030155513523757 10.405797155496044
2913 1.660934971371504 -3.7654760040527395 -9.546815470179624
2914 -11.878132288259879 -7.925066066830858 -7.122976081698041
2915 -6.851348982143774 -4.231683206825589 -2.1340002975041616
2916 5.934517739867757 1.9323259827482406 -0.7104419211863465
2917 -0.396427936436356 2.411400516604142 7.772076157851218
2920 8.78526776040532 -1.4157469593916838 11.115109573210994
2918 3.3475491958861117 -0.07899113126541935 -9.964818010455549
2919 -0.6363676504919986 16.712090784215963 -2.5020607140567206
2921 -1.3432905640552668 2.2770740149699646 5.628265650757574
2924 5.617102763257395 2.1318365426371315 -6.641950361149153
2922 7.8171699269502986 7.650289729421735 -0.5761240590490354
2923 3.739272355959393 0.2509164488061023 6.991638201924771
2925 0.5463515596556823 0.2586434037466435 -4.681749027897101
2928 -1.9823202513763298 0.6820616276299447 4.079372557616619
2905 -1.4002000065761502 5.32666864028217 -0.41139879276132985
2926 -0.9430442463628352 -6.563011210768061 2.2289342688800153
2927 3.0735952454174718 8.008797080809313 -2.6184613767731792
2931 -6.0462065615252625 -4.3359428976342524 -10.966942135482473
2936 3.509586381001786 -5.669896655187936 15.360719527122557
2933 -2.587006534384607 -0.8192357545283785 1.5264367840805388
2934 1.5376597338989528 -3.3670143529831633 10.00934119685319
2935 10.589264757444537 3.2945871670319713 -2.833581841574089
2937 1.7279368479660238 8.986782833667077 5.539143656713947
2938 -2.5987359624899184 -4.126904172985825 -7.953864558752
2939 -5.55173604788176 2.108550099023869 -2.7984908060100167
2940 1.974068416638711 -3.292551043623717 6.140917763340528
2941 -9.687950277598087 3.9627399342771628 -11.444214738702044
2944 -1.675723736421501 3.452198051409123 -2.396009053886191
2942 2.295114013580089 5.694699792588446 2.0648225029364964
2945 -0.9264822344884733 -2.495185185918468 -1.4619775933747654
2948 -0.8953196156374204 -5.737332417534186 -3.363798856830488
2943 -6.057991741273849 1.9119597154958978 -0.003273483398978909
2947 -4.183880790236398 -9.11067860539941 4.565264383995022
2949 -1.7759621449199317 -3.743862189810405 -6.1083382804145305
2952 -2.856747066515261 -8.244154847090817 2.833188964364476
2946 -4.634240370433751 -6.612961232900956 -0.43417254974323627
2929 -6.090795021805028 0.9444155862468325 7.640273324191966
2950 1.3823083852625448 1.383433520643229 -5.528193992515332
2951 0.2131344372841612 -0.8014481425556484 -12.924010407638193
2932 2.5394600858432264 -0.04245412302928874 -3.6787869503698745
2930 -5.173310998936646 -1.746430925815324 0.46873311949290125
2955 -6.805891325876707 -2.7740921584290716 -0.8872953723292666
2957 -1.190023151109915 0.8358252402009146 1.9148116185537007
2959 2.5485527766000624 0.011293880887652746 0.9294601450161113
2961 10.974405771847556 -2.87650985889339 0.012888538887491441
2965 -3.3882717323773224 9.45762888995944 -4.590058348722372
2967 -1.9860302464923967 5.0344797688658876 0.7283966796076367
2969 0.38770703946431406 0.04879507863230997 -3.4657279514951216
2971 4.053457961340422 -1.212238325792589 1.2566947092146161
2973 1.194636810163669 8.820150846948767 -9.899224129740045
2953 -9.544942288866666 -3.742841045308281 11.269165078184455
2975 -4.9507465302472955 -9.09398320600737 6.962984355613889
2954 1.9242469904467225 3.0533693205529704 0.34589627316087196
2979 0.8645196477007877 -2.445293902150776 -0.4919369145626517
2956 3.163722904046431 0.7891397861569595 1.6516827922395754
2977 -6.902908402184285 0.937301455788267 -9.028790003099084
2958 -2.8802406827062055 1.6830503191664088 -2.4690751260337067
2960 6.42692369695392 -7.4667731125305545 -3.2434105771637074
2981 -0.1803837195989487 2.329004398731494 4.95407787763513
2983 1.4564108162889648 -6.202914002800483 -3.0936060452611427
2962 6.065326928627236 3.4323916125787446 3.7555264630738763
2964 4.7265385548824295 -5.029501735389524 -0.7319765916715064
2985 0.7624502449799883 -0.11117183824120497 -1.8010792867163161
2987 -1.819158492607721 -5.277180438921171 4.9285515169683904
2968 -3.646339318770529 -7.987887879046387 -1.337483761430488
2989 5.37836918657837 -2.8505376157108837 -5.45418025409789
2972 -2.673247455246189 -1.4696380786338517 -2.124291025572676
2966 -2.3952232248761782 -2.0026667785034413 7.248827381357171
2991 2.039599400669199 -0.8310807855769052 10.998937528877006
2993 -9.717647161472838 -2.037822092457501 -11.943665387486002
2970 -7.035208763180989 4.035768438187771 -0.5091438030706302
2976 4.574325982621311 -3.8497925042283403 1.5117037457703297
2995 1.9028335501555094 -7.43007294827669 4.985280833191909
2997 -4.20951947997712 -1.5521444099352224 1.3198285655210347
2974 0.49009496510546685 -4.803200396681864 1.268426721428525
2999 -1.0660359532360095 2.763655807582061 -4.992977830325091
2978 2.2565454108809164 -2.228503002760201 0.7310400204822124
3003 -7.510440326702807 -2.6886653962797675 -3.0564964644319086
2980 2.1133731477135047 -1.3079138187368864 6.430640906588107
2982 -2.196674655291238 -4.929177528071294 6.346493841473297
2984 1.270791835762447 2.938444757566449 -1.4635053675729885
3005 8.775860148593155 -1.9769333539878318 3.655769497672955
3007 -7.521094468632607 6.7128321664177 1.5818226261826678
3009 1.7167140440978903 -4.535917296033534 -0.9108733536234461
2986 6.586092836997553 -2.068757134340572 -5.261014086898092
3011 3.5539686585418435 1.3663418850062004 -4.648381897008725
2988 4.025015078219859 -0.6890760752712316 3.371853468618628
2992 0.503292177957088 -4.855198806833353 6.640457222717541
3013 0.31217224578698244 6.780211222766978 -1.0201282121288622
2990 5.401220026802615 -1.683751502109884 0.24128748827148286
2996 4.691247933624299 1.649442722025176 -5.970958730259146
3015 1.339612155215274 -0.4146702602232751 0.995352008072968
3017 -0.2609974214844282 -3.3243557774281847 6.440904421818365
2994 2.1707527515855944 3.8961426588947505 0.49406519568244106
3000 -8.143864410685206 0.6802713952108163 -7.6241629772934445
3021 -1.6898788303681942 2.365660880116177 6.7494045652161105
3019 1.911899244325079 -1.5105965790821079 5.931042005386807
3001 2.440103467140645 0.9553201749167503 -2.0365388587933246
2998 -8.433237980302518 -0.9904398466400851 6.237771050559127
3023 7.297809564636137 -5.510331204268712 0.45180330097228655
3002 0.4603210652502854 12.548834890982686 -6.168035181168181
2885 -6.788414046978794 2.3665264673360644 -2.9826734829946937
3006 2.3282723875919737 -7.823964203287582 -6.957712392859083
3008 -5.7315289736869754 -0.24869220831901817 0.1481379508043988
2891 7.049436569298329 -1.0922576197842957 -1.3227472828772364
3010 -8.75283698007954 1.7191354053807644 3.9578189319568424
3012 1.3484924303529726 0.1566315488108352 2.9885181101803444
3016 5.079508929092161 6.5784537281693 11.047686179278733
3014 4.385442749326158 -0.017413605150584766 4.615940394467238
3020 5.076235646194902 2.498265161206813 -10.83105591005056
3018 -12.418651887163966 7.528064786754291 -0.03213641618674685
3024 6.304769902715481 7.63953684377812 5.884482343764812
3022 4.142257186662036 2.192908679852469 -3.4569487782814656
3004 1.2233148892017949 2.071650827843111 -0.3424671981795452
3026 0.8670617547622274 2.3681919587826354 -5.63954055425688
3025 4.630889243023756 7.825103456883099 2.6109358748897677
3030 0.7257254480578537 -1.7734622083276437 -0.4075817223306391
3029 4.803974913150254 5.437228527174449 7.631334734308969
3031 -0.8732388698043823 1.4622005536919813 -3.4285134509849056
3034 9.231623614416145 0.2720615346781941 7.784543014416927
3038 -2.6613704663732323 4.042724077314603 -7.351850456450737
3041 4.505174627033248 -5.503423044044614 3.0520892587328134
3042 5.254871937416535 -4.7116245946212185 -1.1117075399254
3046 -3.353172230173345 3.7392716292294175 -4.44303676488277
3050 5.455723258606155 1.0444866288188301 10.014512710274508
3053 -2.9297646116619425 3.222588648429227 1.0627104679613453
3054 3.088472936318614 -5.4172289374650715 3.65511791222052
3057 -4.098454653143256 -2.2289903178173995 -1.1410050155493012
3058 -2.539190084332213 -0.6290392830618136 4.054194934369525
3061 -1.113786878169096 -0.2681810045562763 -0.12139859907394761
3064 -0.22909707911602673 -0.9504150761454752 1.8714280316230758
3062 1.297231661318921 -0.3109121002573294 -1.729857995986282
3065 -0.068642375354561 -6.44671526836043 -1.8696986607482207
3066 -4.687741325817807 2.598588587744473 -4.8235042995218596
3069 -4.622241389518371 2.7847189379890294 -4.165689234498209
3049 2.772464222368881 -7.175894576137166 2.050448848720623
3070 -5.109036076156368 1.3019924470554296 1.4650923769450606
3074 1.8774547575791654 -0.7502779526447536 4.638397690643932
3077 10.552657866707651 -1.7352644108669364 -1.2768104132528557
3078 2.4653653591255313 -2.56227718324291 2.730922931955215
3081 -6.302753933618559 -0.4341876467221977 -2.1333737642393467
3082 -2.359939752865819 6.517530324840548 4.405318025890109
3085 -5.650368691874359 -0.9961527571312188 4.94323682893498
3088 -5.256909919384193 -13.074757699776933 -8.588868961892016
3089 -7.17307774312476 -5.002944938769869 -6.6314137020499215
3086 -10.149904093898213 -5.67517128259432 -7.785713902909691
3090 -2.870776724057824 -2.19212262572394 7.586519849114112
3093 5.044770589802485 -12.615098329308424 -3.45819131451353
3073 5.120427798110495 4.1608947987853915 -0.49175557298485556
3094 -5.7406069037531955 -1.154847352895538 0.19359788563085994
3097 -5.00350172179882 -6.700439637840101 13.25568648737557
3101 -10.74051100151656 0.911555471281722 -2.538523246174203
2963 -1.1431760372116868 -4.552401811430018 -2.0404948636483877
3105 -3.278324303360629 -3.520198716609714 3.419555042291778
3109 1.855383499547486 2.139797423170442 3.7523254413481144
3113 -0.26638722733511727 -0.05836619618083657 5.947266787075874
3117 -7.1355252677501575 -3.6219502111901893 4.473722819299607
3098 -0.3502676916981098 -0.19839446204179828 1.2247312215777766
3121 -7.100356595666069 -1.3004675713158103 3.2183442906592763
3102 1.152651421622885 -4.078258428752028 0.9826800185007064
3125 1.0831259330831235 5.01104434015437 3.605406894443735
3106 -1.8249175577718466 -1.9402454500674673 -0.23760819217349657
3129 4.578339680532821 4.600582742411308 2.4978175943317127
3133 7.891534408396696 -0.4555416755281176 -2.066651890460789
3110 0.8408269688814057 -0.890274197564785 -3.5041438129037
3137 -4.0922474633460455 5.964109106130048 -0.903681564333238
3114 -2.3407895149090305 2.47694428791722 5.535063508259769
3141 -4.085362371629813 0.1028692062006906 9.022633729643596
3118 4.592831662470124 6.844626360621514 1.8023624989748914
3122 -1.4080671241450073 4.038187330506929 7.183876476493963
3126 -4.8072193224391455 -8.722640559148548 0.9429821106250492
3149 9.320169722651654 -0.8248662428676117 -2.9150798354401544
3128 -5.657435729971453 -1.9974117382042722 0.501549097051642
3130 -7.434554399691244 -0.7317796858223178 4.337524123005658
3153 1.8586158095915055 -2.5617654229858227 4.4083404569705715
3157 -9.270870984604585 4.538467565098593 0.3499114323184133
3134 -11.74334747555912 -4.588202670834328 2.8860874342394864
3161 -11.325808770446107 -0.2203134540348924 5.820268288904533
3138 -8.853632756290434 -3.200654207604488 -3.6086741497567485
3165 -6.173254377109703 -1.1713433329220924 -8.697513858880066
3145 3.5547379363389098 -4.223559243426735 2.2319616749700244
3124 0.67179515494695 3.3596514219848994 -0.17387897785434708
3142 -5.971320823912536 -9.797940413213546 7.049124576931646
3146 -8.341237456078815 4.862394592618951 -3.469772212731629
3150 -2.460206144810023 -3.6647710181986675 -1.6477118170738696
3033 -5.481302253852346 0.07921151521118064 -4.180700513904766
3154 7.758793522484138 -8.794400285059051 -4.2447044143335395
3037 5.281083924320397 6.7161249017399625 0.9553747291247964
3158 -2.4223549534397346 -4.802211159024147 3.7172652742337067
3045 -0.16971331253799218 -1.5313677977789342 1.2898361092980124
3162 5.586878350910969 0.19253308605350106 -1.3649456805237723
3166 -2.9506145639503707 -0.1677447765275988 -6.092986630608269
3047 4.084168475026709 4.946840739824514 8.4724117198598
3170 -3.1060170038924886 8.500676353198193 7.706069142944042
3027 2.5190850698436895 1.5556045114900265 -4.307172399837261
3032 -0.5917325817758294 -4.393739617629193 -3.4143636367814065
3174 5.074935512695887 6.597679521532707 0.14469146516646372
3173 -0.06748321658392707 4.496152670754765 -3.1555455054583295
3036 2.0859721111739655 3.5968449754779175 3.6559700596141367
3177 -4.708750396863321 0.06081310406704553 3.250718307436705
3035 -6.290378604779794 0.7347022557033811 -1.0880728720816502
3178 -0.9490372430447059 -14.252516722266298 4.758431078527292
3040 5.776495271122335 -2.8911415351039897 4.548565514381041
3044 -6.295005871812258 3.2038931767726746 -5.481160659744801
3182 -2.4779740782200586 -1.0864427108058814 3.0840750391780007
3185 -0.21600148025993646 -4.6891532622146554 3.2880803269714463
3039 2.8741256865552436 -1.6600095113650217 -3.069310668938913
3186 2.519127175662967 -0.6016894321857973 -2.5966149736893414
3043 -6.606863108027904 5.763996923822976 4.499794149822356
3048 3.4099539279164577 -0.9485817197390523 -0.014078638877116141
3028 -1.8753034784383003 -5.660332780395793 4.791896298423336
3169 -1.7636257264042998 1.4505574690308325 -0.6632287600958215
3190 -3.1612235906040267 -0.8448946427987389 -5.262497385007524
3051 0.03752084411489344 9.025682729688532 6.941516388230993
3194 -6.8457320465737554 6.652053180052821 10.20369050060156
3055 7.284473019180094 2.606249384448748 -7.694078806179893
3056 4.470069060878708 -1.7434086930867738 1.7340117192369775
3197 -8.73193484299481 -5.6320668376448015 -2.8409890200418815
3198 1.1325493563002131 -2.4247040116089895 8.667801481968562
3059 -8.643976826490572 9.153096917049533 -0.701441417380916
3060 2.7336981009177337 -4.060727690247984 -1.322651123947078
3201 -1.4850049542476345 3.3308316217027807 -4.324570274922797
3202 -7.0032793145726115 3.662707783930016 11.023703857631952
3205 4.469669033058273 -1.1942978745062767 0.1828479848322991
3063 -6.443743885983339 3.591346004802226 -6.430235963138319
3068 -5.121456361871965 -6.578336653129797 -7.5940074069664805
3206 0.7930013079927775 0.530508732523116 -2.39513751364804
3209 -2.504688278992581 2.424751377201087 3.102454423998205
3067 -1.5184529825625168 7.2857490220925225 7.35679570816634
3072 10.141136528321482 -2.428326891218514 -3.3306336051545062
3210 5.130977459439089 -1.4337728628482895 -1.8481530781109534
3213 12.598108992828765 4.491426230037479 2.6537739871684938
3052 -9.339147098482076 9.899507529744104 -1.764711950706343
3193 4.297605413150425 3.4635344341548278 -6.618151792589307
3071 0.8513277113331963 2.510317933976711 1.9831045224304218
3214 -4.072452299121289 -3.592693351831942 3.510727335232564
3076 1.4788020359665963 -1.952503259036608 5.492726683288271
3075 7.851225268244476 -7.709899911130397 -0.3525097738703842
3218 2.9359056534078563 0.23183481478897816 -8.631901982811351
3217 -4.087532480098241 6.002592754352686 10.039741562184146
3079 2.0534807670143183 -9.455854877231745 -7.315770680369062
3080 5.307279577066817 -7.32845651064346 0.679359446864875
3221 6.534188234631079 0.8156639373714691 4.954526194804678
3222 -11.341073669049111 -5.53587298655106 -3.526950144491333
3083 -7.271192732410918 8.698256549304975 1.4493073067557263
3084 -3.966876118654529 -1.889806953587203 8.769830774464506
3225 9.551984355043512 4.052218792720205 1.1784980091488495
3226 5.575143778361624 3.1803975379467024 -3.594341536351697
3229 8.10824460879905 4.199978517581104 1.1146197600365235
3087 -4.470580240473655 -6.03324581992741 -3.1447220665543454
3092 0.886537320664607 -2.0395325961416813 7.0306491481733415
3230 -4.740910058631246 1.6624612948781528 -9.854116658814785
3233 3.058281818708461 2.191622844127088 9.979142652362638
3091 5.01394506027478 3.931342705952129 3.1225718450316355
3096 6.803567168730692 1.059753792038951 -3.6146861647988184
3234 4.895525376313109 3.6653046925673984 11.181840113569468
3237 -8.044946726144287 -4.429524006277629 -5.750238497287897
3095 -6.315990737809992 4.255309093188362 -2.9155909711304298
3238 -3.8474306457006873 -2.8103075039777643 -3.306225511405017
3099 -8.071548816231461 -11.732310761220926 -5.121562551250245
3241 -1.926055021247654 5.301288832374768 -6.3220795408135295
3103 6.0158197096604615 -5.681766583161805 -1.7300678509796823
3245 6.532733940217904 -12.569189991499128 0.6178577164272109
3107 6.265227040881773 8.83144951167072 8.437336495600926
3249 -4.399991840242485 4.28853343309354 0.01863484809019061
3108 -1.2266110354174635 1.4878018686823968 -1.182085745049247
3253 -3.5709915769050906 -0.020409140151667136 -0.3850925233452914
3111 -0.5162946447607648 1.2124202106476147 6.707788933494629
3257 0.64419372572372 -2.241293192519751 8.364762585679614
3115 3.2534558188839244 -1.5814115304553669 -2.1888674688582235
3261 5.386252105522987 3.2034616110534824 -0.42840916497215703
3119 -6.849047361605126 4.817422430557974 -5.953668808534731
3123 10.236146904397001 -4.872982725473682 3.803421126831839
3242 5.494764759689754 5.144154508667756 5.388476799875236
3100 2.880029314873357 -8.727909305036432 2.7071378399834245
3265 -3.2678259537332806 -4.822313210276615 1.619680070114132
3104 2.7907894653175167 0.4409165633165116 -2.6520196399532985
3127 -1.5499318291238673 -2.457275307095451 -4.046167357467044
3246 5.365739588627337 7.606592071131976 14.365744918263017
3269 4.048061451999089 -5.8347938483811035 3.387280042170997
3250 -1.7737691881166389 4.474633976250186 4.787681859914786
3273 -3.4179312832264506 -8.874198336787178 -4.237488368850572
3131 -0.762593108917053 -10.208003850305374 -8.572038830993082
3112 4.109877047270565 -0.7242084933036663 -14.931629588695836
3277 -0.8654917659907804 -3.353150204233647 7.291535564775435
3116 -6.395287578876475 4.089473561449378 -5.694682856179548
3135 -5.449447243996911 -2.5868554634441128 2.82416341269111
3254 -5.9469392276875634 0.9145935733229137 4.616230023719515
3281 0.811476270818869 -6.919978180918608 4.168146179061432
3258 0.8861893731605225 -0.269019766119633 -0.9988539875412216
3120 -5.486109752899754 -0.6608795126397183 -5.994157983958092
3139 -5.808498232834239 -10.717745366970377 4.769626160693469
3285 -2.6500209133356196 7.724105332174376 -3.5175795085530406
3143 -10.466486943247926 -3.4912757580336846 1.7799552083169077
3262 3.912756566460834 -1.2364914003054965 6.258908228464309
3147 2.343328396985591 -0.7309931830552379 -6.780284216579834
3266 7.249886708015987 4.811237179781895 -5.314703893468903
3151 0.40706034178796413 -1.0960845541923447 -5.937028655040043
3270 -6.070017928118598 2.989799627214756 -2.224034154986016
3293 4.178008740296041 1.2453539955745232 11.939203810488568
3132 5.050670428831594 3.0836158820149135 6.1247896830768935
3155 7.030615927860782 2.662210981667243 1.3344775028394582
3297 -2.16936902954269 0.08447093525011404 5.0502417767661445
3274 -7.4394188753342165 -11.245505265478888 -5.906290387522598
3136 -1.9024120315621975 6.20723910317784 0.8711236092470921
3301 -5.313021699319263 0.9401330048157073 2.012420855558827
3159 1.1469005754299653 -3.172520351368357 2.380462725097239
3140 3.2843088006463037 0.9811112190226225 5.9813363416241145
3278 -2.5136374189423636 3.2993910616356357 5.313033494415553
3305 5.423176304253016 -0.7047651001973723 -2.4727864001919393
3144 -0.6905267253370001 0.15020140381413413 -10.778239007562235
3163 -10.169297341793662 7.412729605456569 -8.444850815778208
3282 -1.1518431744232684 2.1439074626214487 -1.3244626923493157
3309 -2.353390887023041 1.7658905430909586 2.8742537133301838
3167 -1.8468520832861082 1.9981624365833193 3.8589561480670613
3286 7.979416353267464 -5.4947014968427235 -1.2124761793918135
3289 -8.217393546671504 -5.327985182052817 2.106268064478077
3290 -1.4250504375163797 -0.7478780678676009 -9.089504726252466
3152 1.3517570256372136 -10.488862813602237 5.745518743164182
3294 0.6945713085602423 -7.896548997267261 2.3031139314601994
3156 -0.4630772534957563 4.956243887187211 -0.3489023525754573
3298 -3.4752876327407036 3.8034985743789242 -0.5600009964393458
3160 -7.708954682041852 0.7710586373153085 -0.4941141347177799
3181 5.295015938184244 -2.8361309974512485 -6.40488005202503
3302 4.346309829863636 -5.5569001903397535 -2.2350647221083237
3164 -2.4619253747723446 4.837663195763866 4.751594733232479
3189 8.65843348414922 -2.4174734036702676 12.823965963355974
3168 5.545272340662524 -1.6510899327308768 -8.002712956968914
3306 1.773660675853093 3.5260957664708803 -1.635302497491438
3148 6.579283382987376 7.232241840780081 7.618888188112174
3310 1.6882452292721453 -5.506502569931135 -6.91260117186513
3314 -4.6882890674560835 2.396869185792122 -0.5701535678457961
3171 6.841557049805396 -5.979573404367535 1.3026430191160423
3313 -1.0962677607466975 2.932566729297633 1.2769569264016236
3176 -3.8958658124450554 -3.510351926872346 -7.556103939278886
3318 4.381908284971982 6.007944927767411 -8.226875680894912
3175 2.6005638308423578 5.093338689020548 2.6879890027296076
3180 -2.749802603610246 -1.8710105283577105 -6.6657096040503285
3322 7.533385446125724 0.4713590145944337 1.0422537632053757
3184 5.567124336180647 7.515756039713306 0.7429077721397945
3188 -10.316202239908678 -7.750120756660802 -2.760021912970975
3326 3.4374093832749755 5.30599107515604 7.306831845478923
3192 -7.54620910533791 1.844407029482265 -5.150054414968525
3330 -11.22575436053259 -4.692513055258335 5.291313014719227
3172 2.3075243025822605 2.140516715085106 -4.382400654688304
3334 6.283400745832459 3.230878650455459 5.97623744184418
3191 3.5374530781346945 2.9990802152703155 1.24550137800351
3195 -3.1904043368467954 1.5688527027027768 -0.28921474713374773
3338 -9.099711631098076 1.327151214984271 -1.2435166217976774
3199 -5.989452551072287 1.427558853413752 5.150723234255774
3200 6.17042785214519 -4.726145732158295 -10.507497059118197
3341 5.635828852770628 -0.20232794637264426 2.3787037958564263
3342 -5.869871394991812 6.097571028851919 9.01865603543843
3204 -13.859775026932732 -6.634692566589506 -2.166098205334985
3345 0.6345862696266259 -1.1848169159401412 0.7073950724011133
3346 0.23427520359232698 0.5211632973654872 -1.2067209942012649
3203 -11.73626172037796 4.900765037624385 0.014394044550142999
3208 1.7857531581965604 -0.230647049208692 -1.67799054581704
3349 1.9716694774675785 5.032108986668881 -1.6463303795326385
3207 -4.341444980858589 6.635587204965272 6.637927081324928
3212 3.229362851375333 -1.1809185112308682 -7.206862148302639
3350 -5.134734656277754 5.411025197011008 1.5697744919680012
3353 -2.611951100513388 3.40230355997933 10.19568024306519
3211 8.360821093914195 -6.5573316348494215 -1.3352907183662126
3216 1.9163145820160454 1.9844825207679149 0.8781648180147528
3354 -5.270114030066789 -2.850609071720021 3.323710297304178
3357 -6.627441393006492 -5.819572460192395 -6.442347243218849
3337 -7.473450511371217 -8.725749152059404 1.7240552605060029
3196 -6.847151227984923 11.742952308490297 -2.177319717602092
3215 1.7118757069081838 -6.4669133722848695 -0.5169228527163453
3358 12.449364631648995 8.288237073767528 2.3329601091357004
3219 -7.1203383302860646 5.013131357781211 -3.49551584990813
3362 -6.284667593751148 2.0213181242056586 -4.143358662573421
3220 -9.013906647698636 -7.160716433490077 4.601573662649185
3361 4.06474229035008 4.19784718776794 -0.15181526992884867
3223 3.0043156044523514 -3.7539734758920114 3.7355626082107425
3224 -1.0032470894117125 0.4443204327529215 1.2045144730668833
3365 -2.172548160227543 6.209348749948804 -8.489982938267964
3366 -3.9312449167512398 -4.5250053693423995 -2.248647110122556
3227 -12.07734643543826 4.235569504282584 -1.2549453102399553
3228 4.622565303011004 2.3723775738587474 -4.224827519434828
3369 1.746434170037624 -6.486782055545221 -4.79904454502514
3370 0.19969138355913985 6.669077432800409 2.5708968077768417
3373 6.9220013640720826 3.3363601628334267 11.522813165204454
3232 9.303270633922054 -3.4315244520684427 -2.649534843769753
3231 2.1464415372470134 -7.566786758964198 0.5656089513975763
3236 -2.149768119319546 -2.305694450188186 -2.477785800942423
3374 3.2535707525647606 -2.4462101239869596 5.523179239801442
3377 -1.3955379365037797 -0.9278424576973365 6.431899086994267
3235 -1.3040266447918425 -0.19036092136576177 -0.2770554199037774
3240 2.7047690007822585 7.611572554430348 -0.03766153315152862
3378 6.465277948550476 1.766068951807502 -2.8016703580457163
3381 -3.021786461511263 5.119249562006765 -0.21909763941425306
3239 -11.06188273073214 -3.668939159448196 1.0195267067232434
3382 8.27830743514558 -0.16714935775117476 -2.7661642747711386
3243 -6.840753230956705 3.8609375621340343 -3.3103957316437307
3385 -5.382158854176764 1.3831133486559435 -4.371173921475817
3247 -5.31972294113262 -0.6539548014679085 0.9147303305644349
3389 2.035457690347448 6.502656737716184 -12.554316899258453
3393 0.8558380732932868 -3.8489712740847524 -2.1571476301984926
3251 0.19374740544825236 5.214111099551516 -7.490498743089963
3397 3.345210153094675 -1.185216914156059 8.954195166535769
3255 0.9555241154955378 10.786117814837269 -1.516560829523661
3401 -0.2978927495971739 11.221943880425135 -1.5799110885097876
3259 -3.128621808355991 5.002999700367909 0.35931785804871474
3405 3.33273659129911 -0.1275931599150801 5.427640476317162
3263 -11.908504844588917 2.296776406290327 -1.0324088906372104
3267 -5.039085622001719 3.696361578081247 -2.2213412847985703
3386 -0.32777575821781263 2.076474250006754 1.4800112862783725
3409 -0.6991099534353797 0.7053403250257662 3.898915543985331
3413 -0.3909271712838203 1.7802320584705575 -0.3981172737027283
3248 -6.487006610939647 -7.303699470457909 6.438394161214623
3271 -4.196843803327069 -7.920515771353267 2.3591796082159195
3390 -0.32083482132335606 4.087005926470163 -3.938955606552579
3417 -8.533920413742207 4.561174377834214 1.297145568581643
3252 -8.861355085977376 5.851605604469497 -4.656782193118108
3275 8.457391710560131 -1.4492237393887142 0.11205164331219135
3394 5.410275080313883 2.5218693895119677 -3.8457886979503972
3421 0.5790641008775435 -5.355112666226011 2.0762138267753647
3256 6.65004836345637 -2.6985153418308387 10.732314151796164
3425 2.2036045793139234 9.108762395639344 6.044927076538498
3260 1.6645201152242386 5.548878343367929 -3.2418458839089213
3279 -5.437586157319961 -2.975734050639111 -7.9940078353579676
3398 -6.751463071207591 3.517888512769881 -9.192538065029265
3264 0.8658827675691746 3.309372456943946 -13.096128549335553
3429 -2.1976100280686053 4.034672478261734 -4.546199571046382
3283 6.978707757541495 8.750829990169342 2.460173937886778
3402 5.335864024661691 1.5037462667223493 2.494763443237068
3244 2.0479167591603566 -7.6703559804219505 2.9662546126886333
3406 -4.984640559877669 5.697207487160672 -8.252431466150743
3287 -4.399066968970084 -6.808296246556434 -2.1342888088738214
3410 7.939243097867664 9.028511023259817 -4.970678823038235
3291 -6.830825840036693 -8.618718052042414 1.8494281896581106
3433 6.2130579097859036 9.27083725014217 4.612328880057751
3437 4.802652179749347 -2.2062035529965005 10.481451493528398
3414 4.917997976587318 6.640823540493715 -4.443142891747814
3272 -3.55735517389649 0.4477401455490359 -7.614158623445406
3295 -5.636637041813623 0.5316437548342305 -2.8754240598639
3441 3.574612118887387 9.751887095515093 5.9971652890549185
3418 -3.467220856447739 3.99467906030207 -0.45121214141739463
3276 1.0845014828142854 5.43472298739306 -1.722748630922097
3299 -10.150441766556261 -0.08258125230210524 -6.610212306587216
3445 -6.8077132257273725 0.3002290339133567 -1.8772086717691179
3280 -3.723288339053298 3.157618443060975 -0.012414871581884817
3449 -0.5965605415506159 3.624260916627926 -4.017555902601877
3422 -0.3154240842209481 -2.286191806970702 8.2507541156411
3284 0.730441628310115 -0.650054211628133 -2.8966345928304937
3303 7.98030853199901 -1.0368115700594693 0.8541256554493939
3453 -2.5780845822700376 -0.5272100341184813 -5.445362911023503
3426 0.7532880216849052 10.083254597002503 7.25466015831023
3288 7.467141108830945 -0.962710451950246 0.9569859706267897
3307 2.8141836092220314 -9.205510313634088 6.936980758836001
3268 -0.25970283844113334 -12.75548632013819 -2.307593546711935
3430 4.446738830366003 -1.927770688524117 -0.2583697178618902
3311 -5.89051650293592 -0.92089775281336 10.3889764840861
3434 -6.149630792118933 0.3627772205991702 -0.04639608097229723
3438 2.981773534904193 -0.5798413292577351 0.24236835759407366
3296 5.681361511757191 -5.00941346820721 1.1428966110454424
3317 -0.08927756990379129 -2.4693999656807475 3.810814663825785
3179 10.012702296056231 3.523249563846264 -12.614108515726322
3321 -1.271775550393017 2.7948744513958506 -9.52373568181452
3300 -3.5785975901973894 -4.428246067928817 1.9695971571237643
3442 -4.005312278882771 -9.409031755821132 0.2382420326618901
3325 7.5401238687491565 9.093844036671957 1.1935005873729971
3304 4.7782911193291 -7.113803977959573 -5.346753672763076
3329 1.5868056072952461 4.989312525425652 3.9149443325984796
3446 0.49995595315646224 -5.620601552748227 2.7294044950412877
3183 -6.393179206932472 -3.8707535511340305 4.06301142642274
3308 5.892599004205652 -3.215755061477056 -3.0955526859635563
3187 -4.707841801118633 -3.4381759314176046 8.52813657678015
3450 0.12330062044119665 -6.564424788664289 -1.1511412406877148
3312 9.700357752142128 -4.417048761370095 0.02119676411785934
3333 3.678822676048904 -1.0330159559924534 6.196553591001166
3292 3.938903927583806 -1.7203093873263895 -0.8243276488349872
3454 -1.7935052857794047 -2.2523229602224997 -0.9006368409381796
3416 8.0464181397966 -6.8294718875474345 -6.475109850410947
3320 -8.56049258060401 -5.946187704407706 -0.6772651850946636
3440 -0.4806400939204155 -3.8175807416576424 2.2969626818367748
3324 -7.572198110936507 1.7275880427668542 -3.362030501676473
3435 3.1124212081620204 3.02779787502854 4.2236588043952175
3328 1.482516460215405 -2.581014033635731 -5.679571254894637
3332 7.910582292744861 0.2783995702120088 0.7027783165221231
3388 -8.403075460147978 -3.6073764882005217 5.0015640853646275
3336 2.0595065543421542 1.6339528978072462 -7.939766756959539
3335 2.6388133460242673 7.408145040536986 5.4251339590937775
3316 2.6116008186367257 1.9760997908045974 4.217024864555245
3339 -2.02777099899256 -6.500647432316645 -3.105432360649828
3319 0.0558698166978091 -0.7049322622749646 3.267376600550389
3343 -4.22952674167361 7.174315703722708 -5.2151543028157565
3344 10.002614604961046 2.117916688210461 -3.393610925520908
2714 0.5969369949029403 2.623098993966432 -1.9459922954718563
3431 3.1737263331266905 3.221355483757152 -4.0741435009741975
3347 3.496600279541473 4.539480582423621 1.8790959700695917
3348 -11.225402040307259 -1.876465406507055 -3.3999742679465395
3411 1.6183744703686218 8.819145997714141 3.671578139403577
3408 0.9028340892225678 8.05423320947992 -5.154312149435975
3352 -8.328959044657706 0.3067171482221006 -2.241297539987879
3407 0.45039677146643947 0.0020000438186806154 7.72492096704327
3351 -2.5095447803936493 -5.9702849430791485 -3.1719954975046667
3356 1.241939739606551 -0.12235439747918489 4.473000632760796
3427 -1.2058928441011403 -2.2027686060173925 -5.991918617907429
3355 -2.668786328544916 -0.9235389385693322 -6.577927458316041
3360 -0.7751984775485089 -1.0291537426280124 4.42714207412594
3404 7.560647308924111 0.31155423949856964 -3.275233007480404
3423 8.201383006500496 3.7568267338523977 -1.5686164925319401
3340 1.513080195832678 -1.4545268929739936 -3.457933949331215
3359 0.2629553652136129 6.488138794196762 3.4745992612276413
3363 5.001370267982218 2.0819005859268644 14.52585188299925
3367 1.4547440776333946 -0.1464130390957726 2.0695737696904
3368 -0.7237608972926033 -5.7548731963427855 8.472603619790322
3400 -9.29025841404104 -0.4197346710706517 -7.049807634404394
3371 -3.8817935679321383 10.416600315640983 -1.3058920129589684
3419 2.194173308232291 1.2723697760675126 0.16283184357746827
3315 -3.8384683557312527 -5.858748332118355 10.242250029188845
3376 -7.117744858754134 8.047607967270721 -6.068984767973405
3375 -1.0181598957352898 2.128902216901237 1.8132194259468468
3380 -1.5120355440226514 0.36013048899831307 -12.374315138314314
3412 2.545467647641995 -1.400736519648364 -3.057023573262966
3379 -9.158309919004273 -6.649446140074002 -7.308232761356785
3384 4.570663103898428 0.18426650690380558 0.5564266073149925
3455 2.729879710528552 3.47235755838255 -2.755880529821671
3364 -0.3924569428748395 1.6557473576514041 -5.501314740298106
3383 -1.3745534078619022 -7.555849129399255 -0.6464106385195151
3387 -7.104573548009052 3.042922839202577 -4.469442433817045
3391 -1.3840916126542893 -10.632881589678094 4.679525665336073
3424 -1.1118197433069013 -8.269410575523287 -2.036676891549547
3372 2.5228774018893847 -3.5183308444589434 -4.858366473585442
3395 3.1275340507319633 -4.830826446563659 -0.2892821404686281
3428 -1.5714930356099281 -3.048935893224238 -3.4107975947362466
3451 2.9337733153516 -15.007774365445865 3.80440417844146
3399 5.748749110377797 6.389655937239318 -2.922766779255347
3432 9.130682223899697 6.620964960504755 5.823749034489133
3403 -4.573231786725804 -0.7500212747365788 0.6558016817889527
2601 -0.16537807428477955 -8.095559798645427 -6.004562456212708
129 -4.009229983893178 4.55367403378298 -0.19591392260812196
142 0.7996448463981516 6.497681078808315 -0.8901763977282678
5 -1.657606255699192 -11.654050351552453 -5.270826528781073
121 2.458621984349089 -2.09779357784474 6.628132798647345
13 5.97549739653109 3.1004021194707163 0.8090723818421329
46 11.308508584468482 11.456455048315904 2.2434518381358832
101 0.20887766477336078 5.278031156408354 8.450758563879667
134 -5.287763413816285 -0.8785927780075055 5.287712821451698
18 0.3773865805411863 0.495561996081265 1.8865989836075006
49 -9.629771506705842 -0.1646089245326676 -0.20885263739963658
98 0.4009013080021876 -8.385192848296976 5.4445524257218
77 4.5796003386049815 -4.097844277726886 0.6208425309416524
25 -4.270135406913121 4.458387400072596 0.2669779377858051
17 11.622280248071496 -7.139446067117047 1.1780908431517592
6 -5.4729174063456565 -3.0824023785804306 4.547343846830746
9 4.298216000769225 3.840819739152 2.709262058326888
65 0.8327155161230808 8.622605467591569 3.48954307785118
50 -7.75115225208897 3.4074440221142073 5.122142715499554
2 5.79018083342353 2.974956825699432 11.667506100458523
41 7.416267326369407 -3.2826939570385765 -1.5210351848939831
26 -0.7129527506489026 5.004800618256503 2.487326427677505
69 -6.354777328388007 1.2450743276837992 3.653354270889284
118 -3.9874926912044297 -4.258643877136715 2.323879579818066
86 4.0054831714481445 2.164526183461855 0.14702589667828173
82 -0.5559973902050128 -0.4988503278641387 5.2958382127832975
113 -5.187414305467803 4.030083799612006 1.507771826885689
105 -6.377905037114193 6.842310787396554 4.23890050954208
106 -7.3327470702536965 -8.647176645584857 2.0294451229905692
33 -1.3186645716448087 -6.647644789972843 0.15738654883264178
109 -4.551320857059756 12.662381018545029 0.31748433510665697
37 -11.48775903227332 1.3736423980200858 -4.142530775568187
125 0.8371470651345474 1.9226728716118964 -2.2512006326353315
58 -2.1396752016514524 3.8944632219089166 -1.9854056059326453
57 2.500113799460276 -3.687489065138066 -5.319137550606991
14 4.634167257360658 -1.4807090845487365 -5.758564712996246
138 -5.2475600340195765 5.136880738154982 -7.437421368980252
53 -1.4338307282261036 2.881952583475839 -4.900623938428919
45 10.649754603356781 2.684429708196509 -2.644680871158526
38 -5.742099907486358 3.3313296133006713 -12.053082967493166
93 -0.05097732289542757 0.8700693582610249 -7.370669590352308
70 1.9446446285072132 -0.08307463182812339 -2.8818461179901913
29 -3.4981256762819166 -4.838073675979851 -9.332841751431175
133 -2.4178056814349023 -10.530740968926812 -8.704429197861497
22 0.4043099580419556 -7.066270354341246 -3.189414617075644
90 3.920467370213316 2.722350897450566 -3.3425361988751336
81 -5.264755679723506 2.6192584214840786 -1.2089859753434475
89 -6.9970125319559315 -1.282806204252591 -5.735779757783793
130 -5.921939509754235 0.8515926628481177 -8.144722390609218
2602 -15.670514957685725 9.450228008191642 8.872329792048463
2702 -2.278692994857003 -13.489291595489766 2.5418345476579343
2653 -0.7635461812549431 -1.4151206537555243 3.765018356767394
2662 -9.778333674252284 -2.581536534346176 5.037702002859889
2634 -5.3597042964584825 -5.343328523451702 10.03643112122267
2729 -3.4633764140333274 5.044350075478502 5.399825046761423
2630 -0.529912220530488 2.7269943398097327 9.32408693028573
2686 1.923977350464003 6.774939281169738 6.836431715419498
2725 -3.318585866240673 7.506753677363777 2.6390450042764804
2701 7.437503506082291 -0.03693363591410894 4.115340343031987
2690 2.671231013336046 1.7864626728631516 6.026904707366417
2618 -0.5954481313670477 -0.2743683237248317 3.076934421185926
2694 -3.0418354814000517 -0.7415624095254179 8.125358022170248
2670 -6.860398628103418 3.474781699239529 3.6176155506094094
