LAMMPS data file via write_data, version 10 Sep 2025, timestep = 5000, units = metal

3456 atoms
1 atom types

-0.27639714953052597 24.544597149530595 xlo xhi
-0.22002997764621313 24.48822997764616 ylo yhi
-1.2699407093130333 98.34274070931306 zlo zhi

Masses

1 26.982

Atoms # atomic

3 1 1.9974234642690178 24.41441627223899 0.7614676705897847 0 -1 0
8 1 4.050008572646476 1.8672678579050652 1.0900169048483277 0 0 0
7 1 5.795241576509927 0.12973664244973548 0.6277396775546349 0 0 0
110 1 14.165950549182593 18.064753836104654 -1.256736894300968 0 0 0
11 1 9.71564547513054 0.23709806204472111 0.8863866574137576 0 0 0
12 1 8.061884453834185 1.960709741457527 0.9129658519095796 0 0 0
33 1 8.126727713014017 4.070785605133976 -1.1504749009175577 0 0 0
16 1 12.28346588474462 2.013290555129339 0.5167483660480723 0 0 0
20 1 16.684829091362403 1.9231932723131666 0.6392337263135479 0 0 0
24 1 20.221949424882823 1.7750014462679489 0.8050251817630678 0 0 0
78 1 5.856711479371883 14.024474252900577 -1.0370515166848677 0 0 0
4 1 -0.04602803569652961 1.9792749977467503 0.6523133736363289 0 0 0
844 1 24.49167688530673 22.435737896401736 21.328933899687087 -1 0 0
25 1 0.0305764778360314 4.1030537486087555 -1.2539095902858433 0 0 0
27 1 1.9675607513904168 3.7889998467273305 1.1391434313379496 0 0 0
31 1 6.161314846437089 4.06892435628147 0.7390618695768039 0 0 0
32 1 4.091628588034997 5.894073188284741 1.1468416007139184 0 0 0
35 1 10.08774048075861 3.8701694090555714 1.1024824597200835 0 0 0
36 1 8.02698518979485 5.9813828945517455 0.8807828788989287 0 0 0
40 1 12.491823677424684 5.971949359372852 0.8890925565824528 0 0 0
39 1 14.240677973800693 3.7542913337296855 0.8588828931509265 0 0 0
44 1 16.73633115865416 5.685678351731708 0.7404998712826831 0 0 0
743 1 22.6770715984215 0.05120245732449691 21.581188424475283 0 0 0
106 1 10.11066027072431 18.524496034055026 -1.232422941987401 0 0 0
43 1 18.50774261850451 3.7674410272345122 0.9990481427797002 0 0 0
48 1 20.153121906051695 5.860448145306035 0.9604414146472768 0 0 0
37 1 12.145177664654751 4.027472525575527 -1.2131962994609589 0 0 0
41 1 16.237616668670924 3.7932521985072034 -1.1994780844317339 0 0 0
28 1 24.438855812895078 6.278594353947431 0.7726885994968953 -1 0 0
47 1 22.57298054754404 4.14131720376998 0.8056273917809191 0 0 0
51 1 1.7109048374712144 8.124950328846998 1.1221861158386712 0 0 0
52 1 0.18037082599003806 9.975929874249973 0.8641666919297748 0 0 0
55 1 6.121391575575232 8.126950377948244 0.9886446781839058 0 0 0
56 1 4.079414374460109 9.972209964245904 0.5304872187735519 0 0 0
59 1 10.118586500402868 7.882802392663411 0.6386064674995313 0 0 0
60 1 8.379021944188253 9.928175413331697 0.7819275201393419 0 0 0
64 1 11.779851582558873 10.074784784609264 0.8553480307335457 0 0 0
63 1 14.116596280502051 8.201347782072178 0.6663132988233447 0 0 0
68 1 16.21790197582473 10.192520140702197 0.8728750118582238 0 0 0
26 1 1.5822928935996659 6.20657762204804 -0.8877358491814659 0 0 0
17 1 16.303547776389387 24.3915822249168 -0.9045065805958943 0 -1 0
67 1 18.577149155484463 8.00732013181828 0.8346934194863729 0 0 0
72 1 20.398544524606393 9.834674876633146 0.8353992011345102 0 0 0
97 1 24.532352386933262 16.352168368893853 -1.1432302988350016 -1 0 0
71 1 22.217650797919717 7.98434628091519 1.1473528284425076 0 0 0
75 1 1.757713786999445 12.083822621718461 0.9886679965646863 0 0 0
79 1 6.05611010743803 11.930681314251622 0.6405053549799242 0 0 0
83 1 10.434013801038487 12.229451668966824 0.41101296613394767 0 0 0
739 1 18.22050829572477 24.267279262854398 21.46472361413424 0 -1 0
864 1 20.391230090256684 22.084181399789635 21.413476540705183 0 0 0
98 1 1.8605522961095393 18.281026432357162 -1.2210271411740752 0 0 0
87 1 14.089968098683244 12.05054122835839 0.5140723131072484 0 0 0
91 1 18.141339750578126 12.299217562336759 0.6166651268333798 0 0 0
34 1 10.074899342078929 5.674458787381949 -0.9093819292409334 0 0 0
95 1 22.01350222452494 12.411550168582592 1.031772452841678 0 0 0
99 1 1.8615988018705831 15.991994524504761 0.6216807630525316 0 0 0
76 1 24.51511596862629 13.944993504344382 0.6156468107814996 -1 0 0
80 1 3.9821253864710613 14.095736775378462 1.144307293682166 0 0 0
103 1 5.917142825275974 16.042653839689397 0.5279080358441084 0 0 0
1 1 0.08682526098855858 -0.06461252023732217 -1.1982073846836074 0 0 0
84 1 7.941735744415919 14.113549742006935 0.8755681905140258 0 0 0
107 1 9.744030740971334 16.05061386143631 0.6748645037472158 0 0 0
113 1 16.34120901925558 16.05917938601548 -1.0827179521347512 0 0 0
88 1 11.89943768966128 14.38466259529811 0.5867590944941339 0 0 0
855 1 14.333250368009935 20.6998470376485 21.91989189979177 0 0 0
836 1 16.13116857392911 18.539273996143493 21.48247661465348 0 0 0
92 1 16.15096039049734 14.309091926410852 0.8080151226602177 0 0 0
111 1 14.050941336065273 16.44582574675216 1.0814583564552596 0 0 0
96 1 20.218330288619626 14.775414369088729 1.11757425010792 0 0 0
115 1 18.05813119447489 16.452505097560774 1.2727441222001428 0 0 0
800 1 4.101497177651583 14.161554978072418 21.435952491392026 0 0 0
823 1 6.250009861986638 16.073834380023534 21.615816969168147 0 0 0
119 1 22.271953433594426 16.727561155729763 0.6036450518973162 0 0 0
90 1 18.384060510863463 14.38813078893324 -1.2675510284384002 0 0 0
81 1 7.875402389565005 11.977915477646546 -0.9428677702130748 0 0 0
123 1 1.8871889748994102 20.403568827782316 0.9172125402950515 0 0 0
100 1 0.025083852502719772 18.5741376293418 1.065072900062641 0 0 0
847 1 5.989970809642792 20.45593033646447 21.64304052732981 0 0 0
104 1 4.163604276709973 18.121274534418617 0.6784878861048693 0 0 0
127 1 5.9990479836965624 20.536487292681805 0.8731451318143586 0 0 0
53 1 3.856962771080995 7.909197304727186 -1.1634448046057375 0 0 0
860 1 16.278512112429517 22.23471226787176 21.401520610999537 0 0 0
108 1 8.112617107130667 18.414388699377845 0.605868210593639 0 0 0
131 1 10.06474139876222 20.72888574476101 0.6500096736798577 0 0 0
112 1 12.0277706344428 18.25865292824388 0.7748572837274086 0 0 0
863 1 22.84717558538958 20.710728608236163 21.272712083392822 0 0 0
819 1 2.222539855889165 16.25310410705016 21.890135768898457 0 0 0
135 1 13.981751207938354 20.11926752517043 0.5669233185159681 0 0 0
116 1 16.191194934666235 18.44524164316765 0.9106715750425702 0 0 0
38 1 14.336319617409973 5.928871592568197 -1.0591200996521826 0 0 0
120 1 20.214768976812273 18.361064124425717 0.6664754838327238 0 0 0
139 1 18.252988279775288 20.33797259204922 0.6818298327481167 0 0 0
735 1 14.36691782616987 -0.16328837823209486 21.81360477280611 0 0 0
815 1 22.637843862394114 12.18419515476978 21.75938674697152 0 0 0
22 1 22.491050502970367 1.9567971581833667 -1.1361132853797826 0 0 0
143 1 22.502404357379845 20.25103566418577 1.0274126357515891 0 0 0
6 1 6.1715282967632 1.91673125276409 -1.0602502537308927 0 0 0
128 1 3.919621173183355 22.501346589710913 0.9593223705230036 0 0 0
102 1 6.421441137512468 18.05980557186926 -1.157366349857397 0 0 0
132 1 8.13877729573462 22.71532011659635 0.8182725041236276 0 0 0
136 1 12.467397421123612 22.372162051344542 0.6527201238596967 0 0 0
986 1 1.5171643540766193 22.395545580468983 23.597944415266277 0 0 0
811 1 18.638288045016772 12.89187447161011 21.61555896135958 0 0 0
15 1 14.276518384427996 -0.21049580391390776 0.6788004562986669 0 0 0
140 1 16.178110176313446 22.100465089355996 1.03126617842952 0 0 0
19 1 18.40487766116209 0.021002575743842816 0.8761033562660065 0 0 0
144 1 20.72563557120675 22.459360305596093 0.7355220105277054 0 0 0
808 1 12.597821822097236 14.407382537993518 21.34246692261965 0 0 0
856 1 12.195848424701023 22.071160821486227 21.47040738656508 0 0 0
124 1 -0.006686560130144126 22.586052691311085 1.1028647271088676 0 0 0
23 1 23.00061512676593 0.02384314383102973 0.7605352537154229 0 0 0
146 1 1.8959964240786027 1.7094576587308687 2.557119771381727 0 0 0
145 1 -0.10734824867748075 -0.04926095861057089 3.1172670178272366 0 0 0
150 1 5.824457377386137 1.9313345621022724 3.1732707408401915 0 0 0
152 1 3.83800398536873 1.815081186225835 4.929591041035116 0 0 0
154 1 10.337226810879038 1.7317905881939502 2.9505363044890967 0 0 0
156 1 8.04820712242667 2.2153058073409686 5.165853899925964 0 0 0
160 1 12.453207994081662 1.7644780407712894 4.550480375116955 0 0 0
158 1 14.549677850819569 1.7519967525399351 2.5924612489151055 0 0 0
164 1 16.495928793638996 1.8184544760211638 5.18036311587805 0 0 0
162 1 18.636706183271727 1.848235908980076 3.1681708650478386 0 0 0
168 1 20.625430567387376 2.1273123196222605 5.088422138417917 0 0 0
148 1 -0.10424092114278705 2.1447277135545426 4.620044308519053 0 0 0
166 1 22.666322939478746 1.8213809695237484 2.8121792176875484 0 0 0
170 1 1.962379588436074 6.151155562766295 2.850425152087447 0 0 0
171 1 1.8061298576059412 4.1729296706965044 5.102146281715068 0 0 0
169 1 -0.2648274160047227 4.026962253933438 2.9154746634753046 0 0 0
173 1 4.251729768702867 4.042410377355256 3.343302651523147 0 0 0
174 1 6.023368589831775 5.9508146249706275 2.994265581255873 0 0 0
175 1 5.966966505171097 3.9100557443247768 5.1299997280322005 0 0 0
176 1 3.6999012225349235 5.998820851220557 5.059558699464841 0 0 0
177 1 8.021644575489601 3.9864974877788972 3.2600263115789234 0 0 0
178 1 10.186589796885352 5.810413520127939 3.0631646200883393 0 0 0
179 1 10.367409268569752 4.0002330932527075 5.07551904828738 0 0 0
180 1 8.11937085190123 6.164051372525554 5.069868703471376 0 0 0
181 1 12.045729710332946 4.238349029252313 2.679423792017154 0 0 0
184 1 11.95224260741283 5.917834377197312 4.934768307191735 0 0 0
183 1 14.605038754827344 3.953880337652236 4.986247847961645 0 0 0
182 1 14.497914226257093 6.28440437960549 2.634347752809532 0 0 0
185 1 16.17265344993767 3.9201459603888873 3.0240270656009107 0 0 0
188 1 16.486351906564238 5.811475041177684 4.648464554392963 0 0 0
186 1 18.572870294842254 5.504444600209956 2.9253912239184636 0 0 0
187 1 18.401495653079735 3.9466187341371155 5.0407655612074285 0 0 0
189 1 20.873042128727334 3.7879088766621924 2.9616420585324317 0 0 0
192 1 20.6220175487355 5.725633601411578 4.949495339548557 0 0 0
172 1 0.06043078818803399 5.877019827706793 5.00624822324871 0 0 0
190 1 22.32514511290922 6.55907430838718 3.174621246864324 0 0 0
191 1 22.65460621772486 4.1195693178273265 4.683962833777847 0 0 0
194 1 2.053065973840001 10.273125490324105 3.249791681797274 0 0 0
195 1 1.78470238692797 7.902367719984582 4.873705012907365 0 0 0
197 1 3.7561254771927555 8.533947682672474 2.7078798862456344 0 0 0
198 1 6.177464778671212 10.088299475429176 2.8778633235797537 0 0 0
199 1 6.092787924291743 7.865262836456878 4.931194186309154 0 0 0
200 1 3.9737384766623416 10.134491078591642 5.060298673615435 0 0 0
201 1 8.547268394780565 7.976999629042995 2.6425667567738835 0 0 0
202 1 10.435030768066362 9.969132965416119 3.1654887035948702 0 0 0
204 1 8.118847655671761 10.143146089353438 4.853020591999296 0 0 0
203 1 10.071984899077037 8.03579259466682 5.026004498164636 0 0 0
205 1 12.227059442844224 8.030477884439785 2.894677235004841 0 0 0
208 1 12.599097775429058 9.715134219099511 5.1238576977394 0 0 0
206 1 14.119040962583199 9.951059566624034 2.554864422115397 0 0 0
207 1 14.055962165130273 7.531082230077034 4.883955293481259 0 0 0
209 1 16.38773498876735 7.986528188586094 2.4093499983457805 0 0 0
212 1 15.716299048850795 9.9688061689636 5.035936121854945 0 0 0
211 1 18.06924441772263 8.463356654791294 4.8857769911520235 0 0 0
213 1 20.07590166024449 7.853915021465596 2.9735216115883096 0 0 0
216 1 20.238604069342294 10.017710805633286 5.128119755161158 0 0 0
210 1 18.397697064551338 10.017545541923797 2.598061517945942 0 0 0
196 1 -0.25151008042666706 9.966028815084968 5.052881163587235 0 0 0
193 1 24.370973161464278 8.24971932728864 2.883059071774781 -1 0 0
214 1 22.30877590254495 10.294458974817301 3.048143062404523 0 0 0
215 1 22.223591866059884 8.37194569535472 5.0158826637860505 0 0 0
219 1 1.821282354458058 12.353981783961574 4.8637179486923845 0 0 0
221 1 4.00432533331412 12.082207649715645 2.6946092235028827 0 0 0
223 1 5.968479648055346 12.31061655447247 4.853976548517183 0 0 0
222 1 6.141278345475071 13.882348207130475 2.921183391155785 0 0 0
224 1 3.760134579710104 14.040993023840725 5.015382653081261 0 0 0
225 1 8.418911058980166 11.644785765067354 2.6092107885979954 0 0 0
227 1 10.37969169615954 11.877307757224571 5.069760835652811 0 0 0
229 1 12.373567333115837 12.11442047608879 2.659069222300084 0 0 0
231 1 14.16674632956712 12.341048016002924 5.061285883085193 0 0 0
233 1 16.021001728273127 12.071527423105914 2.8754169884974496 0 0 0
235 1 17.84274271537062 12.196921996262253 4.783233234645411 0 0 0
237 1 20.202686430820293 12.009132039535457 3.0143836610828636 0 0 0
217 1 24.32695983214846 12.2592546418557 2.990479790600884 -1 0 0
239 1 22.133232219065683 12.055970838898125 4.874182506552937 0 0 0
220 1 24.445875961619628 14.219789280812606 4.952232285699792 -1 0 0
218 1 1.3702219760991547 14.473781227243501 2.833022836825802 0 0 0
243 1 1.6937312296829568 16.1407457157024 5.122835460533893 0 0 0
245 1 4.04636602133265 15.894998771131714 2.9506500912341647 0 0 0
247 1 6.061105526813862 16.367500388179707 4.977876099681016 0 0 0
228 1 8.08402202586105 14.409017180152237 4.913552421143609 0 0 0
226 1 10.126450218316958 13.93919093629347 2.833623679254673 0 0 0
249 1 8.12403100428787 16.1286909060025 2.7358806958343695 0 0 0
251 1 10.252521986440676 16.32200921101181 4.982312617257045 0 0 0
232 1 12.292055715677405 14.438109134641936 5.101033879807841 0 0 0
253 1 12.035103310143661 16.242150176181088 2.9395165966848396 0 0 0
230 1 13.99399631499414 14.41386142736906 2.8847200762078558 0 0 0
255 1 14.118321681167444 16.38614239472483 4.641858403884145 0 0 0
236 1 16.107903777365912 14.355189577416022 4.688568163946145 0 0 0
257 1 16.118934544488354 16.359484879655756 2.925247657221374 0 0 0
234 1 18.027536441073146 14.259542803432383 2.941466927753484 0 0 0
240 1 20.36291203352799 14.287050754379901 4.881948655418887 0 0 0
259 1 18.38221761706535 16.355745839489796 4.914595843188321 0 0 0
261 1 20.335335475743783 16.605355766831075 2.994915321562111 0 0 0
238 1 22.496333349741732 14.331129416649626 2.7246196104962466 0 0 0
241 1 24.20062263689031 16.40293633461565 2.8643488541900046 -1 0 0
263 1 22.539147222611604 15.95367388347934 4.9197341617627535 0 0 0
242 1 2.4244978351905906 17.90449831040729 2.5965945804934396 0 0 0
267 1 2.0645071911407262 20.088282103395418 5.128029375829495 0 0 0
246 1 6.000076412626383 18.234590035044707 2.9282919396451517 0 0 0
248 1 4.150813942862238 18.039649336422563 5.0857971667635935 0 0 0
269 1 4.163700980580714 20.484308766713667 3.086464632655696 0 0 0
271 1 6.066066000542295 20.039617249418757 5.166697003946135 0 0 0
250 1 10.232998845749272 18.43590301203788 2.7809269292576406 0 0 0
252 1 8.22881179184309 18.20769999958729 4.648964809792483 0 0 0
273 1 8.064629367578982 20.460670780902745 3.265444573992548 0 0 0
275 1 10.068184644612272 20.422760278140107 5.1661725927988495 0 0 0
256 1 12.277284128000902 18.47052695400448 5.029797824028575 0 0 0
277 1 11.778022236126995 20.47950523845355 2.71889739552845 0 0 0
254 1 14.24671546700854 18.599081170684737 3.063463065937567 0 0 0
260 1 16.062074589248503 18.52082255732203 4.715197870339601 0 0 0
279 1 14.71766952016107 20.717113427161646 4.794336034961774 0 0 0
281 1 16.62956783989214 20.311051145182052 2.8312932947192397 0 0 0
258 1 18.694785202477505 18.641836214148686 2.7513417346667888 0 0 0
264 1 20.766619690988932 17.941135792859477 5.280195407116074 0 0 0
283 1 18.70594255537918 20.169029422857605 5.045769494834114 0 0 0
285 1 20.662504841341956 20.41932592207464 3.1081673613676175 0 0 0
244 1 0.0847028757020315 18.1858790883601 4.946005874850084 0 0 0
265 1 -0.048589248645529465 20.459788749951233 3.124720386292414 0 0 0
262 1 22.718274595874604 18.43254940568349 3.0259504558342156 0 0 0
287 1 22.57871361937397 20.145970082870907 5.280846469283375 0 0 0
147 1 1.6160222617483084 0.11269228718083263 5.070742314231472 0 0 0
266 1 1.8702430836033148 22.21245933556295 3.2507805981223425 0 0 0
149 1 3.560919050934139 -0.17960122715859475 3.1255907441675594 0 0 0
151 1 5.905514504591563 -0.19113549865524554 5.127587023840793 0 0 0
270 1 5.916553103030046 22.906688017129266 2.632795324919488 0 0 0
272 1 4.066347475207668 22.445541008524348 5.142670094635272 0 0 0
155 1 10.014759208091697 -0.09426477636304179 5.01623281125326 0 0 0
153 1 7.796449096448507 0.08747413399436177 3.0695372383629103 0 0 0
274 1 9.883104625065437 22.806518088824543 2.8478625856891497 0 0 0
276 1 7.7582197761422265 22.663081125380852 4.849290950502101 0 0 0
157 1 12.148245862553306 24.31638989227887 2.857436885458254 0 -1 0
280 1 12.211959573120765 22.55474335332606 4.834777025278141 0 0 0
161 1 16.614516554284457 24.417359753497898 2.794601416721042 0 -1 0
159 1 14.446518935522214 24.258838046687952 4.599516489627088 0 -1 0
278 1 14.105870959513362 22.229266129788762 2.6624556822792482 0 0 0
284 1 16.35776173589455 22.55358081437589 5.013281518925788 0 0 0
165 1 20.61582901783671 24.306595073524925 2.727898353129718 0 -1 0
163 1 18.349528359169526 -0.2065674240722674 5.179784051795004 0 0 0
282 1 18.604427067554056 22.51623090749757 2.6854397943129884 0 0 0
288 1 20.480113495322662 22.307193855963973 5.113434772665439 0 0 0
268 1 24.44672239729703 22.50883337137817 4.995803841920016 -1 0 0
167 1 22.1851314849144 24.165605839128148 5.260466733915248 0 -1 0
286 1 22.505133239540044 22.421836639216714 2.7297200410764115 0 0 0
290 1 1.7339179946183658 2.0391918450933493 7.137328455510405 0 0 0
294 1 6.067251422012203 1.5943676254075414 6.829002632546569 0 0 0
296 1 3.9291954978514694 1.8372302263315192 8.828705818221643 0 0 0
319 1 5.833613318177409 3.6070105481188923 8.990726370903552 0 0 0
298 1 10.228633537865427 1.752250267777993 6.974150297403488 0 0 0
300 1 8.087938106286751 1.8258364270090452 9.320921772246017 0 0 0
304 1 12.159143982600364 1.626590274757241 9.404415367713066 0 0 0
302 1 14.333029094342427 2.120385033072636 7.05776045492342 0 0 0
308 1 16.13217434027586 2.1018871514391897 9.11925480014114 0 0 0
306 1 18.635778842360416 2.2292213063896336 7.344825652009659 0 0 0
312 1 20.38633555710834 1.8790425904833388 9.142785868747563 0 0 0
307 1 18.400390652458498 -0.08753886402594852 9.232584408984664 0 0 0
292 1 -0.19890594518200724 1.625808748314762 9.01951685151515 0 0 0
310 1 22.67872441213776 1.8731690205702982 6.767283796657797 0 0 0
314 1 1.4666411316382852 6.058102238038131 7.324093450692542 0 0 0
315 1 1.6933713605335359 3.7783339040455686 9.289434911931073 0 0 0
317 1 4.087193926292308 3.8910121065046672 6.961177122955341 0 0 0
318 1 6.096100910052021 6.1162404087563385 7.16890651409099 0 0 0
320 1 3.891440645407604 5.6039632996243265 8.865968848117998 0 0 0
321 1 8.135119884350066 3.8953399323286932 7.125084737999588 0 0 0
322 1 9.922883920919887 6.0410603673373995 7.044344991276185 0 0 0
324 1 8.007027982155991 5.5030294086400975 9.428284174351347 0 0 0
323 1 10.267465849556348 4.200153067647993 9.510084231308578 0 0 0
325 1 12.14302389803736 3.817499633943104 7.172890586859156 0 0 0
328 1 12.058130190287422 5.600023873512167 9.150196136240954 0 0 0
326 1 13.952377886881578 5.918691024132285 7.0030149310639835 0 0 0
329 1 16.648217649300058 4.113983738561741 7.419428759881924 0 0 0
332 1 16.47216530430844 5.651789826359368 9.379551415124018 0 0 0
327 1 14.266130604885149 4.102257250180355 9.03828981649712 0 0 0
330 1 18.444240292504595 5.880204064991997 6.732710996050667 0 0 0
331 1 18.341788611441494 3.963669606032787 9.263244120116953 0 0 0
333 1 20.80364284057773 3.776738678433031 6.987675341428615 0 0 0
336 1 20.204195151843102 6.039259238505679 9.33872285195292 0 0 0
313 1 -0.2504104717627875 3.822739537106978 7.143539525325403 0 0 0
316 1 24.285842526608185 6.105606730523462 9.092518294464076 -1 0 0
334 1 22.406567073814756 6.048536949227039 6.973530268753944 0 0 0
335 1 22.55057631588484 3.56278203386299 9.43616466663417 0 0 0
338 1 1.5122417591483153 10.361888847964952 7.042713790634668 0 0 0
339 1 1.6824303224159314 8.230282309026034 8.81428835740555 0 0 0
341 1 3.7375716933709544 7.859273115640377 7.0221319004781275 0 0 0
343 1 5.830442280637569 8.150030276861703 8.701495399121354 0 0 0
344 1 3.755527360895508 10.032702630770656 8.959250785637568 0 0 0
342 1 6.086563656596593 9.966255197481965 6.780881579508094 0 0 0
345 1 8.188296637956988 7.984178331097256 6.813520882368572 0 0 0
346 1 10.039301611230567 9.971270240217914 7.298016950714208 0 0 0
347 1 9.936548572661778 7.9564287016084005 9.08386152093423 0 0 0
348 1 7.773891352697291 10.087873752985162 8.97268638238883 0 0 0
349 1 12.03706356192057 8.091908092492384 7.301482197900853 0 0 0
352 1 12.301495189659764 9.96612153681463 9.222040070727127 0 0 0
350 1 14.309330001239402 10.200299196956559 7.149255825258869 0 0 0
353 1 16.083246591404176 7.689554593397662 6.893516897164513 0 0 0
356 1 16.280024513351 10.154250889490852 9.00532927625893 0 0 0
351 1 14.072582267555992 7.820018976758277 8.99672807358031 0 0 0
354 1 18.2909660066318 10.21745120303294 7.027769962267225 0 0 0
357 1 19.864711090268578 8.139738815695626 7.570767611906115 0 0 0
355 1 17.997537697643665 7.974435807823422 9.546511620100635 0 0 0
360 1 20.328552231273108 9.852713590651142 9.052736906676346 0 0 0
337 1 24.210935413835287 8.05822975381336 6.947042947782657 -1 0 0
340 1 24.230990215479558 10.083386956314278 9.168624852019427 -1 0 0
358 1 22.291538106469346 10.178174400547384 7.149288286486849 0 0 0
359 1 22.271619721607173 8.008910624253753 8.85528796742746 0 0 0
363 1 1.9697536817119832 12.35386024726848 9.262123151631455 0 0 0
362 1 1.5787788670750922 14.03847871290468 7.2052523097734475 0 0 0
365 1 3.9201930095152298 12.249734914431126 6.955514214157654 0 0 0
367 1 5.741418509796554 12.166641491970454 9.076162489716593 0 0 0
369 1 8.063526041933759 12.336499373696025 6.9926895516959835 0 0 0
371 1 10.13255602051028 11.921870092577512 9.169018327200527 0 0 0
370 1 10.278591530962766 13.96500604953865 6.930649113325618 0 0 0
373 1 12.469104246627188 12.143113690389317 6.929668808413007 0 0 0
375 1 14.440598185332165 12.313151080132933 9.019021778146376 0 0 0
377 1 16.537765669925683 12.092179386586206 6.9853892057287315 0 0 0
374 1 14.393231366168614 14.252727096806188 6.796037329843507 0 0 0
380 1 16.47382098311663 14.286248657860767 8.864550064520728 0 0 0
381 1 20.415405318464053 12.365254200425824 6.658340289715386 0 0 0
379 1 18.672705212200945 12.432019344103614 8.72679123401068 0 0 0
361 1 24.2902981709859 12.252402616131997 6.644836596995651 -1 0 0
383 1 22.342086572227437 11.996899502734399 9.04379185803434 0 0 0
364 1 24.18511631235839 14.162665454687144 8.881459564877826 -1 0 0
387 1 2.0666032607913984 16.136579941796743 9.078605261720849 0 0 0
366 1 5.937468324066638 14.086783618513888 7.04587732319416 0 0 0
368 1 3.954808570805395 13.998545116956768 8.87186128356661 0 0 0
389 1 3.6653892170297033 15.96946663913528 6.986352761265874 0 0 0
391 1 5.60693047522837 16.378999565795837 9.108172460718986 0 0 0
372 1 7.991461211176755 14.016801642728344 9.24424937389093 0 0 0
393 1 8.299291137498981 16.241152544259762 6.941139558807453 0 0 0
395 1 10.234885541910138 16.24762041554326 9.253186135626178 0 0 0
376 1 12.377871256559255 14.223263351583604 8.919420634621028 0 0 0
397 1 12.229942738892346 16.444335686251794 7.141188435631728 0 0 0
399 1 14.359400151603793 16.217149488854993 9.346188690678636 0 0 0
401 1 16.5094758122317 16.460186389726132 6.825370743032877 0 0 0
378 1 18.181904002920092 14.321223980349352 6.945708687759158 0 0 0
384 1 20.676478197198847 13.98377469087577 9.13315936236446 0 0 0
403 1 18.54476536764404 16.74693518832449 9.446653275714185 0 0 0
405 1 20.17914259275898 15.857470249660757 7.135891144916984 0 0 0
385 1 -0.19042650974815048 16.318553480327925 6.9725049288861385 0 0 0
382 1 22.253064711151055 14.352717344812982 6.97870013997235 0 0 0
407 1 22.37360116756792 16.253099677686762 9.267084934817996 0 0 0
386 1 2.065868999309918 18.409109973812345 7.289042711116586 0 0 0
411 1 1.8268887097312554 20.604596351874076 8.659019333721377 0 0 0
390 1 6.217635981897463 18.010627663417623 7.153956404764683 0 0 0
392 1 3.850640728742526 18.51704861461808 9.228567602899544 0 0 0
413 1 4.057323026278199 20.401052020415992 7.365486514675114 0 0 0
415 1 5.998413521684509 20.48347410245198 8.967962160259068 0 0 0
396 1 8.068506525981583 18.277258004491774 9.134550111010302 0 0 0
417 1 7.835166073940103 20.40752575483256 6.839466411061123 0 0 0
419 1 10.580817882935094 20.582289128450725 9.122982186793307 0 0 0
394 1 10.377604246079299 18.3190885383365 7.254340170691265 0 0 0
400 1 12.70342711976485 18.336309833110555 8.972122889319381 0 0 0
421 1 12.137421711588006 20.698922014789453 7.083851576805129 0 0 0
398 1 14.557299177418303 18.093535853565278 6.876339243342393 0 0 0
404 1 16.415340248483666 18.235993360925683 9.240665575247883 0 0 0
425 1 16.85453207490675 20.670939816817068 7.0077602741040295 0 0 0
402 1 18.88396882078954 18.553762673673518 7.575609405465821 0 0 0
408 1 20.73511697524377 18.233571259787176 9.305879639876864 0 0 0
427 1 18.334843563916095 20.17845830198516 9.419748659648894 0 0 0
429 1 20.603117506661093 20.444465948064465 7.243931511283719 0 0 0
409 1 -0.14535101455431704 20.138013580956066 7.223111485212822 0 0 0
388 1 -0.07520740424621739 17.99221305543566 9.270675151878894 0 0 0
406 1 22.42813139053694 17.87369666611771 7.233985438351134 0 0 0
431 1 22.76722761488989 20.393596914686523 9.049589266608399 0 0 0
291 1 1.8688628683087107 24.487954094958113 9.425267998756869 0 -1 0
410 1 1.754462810930339 22.69066831647745 6.946468424295702 0 0 0
293 1 3.839458881234477 24.386813376706407 6.798714955935713 0 -1 0
295 1 5.828198351489527 -0.19587936625779154 9.249326222635963 0 0 0
414 1 5.966857530072871 22.495386227415246 6.8746119435831545 0 0 0
416 1 3.9329101129285107 22.658504520116985 9.114595735516087 0 0 0
297 1 7.961695393763536 24.38000324881921 7.357591514800802 0 -1 0
299 1 10.207030679486568 -0.17170676076573582 9.140144281046444 0 0 0
418 1 9.848608302432012 22.78001530120152 6.7150971383328395 0 0 0
420 1 8.123200529901696 22.20823042093394 9.001466859916865 0 0 0
301 1 12.353587979387067 0.08097407221763109 6.518627632146043 0 0 0
422 1 14.481674139177795 22.270471680086523 6.886645316175658 0 0 0
305 1 16.571038401838784 -0.12190052410150111 7.159420082010312 0 0 0
303 1 14.565621009643927 24.46052369522692 9.15819060259505 0 -1 0
428 1 16.432784668743167 22.568344917690094 9.000303237997201 0 0 0
309 1 20.45195641379661 24.352391903970595 7.191576192991258 0 -1 0
426 1 18.6552348346331 22.237279940054396 7.077371137386564 0 0 0
432 1 20.47934100141172 22.35566462210348 9.29125301210879 0 0 0
289 1 24.530115122348164 0.0609156872518537 6.702042460987565 -1 0 0
412 1 -0.14794177190586363 22.537320133252347 9.212181495303312 0 0 0
430 1 22.67209500468372 22.177473781543135 6.963272136005539 0 0 0
311 1 22.676096322897948 24.120180054366525 8.827483775946835 0 -1 0
434 1 1.7371891594610704 1.7440730993088358 11.176526522291192 0 0 0
438 1 5.72176270954472 1.745404097428757 11.215690170718242 0 0 0
442 1 10.024572885442298 1.810011615927956 11.27176134428786 0 0 0
446 1 13.97576923469751 1.4219517699141266 11.217461892518575 0 0 0
452 1 16.253620744736637 1.8143346746795452 13.389939767865787 0 0 0
450 1 18.274271093191103 1.9471393753843027 11.208182022903554 0 0 0
454 1 22.002088124280306 1.5048824620093433 11.107430574904228 0 0 0
458 1 1.9119692027455844 5.746026582871402 11.399391720854299 0 0 0
461 1 3.811438174678485 3.775541353972107 11.107905322314874 0 0 0
462 1 5.739543629618748 5.967774439454499 11.364458775874294 0 0 0
465 1 7.885555684743016 3.97952544997836 11.48504401296181 0 0 0
466 1 10.149140238410395 6.103626477762066 11.326280807766226 0 0 0
469 1 12.094901943515382 3.898362758675251 11.646314559260194 0 0 0
470 1 14.081576926835538 5.869181888810826 11.260350023570993 0 0 0
473 1 16.245264082433977 4.03531161996888 11.258042473429867 0 0 0
474 1 18.57374136429653 6.329042929742539 11.490191434882087 0 0 0
477 1 20.406961106385836 3.9226631800056175 11.116425090927411 0 0 0
457 1 24.47207303412076 3.5643607271297837 11.245788480915925 -1 0 0
478 1 22.77480777980262 5.749532173185465 11.22586078891002 0 0 0
482 1 1.7419868998287056 9.991176294098 10.818971458224189 0 0 0
481 1 -0.1230335236437464 7.783588934476482 11.28572688033949 0 0 0
485 1 3.9648626684568704 7.760922373505537 10.778635036411439 0 0 0
486 1 5.911260679663373 10.254391421317882 11.10270153278287 0 0 0
489 1 8.108255679778818 7.732902444699634 11.26796640903684 0 0 0
490 1 10.1085462509374 9.847206102758532 11.186549069323553 0 0 0
493 1 12.19902917833244 7.67824502419223 11.148822629907606 0 0 0
494 1 14.175593720639014 9.807623720003425 11.065392370803245 0 0 0
497 1 15.968703291526412 7.601304170654733 10.889283921393606 0 0 0
498 1 18.612155624104382 10.143835537535464 10.80992997680666 0 0 0
501 1 20.5118349203263 8.134103198679083 11.1683999744392 0 0 0
502 1 22.623627658757464 10.272185319800352 11.090057129631223 0 0 0
509 1 3.598468109321138 11.897943693735781 11.119035810791626 0 0 0
513 1 8.007679010974366 11.970235001150936 11.21666928266333 0 0 0
517 1 12.114016973513074 11.75087439357935 11.085162084102999 0 0 0
521 1 16.654990465415338 11.969918236787615 11.150169800824383 0 0 0
525 1 21.097188703272224 12.273424663951255 11.310955896825005 0 0 0
505 1 -0.19405351820698646 12.162635293557008 11.080874284776762 0 0 0
527 1 22.678409841485887 12.337792672034478 13.344067365835455 0 0 0
506 1 2.155624845975882 14.214704962720473 11.116620843288713 0 0 0
510 1 5.876838551912526 14.167161298734303 11.240988330776428 0 0 0
533 1 3.8840109369915057 16.52663874686496 11.129614744657802 0 0 0
537 1 8.186693441540358 16.472595599258717 11.166044881228874 0 0 0
514 1 10.23929450571593 14.03868196839471 11.238129454449897 0 0 0
541 1 12.11044904936807 15.781542401206575 11.179401806964236 0 0 0
518 1 14.278336061573665 14.120744422417426 11.070527283027332 0 0 0
545 1 16.529828123991088 16.36047421067128 11.348250627036501 0 0 0
522 1 18.26537713769089 14.365445880430917 10.998519524706818 0 0 0
549 1 20.6530776457289 16.494951824295228 11.328642770533264 0 0 0
529 1 -0.17457974361360085 16.070220252180786 11.389260954769323 0 0 0
526 1 22.70346699962679 14.341254506221441 11.291026371594654 0 0 0
530 1 1.9174664462458564 18.364424702237223 11.077217753542127 0 0 0
534 1 5.993303448286925 18.349725905902652 11.196595899754968 0 0 0
557 1 4.072948546390589 20.68491488285878 11.344809692657407 0 0 0
538 1 10.262328735380256 18.085191574731763 11.028346461079014 0 0 0
561 1 8.210933054069711 20.34114377461029 10.95355166895273 0 0 0
423 1 14.53599033794874 20.38887255127795 8.707223000774203 0 0 0
565 1 12.384620989005365 20.18421845385168 11.233740180346137 0 0 0
544 1 12.100347210069893 18.003535116493296 13.143583114694346 0 0 0
542 1 14.43752308181387 18.415008832675657 11.123182082708205 0 0 0
569 1 16.297136541140965 20.572277763323097 10.906263833376125 0 0 0
546 1 18.93945087145911 18.292769505815983 11.592298707800266 0 0 0
573 1 20.5748389988103 20.384725294480592 11.163482550152164 0 0 0
552 1 20.651229209694762 18.094017328164806 13.40776287705671 0 0 0
553 1 0.021320875350639312 20.4109481425409 11.393846200541187 0 0 0
550 1 22.58980845627171 18.17785775368638 11.449226145884372 0 0 0
433 1 24.354936846379893 -0.18738751827236788 11.52176719871015 -1 0 0
554 1 1.9063590005939175 22.60146956742446 11.39511894685362 0 0 0
437 1 3.7427435009743855 24.390145262090726 11.111711807942312 0 -1 0
558 1 5.99755969607358 22.73865513999855 10.944709610157842 0 0 0
439 1 5.654348543271562 -0.02786409967820544 13.344087647261254 0 0 0
441 1 8.022247590262497 24.372035753139418 11.280186149427516 0 -1 0
562 1 10.018038082590984 22.206254296620397 11.411706042477036 0 0 0
424 1 12.431292929235356 23.123971913174987 8.671956628029216 0 0 0
445 1 11.90814761211044 24.16579292396443 11.383115224492075 0 -1 0
449 1 16.289177289825183 -0.00781649303908491 11.255557484699581 0 0 0
566 1 13.96112292404326 22.76971402508322 10.773871456676144 0 0 0
453 1 20.19494476038048 24.420779482272803 11.20448067289037 0 -1 0
570 1 18.614180319511192 22.200559371276757 11.507490927919239 0 0 0
576 1 20.59271032183851 22.581271617999946 13.187381135231862 0 0 0
574 1 22.544322899697754 22.709610737368884 11.173926694105607 0 0 0
578 1 1.7430882644384842 1.6996289402619933 15.298527319621531 0 0 0
440 1 3.6087052486153803 1.9942093752797283 13.221762642604617 0 0 0
582 1 5.8392499081618015 1.595081501905432 15.214242924784852 0 0 0
444 1 8.063131085668843 1.7638654855154863 13.494864159422399 0 0 0
586 1 10.032437401123554 1.845653787979642 15.39707334055727 0 0 0
448 1 11.944345950369307 1.6233666899681807 13.277106895895491 0 0 0
590 1 14.13901996265286 1.8648734041218331 15.610888232857743 0 0 0
593 1 16.115111278561976 24.29311864628843 15.036880650014893 0 -1 0
447 1 14.269750841960283 24.154298454025223 13.105271625655384 0 -1 0
456 1 20.31376185437619 1.6105973141158059 13.387021918796389 0 0 0
594 1 18.40862328418256 1.695060825269086 15.163987679343297 0 0 0
436 1 24.41442804354896 1.615053160024998 13.140760371263468 -1 0 0
577 1 -0.2480084825159234 -0.13170122133133577 15.286953068102413 0 0 0
598 1 22.636565408549103 2.179898362848103 15.032409263868221 0 0 0
459 1 1.6448935668987357 3.8985205151558784 13.492851518694662 0 0 0
601 1 -0.21867414772291024 3.794744060377254 15.35594987205015 0 0 0
602 1 1.7369736850197115 6.074823237893126 15.598577357295152 0 0 0
463 1 5.7980245867726925 3.802106231133008 13.307751276502007 0 0 0
464 1 3.697930244223352 5.806490294917964 13.325707038508005 0 0 0
605 1 3.8302251866064143 3.9195888988632825 15.164132316101892 0 0 0
606 1 5.3973005350774805 5.863687073310192 15.530930086046787 0 0 0
468 1 8.14872230853096 5.50146526882576 13.4503158081722 0 0 0
609 1 7.7872676512969825 3.7101712237975475 15.468655329273496 0 0 0
610 1 10.124661244165233 5.868071958311395 15.490084419876531 0 0 0
467 1 9.9868175025248 3.7151090044153774 13.420240149477138 0 0 0
472 1 12.06950682671968 5.991115800187716 13.42090568882275 0 0 0
613 1 12.131127188795327 3.954866677392663 15.277492850925505 0 0 0
614 1 14.271858284396622 6.092822465983391 15.023880570060633 0 0 0
471 1 14.073193296682602 3.679629047653352 13.248619422001964 0 0 0
476 1 16.153737985299117 5.705281641263701 13.254158068969833 0 0 0
617 1 16.3093126805245 3.8000177542747133 15.378402195311814 0 0 0
475 1 18.320904979709027 4.149992679705245 13.23500382228349 0 0 0
480 1 20.53719091824773 6.164439854534413 13.37544791637033 0 0 0
618 1 18.396476648552145 5.842507665962163 15.129312089529598 0 0 0
621 1 20.58951440005046 4.048290065132477 15.220404037074452 0 0 0
460 1 -0.18070291406491146 5.844707876494301 13.369681978131815 0 0 0
479 1 22.253387397392103 3.9977700633530944 13.117261615866067 0 0 0
622 1 22.6732662050915 5.883750239072121 15.145817850908262 0 0 0
483 1 1.7991972987836236 7.89847192431629 12.913425803460395 0 0 0
626 1 1.7057408253728725 9.857355853217797 15.082288334340287 0 0 0
625 1 24.18315259281195 7.714861852208333 15.76142182362933 -1 0 0
487 1 6.0881699475059 8.010971151159469 13.153675290939745 0 0 0
488 1 4.108146965718992 10.199666750394153 13.591568211641501 0 0 0
629 1 4.1778139101506495 8.396388511743726 15.448703846531554 0 0 0
630 1 6.1179455250866575 10.443176866924622 15.448271533688022 0 0 0
491 1 10.157902114224742 8.035806805609889 13.33801378772801 0 0 0
492 1 7.815252399064599 9.96186590288618 13.183172016265242 0 0 0
633 1 7.979103876417227 8.288777989879032 15.27489796814449 0 0 0
634 1 10.357084327245204 10.161127488724858 15.305503455444136 0 0 0
496 1 12.211296993342556 9.74770742253113 13.196225091522777 0 0 0
637 1 12.48049506645223 8.093871232113635 15.217159048152435 0 0 0
638 1 14.480999157850349 10.303437671969457 15.287646727211442 0 0 0
495 1 14.183081360524382 8.11725291584474 13.100477443760806 0 0 0
500 1 16.48181627112077 9.91872407699194 12.780044355568396 0 0 0
641 1 16.342591707792437 8.269326449657676 15.074418842292918 0 0 0
504 1 20.6715915061491 10.348191411855062 13.290497965473463 0 0 0
499 1 18.621408526988745 8.227790492258542 13.305156001133048 0 0 0
642 1 18.51859685516098 10.184344341153754 15.318705859041998 0 0 0
645 1 20.437977958487743 8.079002608087139 15.253439906341637 0 0 0
503 1 22.544133948324742 7.731270321753959 13.42049567694809 0 0 0
484 1 -0.1753060112975002 10.052034170457226 13.11747390029484 0 0 0
646 1 22.71820067598197 9.799936661071822 15.163051555070748 0 0 0
507 1 1.8313581254415867 11.915339610872591 12.883755641697489 0 0 0
511 1 5.849087572240263 12.064798173341165 13.218328946702995 0 0 0
653 1 4.20557760021317 12.422838028586787 15.301084084671718 0 0 0
515 1 10.253767016302097 11.82157541886553 13.143481433332115 0 0 0
657 1 8.297475157997518 11.711142797385126 15.162063957418201 0 0 0
658 1 10.396700646264314 13.786445845402696 15.12322302944549 0 0 0
661 1 12.173346618660473 11.720703460058013 15.385299063462725 0 0 0
520 1 12.531243813287693 13.893595977445779 13.12490829700724 0 0 0
519 1 14.48777103710199 11.725869672783208 12.828045340278454 0 0 0
665 1 16.7301467522517 12.23551699954192 15.353161465360067 0 0 0
524 1 16.305189886010545 13.99119239787209 13.156624001140264 0 0 0
523 1 18.56120549321789 11.910316802202196 13.467540129406272 0 0 0
669 1 20.46886737675768 12.014709338526254 15.539550594528968 0 0 0
649 1 0.03830082357906467 12.030977566581097 14.924148087627565 0 0 0
670 1 23.146043344234037 14.19504697662148 15.372458981969 0 0 0
531 1 1.970409725658255 16.29498488700039 13.12026420126446 0 0 0
650 1 2.260737619478569 14.346145034709302 15.024138847590937 0 0 0
512 1 4.1937185370435985 13.910999266774922 13.015415150184005 0 0 0
535 1 6.084174368754945 16.371316083305462 13.208808749665678 0 0 0
654 1 6.048916300559658 14.05528135635214 14.874879107953987 0 0 0
677 1 4.0495741374174035 16.486386071383773 15.292735304724651 0 0 0
516 1 8.176098679767339 14.068557691455265 13.53401442747221 0 0 0
681 1 8.25215638426229 16.081032764570217 15.204000509564384 0 0 0
539 1 10.009696580604704 15.915198866600925 13.12076891823892 0 0 0
685 1 12.009564565630377 16.40342546824621 15.088095014875119 0 0 0
543 1 14.513539214731205 16.10848552313631 13.238249266113472 0 0 0
662 1 14.14025852860557 14.248137840581325 15.178191433287104 0 0 0
689 1 16.382638407786153 16.291223424796886 15.152985558770666 0 0 0
666 1 18.62608045354625 14.260830644658304 15.411278117714545 0 0 0
528 1 20.431777947701704 13.895403760689218 13.429321348580828 0 0 0
547 1 18.912465141504548 16.005816420991795 13.246428534530102 0 0 0
693 1 20.475464981837384 16.285144476645492 15.234697653620941 0 0 0
673 1 -0.06218215153429513 16.385576267456937 15.236330953906496 0 0 0
508 1 0.20069899553382498 14.085986812438671 13.18579898510154 0 0 0
551 1 22.58388577900051 15.925111297526769 13.48833324970731 0 0 0
555 1 1.7597284277020004 20.594252536384623 13.162047025041007 0 0 0
674 1 2.354124487933369 18.419781140143595 15.070635223962082 0 0 0
536 1 4.073757110454249 18.51358594034314 13.252864606233748 0 0 0
559 1 6.219081032119076 20.498909791110986 13.02524562132095 0 0 0
678 1 6.351225022254835 18.380080503624058 15.475262477067414 0 0 0
701 1 3.636820573506669 20.596193328271607 15.187324050462781 0 0 0
540 1 8.291962697154343 18.52286784977477 13.07205962858685 0 0 0
563 1 10.214906704581248 20.30976352341236 13.09587978957368 0 0 0
682 1 10.02884219691872 18.40464047693297 15.257144252145146 0 0 0
705 1 8.508673401336713 20.639163879750274 15.156526861641751 0 0 0
709 1 12.31546808907366 20.559068500274847 15.28485218218307 0 0 0
548 1 16.59170928505072 18.825188688844786 13.147080281936532 0 0 0
567 1 14.111571772000573 20.163662295457765 13.10514593127893 0 0 0
686 1 14.434679182251745 18.39114883348671 15.265427798716921 0 0 0
713 1 16.323414807580768 20.247464960150484 15.457531916906444 0 0 0
571 1 18.745177239513737 20.415450170441623 13.671629482210193 0 0 0
690 1 18.735532785732858 18.308861770480927 15.371794551629968 0 0 0
717 1 20.81409651734053 20.516256978276104 15.448372081775148 0 0 0
532 1 -0.05011232695792961 18.279723349844378 13.286917956302018 0 0 0
697 1 -0.0466940846235101 20.28532072031438 15.633816694462336 0 0 0
575 1 22.805284389057753 20.581378440938494 13.794186408162796 0 0 0
694 1 22.665101463854064 18.166400248310524 15.090223808185456 0 0 0
435 1 1.4990763053211131 24.378357604405497 13.352883932397928 0 -1 0
698 1 1.8195588492188555 22.227799514509773 15.51591699977369 0 0 0
581 1 3.8287047602073097 24.488123047895428 15.413395687267649 0 -1 0
560 1 4.02474614472409 22.49515911649954 13.304871232303537 0 0 0
702 1 5.9608508652501255 22.408966983466424 15.060871016809628 0 0 0
443 1 9.914493603413277 -0.17835152835963672 13.472890688462662 0 0 0
564 1 8.040871477122215 22.42718331357967 13.332559876273423 0 0 0
585 1 7.963895909084403 24.428788751573272 15.621115481032138 0 -1 0
706 1 10.44561541523262 22.71225123789237 15.173441243193686 0 0 0
589 1 12.089664348831196 -0.19472838271006204 15.29899393572321 0 0 0
568 1 12.102249144215962 22.48232215096382 13.215196325710572 0 0 0
572 1 16.26542403782728 22.45906145880459 13.152030769599317 0 0 0
710 1 14.14060042755033 22.440825090943047 15.291867888633838 0 0 0
597 1 20.357322980798273 -0.14316874630099802 15.646496923962012 0 0 0
451 1 18.133309437274008 -0.019863451034375423 12.972408051034092 0 0 0
714 1 18.576252951030163 22.575033658829327 15.29824761726908 0 0 0
556 1 24.342704577036855 22.38999225608919 13.78860101193622 -1 0 0
455 1 22.271822722621444 24.434024722502404 13.498792274218406 0 -1 0
718 1 22.491258783271917 22.678792954911515 15.719571946444937 0 0 0
722 1 1.517566153206363 1.7394571218031305 19.608260441305205 0 0 0
584 1 3.7525284107451116 2.2494093133909296 17.553207556665107 0 0 0
726 1 5.8688283555274925 2.055329820490967 19.78733464003078 0 0 0
583 1 5.868974554122 -0.13401694020106975 17.190014955901876 0 0 0
588 1 7.954983102187782 1.528154852896404 17.51444827915424 0 0 0
730 1 10.383123627473557 1.7724984802408785 19.598397826869544 0 0 0
592 1 12.234569295383254 1.959760392423112 17.4969080787434 0 0 0
596 1 16.711113428032583 1.7966081287033169 17.441321327403816 0 0 0
734 1 14.522758427182316 2.0301851400479007 19.116979805908823 0 0 0
600 1 20.392412122228848 1.9177771081743984 17.540721067472166 0 0 0
738 1 18.414738901253337 2.057210048819403 19.575625120686663 0 0 0
741 1 20.495514247499976 -0.1346670524166378 19.45491763361044 0 0 0
580 1 -0.18959702774326453 2.0111189860094716 17.272075222116904 0 0 0
742 1 22.816219709763196 2.075371406882984 19.47674853858617 0 0 0
599 1 22.56962957154859 0.07295584054114468 17.553538705718907 0 0 0
721 1 -0.15790050466218492 24.468298317543415 19.276453984387235 0 -1 0
603 1 2.618248832428651 4.2609076909393835 17.61158550435171 0 0 0
746 1 2.0152676734234602 6.272889877468699 19.808762133934298 0 0 0
749 1 3.9589503920784344 3.9299634747104504 19.640159560238132 0 0 0
607 1 5.9419077561408224 3.724946225828458 17.294517477107533 0 0 0
608 1 4.254192493225704 6.5382579174251925 17.582569973504185 0 0 0
750 1 6.085549103241916 5.971888245615443 19.380921160378623 0 0 0
611 1 9.792424974906627 3.752360739212647 17.50102015623524 0 0 0
612 1 7.918305053289657 5.852912596445118 17.562464087797473 0 0 0
753 1 7.670367525158346 3.8529220132048563 19.540202299530826 0 0 0
754 1 10.121633190566499 6.285566927748979 19.33854143645469 0 0 0
616 1 12.450736601756065 6.476146889295052 17.43598271226091 0 0 0
757 1 12.169235761800104 4.180101257081728 19.126031306440858 0 0 0
615 1 14.670034040356304 4.221034176556468 17.20960476165208 0 0 0
758 1 14.469611569636976 6.287810280222918 19.395592853894694 0 0 0
620 1 16.322725239254304 6.028818677623338 17.250492313691243 0 0 0
761 1 16.697501086770316 4.019173094651349 19.284764871597392 0 0 0
619 1 18.522132712365483 3.7109510857512715 17.218094540107725 0 0 0
624 1 20.619599835993313 6.10837337982744 17.339402572479383 0 0 0
762 1 18.577447349804075 6.098647779204406 19.16808024281546 0 0 0
765 1 20.7309329075893 3.8719836033325103 19.28308590502547 0 0 0
745 1 0.18524074677602187 4.101137167823999 19.448424622446872 0 0 0
604 1 -0.05038346378262787 6.107183621891218 17.5895327939623 0 0 0
623 1 22.76867035695151 4.23419787206674 17.523666379593312 0 0 0
766 1 22.867861164690645 5.964345346025303 19.56736096134729 0 0 0
627 1 2.2066438864119506 8.052419702196746 17.60717555045561 0 0 0
770 1 1.8678128038019692 10.161193121634971 19.625238948218175 0 0 0
631 1 6.242364052013534 7.957923607242863 17.42780605951732 0 0 0
632 1 3.838685340585447 10.366139599174996 17.171243408101805 0 0 0
773 1 4.092863524360746 8.51433080465979 19.533640631048677 0 0 0
774 1 6.284122457073477 9.965739378010094 19.52409519409418 0 0 0
636 1 8.589370022443788 10.116644061970032 17.476622433851073 0 0 0
777 1 8.14063750136778 8.207223875962312 19.476601059403226 0 0 0
635 1 9.869175998882703 7.913815141438045 17.34944402771185 0 0 0
778 1 10.191417998248887 10.0198695050047 19.221593170227766 0 0 0
781 1 12.517270669879675 8.074160249320322 19.481080361101945 0 0 0
640 1 12.55851046383764 10.251226283326357 17.344349375941636 0 0 0
782 1 14.646267200573167 10.106130842194068 19.357778243166898 0 0 0
639 1 14.411067143778732 8.303555017838477 17.164972121336792 0 0 0
644 1 16.35621712638163 10.017622449372983 17.428148604347527 0 0 0
785 1 16.591332851224756 8.125537467416141 19.530470002300287 0 0 0
643 1 18.312640652177294 8.164972735475699 17.05184660705922 0 0 0
648 1 20.50954120620218 9.830603479457587 17.667529618802302 0 0 0
786 1 18.446955608092168 10.105020894731457 19.56884734435577 0 0 0
789 1 20.80588173246666 7.994321629293712 19.512652925507492 0 0 0
628 1 -0.1484662627083104 10.179920004693566 17.37936934967623 0 0 0
769 1 -0.20922697456046307 8.03677340439831 19.52944679457081 0 0 0
647 1 22.518896943496657 8.167660764281115 17.54248208451829 0 0 0
790 1 22.531752688326236 10.430898845599051 19.739299715485547 0 0 0
651 1 1.9262017023382496 12.216418415880439 17.32073988317823 0 0 0
655 1 6.013363630566844 12.153646049968067 17.50650744483811 0 0 0
797 1 3.8403342174957844 12.035800060044123 19.25262955761941 0 0 0
659 1 10.216211557166458 12.122804544110672 17.121079367420855 0 0 0
801 1 8.221385421718688 12.139352862508712 19.16719439149433 0 0 0
660 1 8.043079790373566 13.935186383894015 17.183238292032627 0 0 0
805 1 12.4603770499488 12.68602958195139 19.248997235304603 0 0 0
663 1 14.509284639938327 12.366517199789266 17.096612761611887 0 0 0
809 1 15.97987437892352 12.514026178900144 19.774437709270558 0 0 0
668 1 16.283542553536023 14.235524284204416 17.33221871092499 0 0 0
667 1 18.251482168446167 12.317869356675667 17.575553447903964 0 0 0
813 1 20.75664664529942 12.18000468827737 19.444125977963594 0 0 0
793 1 -0.13023702526199116 12.248400850079243 19.345540516752628 0 0 0
671 1 22.879070236106678 11.870807453951812 17.101987684259335 0 0 0
794 1 2.181466284203063 14.115331199302965 19.666245212922743 0 0 0
675 1 2.051728480269601 16.104208180868113 17.19674045520789 0 0 0
656 1 4.0813257807392676 14.376958524960065 17.442873400513044 0 0 0
679 1 6.2936426672435735 16.346592239807432 17.29636914257706 0 0 0
798 1 6.3387316664508315 14.027466739197983 19.271827631492133 0 0 0
821 1 4.0528742862103035 15.95499815766253 19.373009856836326 0 0 0
825 1 8.195201284025776 16.31669123479443 19.495542847984186 0 0 0
683 1 9.942330524270249 16.343305419377764 17.091287945678218 0 0 0
802 1 10.284304973154136 14.346470404934164 19.461529269049944 0 0 0
829 1 12.104828666548201 16.533533597699943 19.06218606614681 0 0 0
664 1 11.980675460703031 14.30632985300767 17.21062651160804 0 0 0
806 1 14.332015999676676 14.603391482612492 19.288368478669476 0 0 0
833 1 16.65567489268154 16.350837993196063 19.518263127864167 0 0 0
687 1 13.950977030798958 16.381578358555977 16.91884682308793 0 0 0
672 1 20.858484008896248 14.282464567267034 17.66602161160193 0 0 0
810 1 18.71888618478893 14.557444246696148 19.26587346240567 0 0 0
837 1 20.630535117385143 16.21496330911038 19.58087045972981 0 0 0
691 1 18.707575966019263 16.261785686979117 17.536080324272312 0 0 0
814 1 22.682173244434246 14.222528061363798 19.59349545859069 0 0 0
652 1 0.21009977468040447 14.308317749536231 17.44353280603229 0 0 0
817 1 -0.03543941300126663 16.097457953871253 19.45296336294795 0 0 0
695 1 22.890007359621755 16.30305848620019 17.559005331168805 0 0 0
699 1 2.022534123542868 20.126042635888414 17.461265876697798 0 0 0
818 1 1.9989843082112562 17.921422887820352 19.63426208182242 0 0 0
845 1 3.805214675585704 19.734558331325243 19.946620375000837 0 0 0
680 1 4.234016981711888 18.177895932988466 17.263386728504162 0 0 0
703 1 6.269625502918561 20.35148587127945 17.23553370185235 0 0 0
822 1 6.024464603889383 18.25053666405092 19.535276815216243 0 0 0
849 1 8.06615624671123 20.340760506335236 19.58543854091144 0 0 0
684 1 8.074200931614255 18.336412803493786 17.77841896990572 0 0 0
707 1 10.283779626101662 20.333487186441104 17.371298863989658 0 0 0
826 1 10.42307222714114 18.525602698836515 19.543915522399367 0 0 0
853 1 12.173011227567732 20.41048412332825 19.363391781972016 0 0 0
688 1 11.958778817164545 18.40664105446922 17.153246283400666 0 0 0
857 1 16.351721022612963 20.301776100622945 19.635266766545918 0 0 0
830 1 14.003510037986592 18.401484127806068 19.439377489714463 0 0 0
692 1 16.10568504765407 18.269352658671743 17.285222298398203 0 0 0
711 1 13.993374194030201 20.479886160755978 17.53211800358829 0 0 0
861 1 20.34624097745339 20.418695213429807 19.32837576340799 0 0 0
834 1 18.617389133914585 18.507918018697595 19.265440931028774 0 0 0
696 1 20.696525796586158 18.198800891219847 17.672294733920012 0 0 0
715 1 18.265472271133255 20.60654504625808 17.552395250565983 0 0 0
841 1 -0.12405281239475272 19.96420706802909 19.454362744507023 0 0 0
676 1 0.45507940075236064 18.152970942728714 17.25816975547493 0 0 0
838 1 22.564900414072156 18.36588831929667 19.678404181147087 0 0 0
719 1 22.549003307721932 20.314488776827854 17.577842120338264 0 0 0
842 1 1.979272203441846 22.19027743640364 19.360024316046204 0 0 0
579 1 1.8987956148608016 -0.17607774033941143 17.564433598771622 0 0 0
725 1 3.851562475125016 0.14258474876831512 19.273079142969404 0 0 0
846 1 5.671818205494727 22.85871704040409 19.390492623134307 0 0 0
704 1 4.116325144354031 22.25587040715504 17.41902794237823 0 0 0
729 1 7.726274004612566 -0.15224525363621216 19.374971109196597 0 0 0
587 1 10.053630467811093 0.18960323303538795 17.588563780606297 0 0 0
708 1 7.8707916723511016 22.547151707142405 17.572871337633664 0 0 0
850 1 10.141108179181604 22.65155487035459 19.469547003829675 0 0 0
733 1 12.257459617799341 24.289636223774565 19.541157910804486 0 -1 0
712 1 12.281175750615839 22.385893401238462 17.458077997188894 0 0 0
737 1 16.282486001504623 0.0011644550735070702 19.235500185069313 0 0 0
591 1 14.066082808657345 24.362063720027457 17.64373310385423 0 -1 0
854 1 14.189346820162406 22.461728889428432 19.674124064853483 0 0 0
716 1 16.29185673593878 22.694273667962715 17.263697663092 0 0 0
595 1 18.50658690714448 24.385119241996797 17.383179744591715 0 -1 0
858 1 18.642702217806217 22.423991447166976 19.38098816957436 0 0 0
720 1 20.81753591409958 22.53459091693568 17.43132292967609 0 0 0
700 1 -0.16866562762047266 22.211701470675994 17.42372791482015 0 0 0
862 1 22.38563879069949 22.655078307161318 19.449366091584366 0 0 0
728 1 4.0713889757338375 2.03979268265135 21.480524076309287 0 0 0
835 1 18.593819252669306 16.165463049405425 21.514356563577024 0 0 0
731 1 9.912054096539043 -0.16491165440722944 21.679663303103943 0 0 0
732 1 8.183407088905605 1.8855927568235193 21.28932763450961 0 0 0
824 1 4.0300547659656685 18.09349697992211 21.790491389204284 0 0 0
736 1 12.143655406997668 1.810122619154015 21.606328547813742 0 0 0
812 1 16.41682826220729 14.664059506680099 21.364486507561043 0 0 0
740 1 16.6724831007745 1.9835101558335868 21.30392223698749 0 0 0
744 1 20.71849915124455 1.8810292513525537 20.98777577753233 0 0 0
724 1 -0.15114025291355376 2.12685298999392 21.563067070611215 0 0 0
816 1 20.840347631201666 14.216637419315497 21.75641723129676 0 0 0
747 1 1.907928718050881 3.880542701910037 21.574488863249304 0 0 0
751 1 6.026263322368906 4.03002066577486 21.806139424735854 0 0 0
752 1 4.098659963366019 6.049471012047926 21.62048834453036 0 0 0
852 1 7.835854985101136 22.264660107725344 21.801474814955267 0 0 0
831 1 14.461865772907624 16.63465217529259 21.32781628631145 0 0 0
755 1 10.343541449104992 3.8860962801398005 21.372169792952032 0 0 0
756 1 8.039493903100352 5.937177023810813 21.342957439570796 0 0 0
859 1 18.372242574047867 20.349970497734155 21.528621691449324 0 0 0
828 1 8.36463968515639 18.193025157109016 21.366895217334573 0 0 0
807 1 14.335381546580432 12.07749234305004 21.574490122607582 0 0 0
760 1 12.206840131651267 5.941680201807945 21.278121729522944 0 0 0
827 1 10.512867862748056 16.503563132236767 21.52465426032486 0 0 0
759 1 13.920090305230413 4.111837205683575 21.150288672135027 0 0 0
764 1 16.627220759375625 6.193967101926042 21.42725810049683 0 0 0
843 1 1.9268316019106715 20.04113237824293 21.609776454713526 0 0 0
763 1 18.502155769736497 4.473390320542831 21.182169557184242 0 0 0
768 1 20.68967096217031 6.235165924908502 21.821754821033167 0 0 0
840 1 20.575045125581383 18.41843976368041 21.48729218649229 0 0 0
832 1 12.272320817759985 18.660850748030658 21.57944235580838 0 0 0
748 1 0.09725246742340293 6.316649885033262 21.810537369384296 0 0 0
767 1 22.43141401565748 3.9011187761515984 21.764770488826894 0 0 0
727 1 6.113488553406341 0.06084479524450909 21.29102140246103 0 0 0
796 1 0.07197463274986687 13.891122588446114 21.422379120087577 0 0 0
771 1 2.0704311080265203 8.102084674813998 21.852888152296554 0 0 0
775 1 6.164524415211453 7.838057180144224 21.243745437551233 0 0 0
776 1 4.307819298857057 9.861961742543286 21.621161802769993 0 0 0
779 1 10.054724066546088 8.108943932535878 21.68232259276723 0 0 0
780 1 8.369891535600425 10.425365156737145 21.42533959097492 0 0 0
848 1 3.451969365493331 22.127966526822625 21.54758435826153 0 0 0
851 1 9.977225799366261 20.427933388869132 21.472474344787347 0 0 0
783 1 14.435898619299682 7.765019575687438 21.570981623859158 0 0 0
788 1 16.323532511533926 10.348179274656387 21.565424979979692 0 0 0
804 1 8.547776128143456 14.35359684473976 21.3249546788793 0 0 0
787 1 18.556216550535623 8.059832289372205 21.23688338394883 0 0 0
792 1 20.445801982608472 10.429510362407523 21.4363196616287 0 0 0
772 1 0.325496106970974 10.171763246075443 21.600153969211842 0 0 0
791 1 22.772844656795513 8.168724647295061 21.373258465386385 0 0 0
723 1 1.7441214930396662 24.247212594619402 21.477506136393572 0 -1 0
795 1 2.113719949552588 12.29071549164095 21.749654913079947 0 0 0
799 1 6.081388011385969 12.1815785482554 21.195187951961053 0 0 0
820 1 0.21414052145051532 17.85978381558157 21.61937010954902 0 0 0
803 1 10.61864136905674 12.391539369742318 21.27654753182496 0 0 0
784 1 12.249691281838997 10.268533207012974 21.59057143084303 0 0 0
839 1 22.75936862944117 15.893398685232775 21.62877326307255 0 0 0
93 1 20.246694230636002 12.524021651150518 -1.0685547756723213 0 0 0
65 1 15.942928727366576 7.982236587866387 -1.0975946385438071 0 0 0
42 1 18.397086160218187 6.018802435340887 -1.0653654489650242 0 0 0
125 1 3.85236318756325 20.303406364203223 -1.0112471766860245 0 0 0
137 1 16.067185352848085 20.69434482727627 -1.2483072240280044 0 0 0
970 1 9.768331917408451 18.579916639646846 23.573498038208264 0 0 0
974 1 14.236524719196339 18.27332735718688 23.397051607716385 0 0 0
29 1 3.7830817116586477 4.11401359554806 -1.104990123829749 0 0 0
973 1 12.392375104428266 16.477019403684405 23.476015845173805 0 0 0
69 1 20.594116556828766 7.740824541972814 -1.2346838342213735 0 0 0
46 1 22.525710866551606 5.929798380369356 -1.1004974641480074 0 0 0
898 1 10.12504845903349 6.0351320891781155 23.45839333196727 0 0 0
966 1 6.476382524773518 18.63153524612835 23.420487633311954 0 0 0
1002 1 18.85116628854486 22.48005173546767 23.580539282462894 0 0 0
138 1 18.475012469019916 22.673011826267054 -0.9512530049178805 0 0 0
949 1 12.233876378223616 12.597563483548644 23.54523779153893 0 0 0
918 1 6.2171988633513875 10.301184729408446 23.164402359137085 0 0 0
882 1 18.981299236185457 2.221607386631643 23.306893906294544 0 0 0
70 1 22.672554721582756 10.330638637853767 -0.8900685849143171 0 0 0
30 1 5.922818836102564 6.122443356261373 -1.2569025221085253 0 0 0
121 1 -0.09537242845709587 20.32724437332072 -0.859021085628763 0 0 0
869 1 3.846911200269777 -0.21057520757332052 23.394644324070473 0 0 0
905 1 16.362210158073466 4.2799314987790575 23.24725788895777 0 0 0
74 1 1.691812664081564 13.958633273923532 -1.2318056079514244 0 0 0
910 1 22.70428780491114 6.256870716444152 23.581955635356564 0 0 0
982 1 22.843735695433473 18.273155756537953 23.574239341274062 0 0 0
950 1 14.506526423289891 14.227303332945132 23.45007344569724 0 0 0
1005 1 20.82592488935949 20.319116467191826 23.27448996104619 0 0 0
878 1 14.474700797571884 2.101606209467487 23.550889798367468 0 0 0
865 1 -0.0699997740930019 -0.17128342242210431 23.480235640236405 0 0 0
866 1 2.1279101288148996 2.031232124250284 23.558938978747882 0 0 0
942 1 6.165192381873106 14.196860056782354 23.559806559629298 0 0 0
933 1 20.14848537676677 8.172986720054855 23.24285446745476 0 0 0
969 1 8.238122977665864 16.20501504351752 23.446843299916573 0 0 0
977 1 16.53504741322324 16.64527482375541 23.500329103872886 0 0 0
1006 1 22.655046222841563 22.662993473799467 23.562374353166277 0 0 0
877 1 12.331576957840404 -0.12080700988779844 23.51321107082502 0 0 0
989 1 4.149331124822818 19.85053689051271 23.554772956870654 0 0 0
897 1 7.94241589009278 3.811232722183653 23.43599307621378 0 0 0
978 1 18.24200825184922 18.6215332265623 23.296455108282142 0 0 0
873 1 7.751650819701894 0.1308339715927223 23.57264412091299 0 0 0
985 1 24.460549593119822 20.360270075800045 23.163036102607514 -1 0 0
945 1 8.239853102341689 12.486245396417 23.431446892954217 0 0 0
881 1 16.571115946828556 -0.014045744857024062 23.563413942700837 0 0 0
921 1 8.24909344682688 8.059767726889577 23.51790151200617 0 0 0
930 1 18.274384955882176 10.24230042274457 23.617065188458287 0 0 0
934 1 22.35798737164336 9.97854866185164 23.45748311948302 0 0 0
953 1 16.40829796967504 12.247323485030806 23.474165989389647 0 0 0
981 1 20.515187287623554 16.11057131964487 23.465692791211673 0 0 0
926 1 14.25365135843721 10.03199693025446 23.45566787042478 0 0 0
990 1 5.759718249335559 22.612575986396145 23.491394975714496 0 0 0
946 1 10.428380344681601 14.234827542350605 23.41008705234407 0 0 0
938 1 1.9317920647567792 14.161887159899235 23.477703022384976 0 0 0
77 1 3.9006217158546006 12.063783496670428 -0.9936811462641579 0 0 0
62 1 14.106411616102166 9.89226438587308 -1.194897206299164 0 0 0
101 1 4.139045817717181 16.491126656554197 -1.1712536988616873 0 0 0
45 1 20.47651187916543 3.672420821763421 -1.0172473178556567 0 0 0
50 1 1.8151335277630798 10.099003928491529 -1.0867488627472786 0 0 0
66 1 18.219093281893457 9.713564478715488 -1.172942434385193 0 0 0
2 1 2.348016311123854 1.7974410746802323 -0.9019297287552015 0 0 0
114 1 18.001726563214078 18.524966812857052 -1.1157022823291978 0 0 0
994 1 10.258256187235546 22.168470663903886 23.631373861781025 0 0 0
954 1 18.360706989473456 14.285522628676901 23.644561367610223 0 0 0
872 1 4.0710975231408275 2.110850402668703 25.898641767786206 0 0 0
876 1 8.010565186571071 1.7827226605322162 25.520164360635416 0 0 0
880 1 12.242412750223776 1.9739263668613667 25.472106245438574 0 0 0
884 1 16.810621016040088 2.063289920434818 25.362067037210686 0 0 0
1607 1 22.605702660875686 24.402265262323315 46.29905560885303 0 -1 0
888 1 20.619687303556248 2.143319416713991 25.702061250401943 0 0 0
883 1 18.88829124590253 -0.1425126537964948 25.64725583552058 0 0 0
1603 1 18.750749359944393 0.013580443903594946 46.441261483512676 0 0 0
868 1 -0.25569640198029137 1.582566412346237 25.723108379424602 0 0 0
887 1 22.67705136658749 -0.13684277112719934 25.580872014506948 0 0 0
891 1 1.8801588065332173 4.072943034067287 25.686251916147285 0 0 0
1728 1 20.26431070657617 22.667982592643718 46.67386080348748 0 0 0
895 1 5.809989714628476 4.038271320177568 25.64751562022491 0 0 0
896 1 3.9989210591432487 6.249545350968973 26.021821222241908 0 0 0
899 1 10.003528865282389 3.790867447464353 25.55551641318632 0 0 0
900 1 8.015910631577334 5.914995875768666 25.354240921536444 0 0 0
904 1 12.138286120597636 5.839143428260798 25.45249234364236 0 0 0
903 1 14.61273740990275 4.0398033926600085 25.730499653808042 0 0 0
908 1 16.576565472059997 6.141169650422908 25.924519823613743 0 0 0
907 1 18.650255835647705 3.938982902326698 25.715010409801668 0 0 0
912 1 20.78204319664094 6.3538382406565335 25.42181035844519 0 0 0
892 1 24.43212682937593 6.440983058311188 25.74888492114883 -1 0 0
911 1 22.71693688632319 3.9719795773162074 25.892623890291798 0 0 0
915 1 2.0158838036350137 8.333481286881552 25.797519862256944 0 0 0
874 1 10.072586550493702 1.781745481499586 23.744607989989547 0 0 0
919 1 5.970795665668579 8.229516043925523 25.551727296291325 0 0 0
889 1 -0.1659534179691029 3.843954491918807 23.685417983453352 0 0 0
923 1 10.32676903730587 8.085971075562849 25.588754678702852 0 0 0
924 1 8.271227504238977 10.198563013574864 25.413824742255997 0 0 0
958 1 22.815901088613806 13.833020144154691 23.63781404720803 0 0 0
928 1 12.854218369318613 10.03301541818569 25.996306483097143 0 0 0
927 1 14.07772854958172 7.571992674299766 26.166363942371866 0 0 0
932 1 16.324006026765815 10.250365423963506 25.547563665682173 0 0 0
906 1 18.35566863917027 6.11256488669949 23.684433912077857 0 0 0
1599 1 14.149968067789715 24.334601650009045 46.49007706101926 0 -1 0
931 1 18.37648038360826 8.117761227099102 26.031829826116304 0 0 0
936 1 20.138256334851256 10.193403723740383 25.884787004778076 0 0 0
1724 1 16.374693065979606 22.112852384927937 46.479091604979914 0 0 0
935 1 22.578357382796376 8.529447915367536 26.099739015986035 0 0 0
913 1 -0.23417272731336936 8.493514405217908 23.9542819249649 0 0 0
939 1 1.980136551426257 12.470681193586683 25.445595397270772 0 0 0
998 1 14.509575725407519 22.918369649621734 23.8480903521877 0 0 0
920 1 4.15685993409997 10.35530485913298 25.759522374219 0 0 0
943 1 5.951244217099163 12.263334621698567 25.77148340718816 0 0 0
937 1 -0.04189173797127399 12.059140591548736 23.747720292128705 0 0 0
947 1 10.632303467102705 12.005177127824306 25.571967022660004 0 0 0
951 1 14.485791499992416 12.359183786792912 25.445140350854466 0 0 0
1720 1 12.429458623178158 22.234532274399882 46.50536472248112 0 0 0
955 1 18.444517286840885 12.333709845606743 25.592525833259707 0 0 0
916 1 0.19432642980217002 10.232121871952529 25.71447867889522 0 0 0
959 1 22.382733144874486 12.36092641802361 26.098247638950394 0 0 0
1762 1 10.265164594334493 6.220192645223535 48.474644988986114 0 0 0
963 1 1.8094732345287365 16.077123913078676 25.69542325844938 0 0 0
944 1 4.402094421072992 14.348906486422495 25.467493919947223 0 0 0
967 1 6.156148258800351 16.389126520281767 25.645436827428544 0 0 0
948 1 8.357016927295305 14.341023537311173 25.326702768013316 0 0 0
971 1 10.38154696042607 16.784546996219618 25.49809452772946 0 0 0
929 1 16.435637102669247 8.28551945565957 23.763909936472977 0 0 0
952 1 12.508844529098768 14.232228639739487 25.336411982935434 0 0 0
956 1 16.47270874414219 14.308471683926413 25.689011751947586 0 0 0
975 1 14.38690699538367 16.00584099736208 25.75415005501311 0 0 0
960 1 20.44142988573823 14.298010234784929 25.973355810414972 0 0 0
979 1 18.573109760051416 16.29560731024611 25.88746805222921 0 0 0
890 1 1.6092222834474812 6.169333453598047 23.891423523639613 0 0 0
894 1 6.089591066279377 6.437340736054154 23.64251415231552 0 0 0
940 1 -0.23794912829588907 14.457855374491626 25.81634608541816 0 0 0
983 1 22.514898472117288 16.380994478299197 26.05040623394318 0 0 0
917 1 4.236808994882091 7.965714276777133 23.735434227863433 0 0 0
987 1 2.4449232655414104 20.781567792344372 25.456767408961774 0 0 0
914 1 2.1739568039135824 10.577347759687195 23.816747546274048 0 0 0
968 1 3.8683240630015154 18.327005334043367 25.746807524924684 0 0 0
991 1 6.0831956786724595 20.52503293873771 25.642122136660788 0 0 0
972 1 8.252148878995758 18.234203622761598 25.750439897561936 0 0 0
995 1 9.949422528162343 20.347095681829735 25.9159028996834 0 0 0
1716 1 8.130912285929327 22.388058853503388 46.50939658664163 0 0 0
976 1 12.442699165893575 18.33751912837665 25.956644275779265 0 0 0
980 1 16.467426981624286 18.129422110747754 25.72343125644416 0 0 0
999 1 14.323213627413377 20.3626676720938 25.563061465912384 0 0 0
984 1 20.672454257860664 18.59073830501241 25.46169420061541 0 0 0
1003 1 18.467365809157855 20.362541944437165 25.89523795732626 0 0 0
1712 1 4.201578500411953 22.46680297299916 46.37399364710833 0 0 0
964 1 0.46244833289040377 18.827089034930882 25.665477606207066 0 0 0
1007 1 22.922873243249242 20.317413260672737 25.61480175127865 0 0 0
867 1 1.9180888314945745 0.0869710965891467 25.62366118286512 0 0 0
1846 1 22.668915859180153 18.393943873296916 48.44908141852315 0 0 0
871 1 6.110137615607103 24.450468917020657 25.86214801570551 0 -1 0
992 1 4.138636469598011 22.753516183769783 25.448484455506186 0 0 0
961 1 -0.1737649695099669 16.222213192579463 23.861851976542873 0 0 0
1587 1 2.1832795357324435 24.0834061722679 46.60740778941122 0 -1 0
875 1 10.047239659894325 24.367896720840715 25.592007592952726 0 -1 0
1001 1 16.46816180876769 20.316544168987225 23.91240404111134 0 0 0
996 1 8.256497848304392 22.60139032525239 26.222567574677104 0 0 0
1000 1 12.181300618829061 22.357108155014586 25.41102998928807 0 0 0
879 1 14.607827250757861 0.2210207632320177 25.61717432246739 0 0 0
1004 1 16.340206181617077 22.58422099083743 25.490899106585967 0 0 0
1708 1 24.38772346217427 22.330558061380284 46.18093942823718 -1 0 0
1727 1 22.40481615451025 20.38763483215473 46.174245674989976 0 0 0
1008 1 20.509087889922817 22.716168082074304 25.739343239039417 0 0 0
988 1 24.474419189521846 22.49098988106331 25.748809656572345 -1 0 0
1825 1 24.46960823752626 16.54863716653734 48.41769022039347 -1 0 0
1010 1 1.9363272328963528 1.7322414597075018 27.89540866104694 0 0 0
1012 1 -0.27573749415922283 1.9662259353931963 30.050276196711255 0 0 0
1014 1 5.847833481819729 1.808737863118563 27.79126461548935 0 0 0
1016 1 3.7789346750829056 1.693770941258996 29.963680433735863 0 0 0
1015 1 6.133716555460959 0.04782739402889091 29.934040963924808 0 0 0
1020 1 7.935685486827067 2.2190060671994662 29.686812122267416 0 0 0
1019 1 10.138156026594947 -0.1687758649386526 29.525110686000843 0 0 0
1018 1 10.112505212458577 1.7637472679215647 27.870662363306685 0 0 0
1024 1 11.933627595898646 1.7622304945427136 29.92546213686077 0 0 0
1022 1 14.63420867622139 2.08364877729052 27.761818022068322 0 0 0
1028 1 16.64331857799946 1.7270168658251415 29.760029398463452 0 0 0
1023 1 14.164809304410037 24.47625126875155 29.284803055619534 0 -1 0
1026 1 18.403978008899934 1.8367980526276262 27.72220353083471 0 0 0
1032 1 20.37063905444306 2.128143883074505 29.769130366287587 0 0 0
1027 1 18.83854722620822 24.36799332436912 29.871434656465023 0 -1 0
1030 1 22.633069832998856 2.3394749426532386 28.150326705943304 0 0 0
1031 1 22.741974849610372 -0.1361384810198577 29.85679499277058 0 0 0
1009 1 0.10802505856093131 24.23695095572938 27.574579063040645 0 -1 0
1034 1 1.9418390205611673 5.969376089362023 27.532805805865884 0 0 0
1035 1 2.0612023814607467 3.6157976829965826 29.62621610490094 0 0 0
1033 1 0.010681756082542349 3.764176695927518 27.843627219577773 0 0 0
1037 1 3.9793644591578516 4.158846514313713 27.86876787696107 0 0 0
1038 1 6.190489893842537 5.7343509042742955 27.596076053272466 0 0 0
1039 1 5.987151455722224 3.8944183995499326 30.04385657477687 0 0 0
1040 1 4.175390208667584 5.9745130288005655 29.755991309799903 0 0 0
1042 1 10.05317318773101 5.474874597366064 27.59954624726351 0 0 0
1041 1 7.73631747944358 3.8554113008272086 27.726507724360406 0 0 0
1043 1 10.193661187645448 3.6538054643789915 29.774943502931762 0 0 0
1044 1 8.195946853498622 6.289418007747286 29.75315864465974 0 0 0
1045 1 12.293283093357093 3.7637111695207444 27.79153723427999 0 0 0
1048 1 12.585315156775852 6.021865980834368 29.80296364649717 0 0 0
1047 1 14.690291746362183 3.7860296784572416 29.700518106905466 0 0 0
1046 1 14.237983410792216 5.626263454191967 27.909258540893322 0 0 0
1049 1 16.550290451606962 3.9589286904286345 27.52806808644725 0 0 0
1052 1 16.61240523360835 5.623597967546592 30.05292729809366 0 0 0
1050 1 18.835160331610055 6.000413634390479 27.743433394111424 0 0 0
1053 1 20.567399980337214 4.234134254768336 27.862998570935815 0 0 0
1051 1 18.535774831082747 3.88928960694364 29.690146773958897 0 0 0
1056 1 20.572699886604575 6.149778050108875 29.70182890353739 0 0 0
1036 1 -0.11226727078480458 6.089837334604226 29.553905482864096 0 0 0
1054 1 22.665864429865287 6.537672198800789 27.68423843946836 0 0 0
1055 1 22.805615376463095 4.202803154522257 29.9259248597491 0 0 0
1059 1 1.9100446115667005 7.955551422009243 29.8931197072433 0 0 0
1060 1 0.15360399192367274 10.364488450716522 29.947565254235496 0 0 0
1061 1 3.83193327538938 8.107719478705878 28.17315893851341 0 0 0
1062 1 6.105997207594355 10.21108835160219 27.71982533069471 0 0 0
1063 1 6.130350580203495 8.430980495223652 29.776804769045423 0 0 0
1064 1 4.087085554204339 10.325210562999077 29.77594591014891 0 0 0
1065 1 8.143491755435514 8.07118832399689 27.780868384003654 0 0 0
1068 1 8.358307743315805 10.172837359112012 29.682342513100565 0 0 0
1067 1 10.033981241720856 8.009835989747883 29.869411280257832 0 0 0
1069 1 11.99578959843322 7.960526038908725 27.72376944773809 0 0 0
1072 1 12.151295116989024 10.141752033838912 29.680600167076303 0 0 0
1071 1 14.125123584990895 8.286630318809104 30.389531508083167 0 0 0
1073 1 15.898035199938954 7.935599177810765 28.176968736475896 0 0 0
1076 1 16.31357458987312 10.07377701904623 30.21290965946288 0 0 0
1070 1 14.565747776829925 10.046668224761406 27.91468123863074 0 0 0
1074 1 18.272808347809587 10.003500586098887 27.925920026358803 0 0 0
1077 1 20.412277388557833 8.247305835349255 27.916084282956643 0 0 0
1075 1 18.416426939552565 8.071297710332283 29.87455060825004 0 0 0
1080 1 20.078132791617165 10.00889140377697 30.020630899794337 0 0 0
1057 1 0.04884633989904896 8.270066984026107 28.02707388080566 0 0 0
1078 1 22.416777395312174 10.205454393969287 28.100596002538698 0 0 0
1079 1 21.998734945938608 8.362962777138625 30.05190578586063 0 0 0
1058 1 1.8835268343986717 10.127859638157592 27.75403609919048 0 0 0
1083 1 2.136493780837411 12.233765111701796 29.764346661544366 0 0 0
1085 1 4.093158704186282 12.547190517501912 27.5434596745211 0 0 0
1087 1 6.100595292621123 12.394017675699287 29.45390812825168 0 0 0
1066 1 10.208196680368017 10.357623669611934 27.719869523948525 0 0 0
1089 1 8.060698609697733 12.577989683786761 27.154145299447176 0 0 0
1091 1 10.02245178675793 12.233952586134214 29.65472606086171 0 0 0
1093 1 12.292173776532367 12.402318954360746 27.902082479997773 0 0 0
1095 1 14.585482658157328 12.386010879228188 29.860831574914855 0 0 0
1097 1 16.431014724500095 11.956221035155332 27.518084727999145 0 0 0
1100 1 16.63217073669214 14.287326786206357 30.009329629383874 0 0 0
1101 1 20.614909561042722 12.047408606686174 27.9826116561065 0 0 0
1099 1 18.332614602876475 11.91534666527924 29.907425057349815 0 0 0
1104 1 20.87504228313535 14.829100132762893 30.19403038235765 0 0 0
1081 1 24.46616561198651 12.413400459109717 27.919440159371177 -1 0 0
1103 1 22.298226120579876 12.36528685733925 29.715067312833774 0 0 0
1082 1 1.9423693655270289 14.305175099973214 27.705826700366405 0 0 0
1107 1 2.097607332840859 16.435328007673537 29.704711707907567 0 0 0
1084 1 -0.02207718143040066 14.386864775833123 29.747594538991283 0 0 0
1086 1 6.266425324833094 14.631205487527764 27.57861740983887 0 0 0
1109 1 3.838831201519957 16.46783125990618 27.66517024862391 0 0 0
1088 1 3.8278014519653034 14.233762436780786 29.542176290557514 0 0 0
1111 1 6.062401500199337 16.37669501383309 30.209047513096944 0 0 0
1092 1 8.374959501168615 14.740458673769334 29.9637255029301 0 0 0
1113 1 8.49090730546373 16.324401868196816 27.497824941506643 0 0 0
1115 1 10.350708522771809 16.17854215042418 29.68889447251379 0 0 0
1090 1 10.414424711483694 14.474995438034675 27.47000504376822 0 0 0
1096 1 12.374635101433054 14.422806581495818 29.829009786851838 0 0 0
1117 1 12.626908397617516 16.246586032837975 27.71401997402333 0 0 0
1119 1 14.375920595629136 16.0369827267541 30.019895562530497 0 0 0
1094 1 14.742867371229961 13.960180438003793 27.68124473448661 0 0 0
1121 1 16.179562966624772 15.918530295580567 27.93623029689184 0 0 0
1125 1 20.84363452120651 16.850374079712417 27.74371737072103 0 0 0
1098 1 18.511802464303067 14.189391737267876 28.134937466783107 0 0 0
1123 1 18.63022043167441 16.051401331272583 30.25943058471016 0 0 0
1105 1 24.481942214583732 16.66889943280467 27.845555145130145 -1 0 0
1102 1 22.621761749280736 14.565377566954632 28.053719347764464 0 0 0
1127 1 22.60928077299839 16.852801073254003 29.946358226358935 0 0 0
1106 1 2.1066063547728415 18.47890226391144 27.806114345028096 0 0 0
1131 1 2.0861293356210204 20.527793494396875 30.134488193673146 0 0 0
1110 1 6.07504317495024 18.3757894651731 27.49298190630427 0 0 0
1133 1 4.089941561241096 20.064391698845476 27.971513501967163 0 0 0
1112 1 4.324148202701575 18.395642954519843 29.94745208437432 0 0 0
1135 1 5.996702398452766 20.531988183437328 30.12981994113864 0 0 0
1114 1 10.300834532196626 18.4878303135391 27.93859687448683 0 0 0
1137 1 8.167510292555546 20.453343165042806 27.967919556534987 0 0 0
1116 1 8.032821147602878 18.645443372183482 29.949842451045892 0 0 0
1139 1 10.352088506386458 20.174193401025867 30.024666214182734 0 0 0
1141 1 12.038040781686279 20.545296287253453 27.835570424768576 0 0 0
1120 1 12.228821617045446 18.460356809387438 29.926218549001568 0 0 0
1118 1 14.29026963206759 18.53431726284897 27.755933496299466 0 0 0
1143 1 14.418815578999451 20.390278577411518 29.754017799020957 0 0 0
1145 1 16.60075111962488 20.508665743300117 27.67999705517643 0 0 0
1124 1 16.279078528204614 18.43525471803428 29.515397037655102 0 0 0
1122 1 18.714443792505378 18.68911254680184 27.904139348531093 0 0 0
1149 1 20.80933765988594 20.616356265641038 27.48036054779714 0 0 0
1128 1 20.554731195581425 18.457170027706386 29.990722821280624 0 0 0
1147 1 18.627566490755463 20.88257923139846 30.32210593300902 0 0 0
1129 1 0.119975542335223 20.767416599369994 27.934585268622822 0 0 0
1108 1 0.17134658059800734 18.483444583314107 30.11717513648885 0 0 0
1126 1 22.899542432466745 18.766018804894575 27.654739314677926 0 0 0
1151 1 22.39121623356089 20.571056761659126 29.350586977526508 0 0 0
1011 1 1.6823137932495964 24.30320310215177 30.06058268213758 0 -1 0
1130 1 2.210675851554988 22.13936848218175 27.758708461975118 0 0 0
1132 1 -0.19636321564129347 22.434578995208593 30.01450129914472 0 0 0
1013 1 4.06890894141169 24.30868240729898 27.710386940559275 0 -1 0
1134 1 6.167150522021285 22.330933633634555 27.675738424891442 0 0 0
1136 1 4.113115181521667 22.22698969012948 29.6613755398022 0 0 0
1017 1 7.92532444817933 0.10307388326535344 27.796849751135078 0 0 0
1138 1 10.069275866124466 22.32924251553145 27.71038241748924 0 0 0
1140 1 8.59623777111016 22.63662495529197 29.792558923684858 0 0 0
1021 1 12.356041148351714 0.12702572003886825 27.59565059713602 0 0 0
1144 1 12.439840093457766 22.479548871981212 29.708760682039813 0 0 0
1025 1 16.651145002222087 -0.13681420782304227 27.901666007772597 0 0 0
1142 1 14.381251900730309 22.41694300636589 27.32456168186532 0 0 0
1148 1 16.447306056918897 22.36646264210492 29.671365632018034 0 0 0
1029 1 21.081610230151142 0.025856106000970547 27.750522917744984 0 0 0
1146 1 18.601105418983074 22.52964377091846 27.656874447364828 0 0 0
1152 1 20.722721262256762 22.62987728753714 29.92108358731725 0 0 0
1150 1 22.619813714363374 22.424912228754327 27.735211676238148 0 0 0
1154 1 1.9484807017341295 1.7447537948159186 32.14851968581242 0 0 0
1155 1 1.5285469000743843 24.462952712445055 34.02832554958601 0 -1 0
1158 1 5.915556034704084 1.7876756136321355 32.13698908983408 0 0 0
1160 1 4.059286209043293 1.874906979720885 34.33714371766404 0 0 0
1162 1 10.128426126722305 1.9394269386992988 31.55623347612334 0 0 0
1164 1 8.445423969917254 2.1010681726951415 34.294948700510005 0 0 0
1161 1 8.213103188239439 24.486996554235287 31.80121200854056 0 -1 0
1163 1 10.122726388842015 24.35824330418732 33.58104694366028 0 -1 0
1168 1 12.538184799087475 2.004320028182956 33.58280634513504 0 0 0
1165 1 12.527679353969543 24.280399864071843 31.825578489911813 0 -1 0
1166 1 14.592234812235702 1.8407838898277014 31.455378603703885 0 0 0
1172 1 16.57204036016868 1.6564144481614218 34.04285061654257 0 0 0
1170 1 18.51844070262137 2.0378545637083865 31.76620645048135 0 0 0
1171 1 18.79915563591964 -0.12238139616486912 34.25078132780972 0 0 0
1176 1 20.65394329684439 2.013313212779929 33.95110760848189 0 0 0
1174 1 22.501696824888754 1.9317438907151372 31.701244043201854 0 0 0
1156 1 -0.13587393150996327 2.052886120296815 34.009030283566325 0 0 0
1178 1 2.3961424591789497 6.041191474880381 32.067842592129914 0 0 0
1179 1 1.9791952112652726 3.8855412969614065 33.90296601199581 0 0 0
1181 1 3.8304082700915574 3.669623928571594 31.821619435644173 0 0 0
1182 1 6.105595851174281 6.0014067687046815 31.64913746970592 0 0 0
1183 1 6.067428471460259 3.782832130324893 33.88966714327966 0 0 0
1184 1 4.31718304217917 5.949230061657387 33.81728961874355 0 0 0
1185 1 8.028090456717186 3.835057210764232 32.00102756223582 0 0 0
1186 1 10.357632140252386 5.711588018253405 31.55979897613762 0 0 0
1187 1 10.611920696816389 3.7074830969095616 33.73812202803003 0 0 0
1188 1 8.587776584916424 6.02079968955643 33.873655711871564 0 0 0
1189 1 12.559109464524191 3.8827909547454844 31.767648255061772 0 0 0
1192 1 12.466164209726113 5.837618091202224 33.87874877401064 0 0 0
1190 1 14.573573449088052 5.738273123394887 31.76543272137701 0 0 0
1193 1 16.61482161278382 3.9100034079159487 31.961316730678988 0 0 0
1191 1 14.730027048864898 3.803461710646933 33.88382681569875 0 0 0
1196 1 16.53171177304924 5.71269894746456 33.79075396324954 0 0 0
1194 1 18.628090955787755 5.992934359681214 31.78904621065014 0 0 0
1197 1 20.603635674218012 3.9857720627237105 31.771721081923744 0 0 0
1195 1 18.666108434020444 3.7875700243462074 34.053842012860194 0 0 0
1200 1 20.751503934545234 5.863356196464797 33.86448453860773 0 0 0
1180 1 0.11642469908630099 6.1522085670746405 33.82389162560487 0 0 0
1177 1 0.14427722828324302 3.9818342544593976 32.01991783107783 0 0 0
1198 1 22.584621673731746 6.375869242383266 31.4580183316598 0 0 0
1199 1 22.54546706678397 3.6975881706525753 34.004696279853825 0 0 0
1202 1 1.8650108319870768 10.170327090072336 31.93132092313204 0 0 0
1201 1 -0.1904307659696743 8.064923942170976 31.61692388226188 0 0 0
1205 1 4.0939603905364095 8.127247240824966 31.81798451773483 0 0 0
1206 1 6.146503287761814 10.458323733121368 31.8356906495773 0 0 0
1207 1 6.131852307147715 8.089063190584477 33.775681088878216 0 0 0
1208 1 4.033341936354955 10.188429375391872 33.995054790278395 0 0 0
1209 1 8.476214801201941 7.926987061369479 31.935415602499866 0 0 0
1210 1 9.925698402743771 10.232857173391167 31.932175354901773 0 0 0
1211 1 10.380813807685437 8.246350947173509 33.925086363657634 0 0 0
1212 1 7.782114405397065 10.249267836737735 33.951701778572414 0 0 0
1213 1 11.888723753677263 7.995615308972031 31.869973810898998 0 0 0
1216 1 12.560326488262543 9.89076238519441 34.09195377872993 0 0 0
1215 1 14.244435791907664 7.608581937229896 33.65960248271881 0 0 0
1217 1 16.459815040645438 8.014294043432374 31.867102444029634 0 0 0
1214 1 14.589405846109447 10.240218288991823 32.313254648980724 0 0 0
1220 1 16.363466142196458 9.917162186449712 34.29409626244654 0 0 0
1218 1 18.39529704281823 10.27786343847106 32.25950586575588 0 0 0
1221 1 20.36317292317176 8.136893862151544 32.34007274199179 0 0 0
1219 1 18.03577241010909 7.846967352813607 33.52557624418859 0 0 0
1224 1 20.47198785620455 10.295073294263593 33.97984481363574 0 0 0
1222 1 22.44372334120252 10.445644843980082 32.01618751010126 0 0 0
1223 1 22.890484785634477 8.357113358161785 34.013990739741274 0 0 0
1227 1 2.076430442630252 12.329936925156838 33.69811404984312 0 0 0
1229 1 4.228267028771842 12.35704266955451 31.946956985063714 0 0 0
1233 1 7.8259086759925935 12.386175645375761 31.66179076626601 0 0 0
1235 1 10.69320707964679 11.827279091945487 33.80138118656805 0 0 0
1237 1 12.622068623307923 12.15837702427829 31.44662265516923 0 0 0
1239 1 14.392343271386137 12.110551288464716 34.10728642593698 0 0 0
1241 1 16.35321163587333 12.254690917920357 32.21058476034163 0 0 0
1245 1 20.603414770237073 12.238554429634119 32.07996334976007 0 0 0
1243 1 18.781452066864503 12.392141333081439 34.3060563716226 0 0 0
1225 1 0.14798105480473395 12.398940578235713 31.83315527005429 0 0 0
1247 1 22.34379825116934 12.359699316113474 33.876036167212774 0 0 0
1226 1 2.007593887864219 14.39208426296738 31.63479546604716 0 0 0
1251 1 1.9536128997871343 16.264010254873167 33.830456928380734 0 0 0
1230 1 5.912969282499531 14.20506576828911 31.865143327613644 0 0 0
1253 1 4.247076188341004 16.44808413096691 31.78513574656244 0 0 0
1255 1 6.1174921932131054 16.403569138938828 33.945268077626956 0 0 0
1234 1 10.33070860335501 13.892491782972503 31.497844060836194 0 0 0
1257 1 7.881837014656412 16.133105157751704 32.078704503685564 0 0 0
1236 1 8.259909150139292 14.263120088014029 34.06125191144974 0 0 0
1259 1 10.364457152678375 15.924269080828758 33.67442617667212 0 0 0
1261 1 12.586692031202757 16.235498612327035 31.696470139224836 0 0 0
1240 1 12.47673587834665 14.107196678641168 33.75557786841233 0 0 0
1263 1 14.313332365222136 16.00313321346216 34.007934922326996 0 0 0
1238 1 14.389926637378897 14.220620139288648 32.09295301392026 0 0 0
1265 1 16.319605572138585 16.6345993323239 31.731432120011277 0 0 0
1244 1 16.48047258867262 13.889529566050525 34.12719909622881 0 0 0
1242 1 18.69378541622273 14.279814801104914 32.096747562615825 0 0 0
1269 1 20.306925604593204 16.94241927787992 32.06294689882085 0 0 0
1267 1 18.360926183200007 16.391853461005663 33.74390641893948 0 0 0
1248 1 20.612439396637647 14.318824892852728 33.81278521902489 0 0 0
1249 1 0.15041552572387 16.455747278370136 31.83930082008333 0 0 0
1246 1 22.867175867103462 14.338314367052842 31.54353480135734 0 0 0
1271 1 22.616586153509225 16.70368440862185 33.651194352180745 0 0 0
1250 1 2.184397615579793 18.582230911605805 32.07127525411251 0 0 0
1275 1 1.7180024709962511 20.76260055876788 34.41410466615077 0 0 0
1252 1 -0.08315121529217231 18.63624846089693 33.968082497000395 0 0 0
1254 1 6.193278827996853 18.475422975695107 31.94960043582452 0 0 0
1277 1 4.16836911109907 20.8127959122811 31.895837449541105 0 0 0
1256 1 4.200651610659767 18.405805813669392 33.84061495702861 0 0 0
1279 1 6.0277987025524 20.15671036333678 34.32460900932303 0 0 0
1281 1 8.179373757614028 20.902545231338266 31.736477515266976 0 0 0
1260 1 8.283602487338628 18.166573675008046 34.05622926500622 0 0 0
1258 1 9.812851662452346 18.153661053718622 31.992523180418132 0 0 0
1283 1 10.344383853088242 20.29036851147673 33.81930982352378 0 0 0
1285 1 12.110811365672484 20.16121551019439 32.1162172803006 0 0 0
1264 1 12.346173791714454 18.057657804953656 33.77989497214365 0 0 0
1262 1 14.324234266594255 18.318844603381276 32.20635695045873 0 0 0
1289 1 16.38144102079712 20.53786081147002 31.900621873322905 0 0 0
1268 1 16.44122751687776 18.594995281520912 33.913574869445576 0 0 0
1287 1 14.351928622670078 20.402884323421006 34.085920044322116 0 0 0
1266 1 18.142162134827537 18.4582410403562 31.989234468789135 0 0 0
1293 1 20.62302364995852 20.292972385896196 32.01769969310242 0 0 0
1272 1 20.38349473749235 18.782529547194923 34.01588092484108 0 0 0
1291 1 18.178191190485805 20.56128249061404 34.164140443378635 0 0 0
1273 1 0.22802293032254517 20.951877654197258 32.078697615001815 0 0 0
1270 1 22.657372806900042 18.706248880536997 31.833634307502443 0 0 0
1295 1 22.59881807896185 20.50304099535516 34.4039169563366 0 0 0
1274 1 2.105653123426634 22.588028841245233 32.22123888124201 0 0 0
1276 1 24.315839618035 22.55570717943942 34.127508070156026 -1 0 0
1157 1 4.095547505736452 24.20542232896475 31.970066055167152 0 -1 0
1159 1 6.008149041137205 -0.1825316103656197 34.07685196872267 0 0 0
1278 1 6.303036916912286 22.67299087737231 32.12492673913623 0 0 0
1280 1 4.057372279852255 22.48440033395747 34.14380381007597 0 0 0
1282 1 10.630129175793279 22.46043770618696 31.725579879458834 0 0 0
1284 1 8.184074997310875 22.2117383702684 34.11114240574701 0 0 0
1288 1 12.244631204483285 22.56976779161834 33.952097588039074 0 0 0
1169 1 16.514624846313993 24.280126647930473 31.256266390822084 0 -1 0
1167 1 14.533216832065552 0.15480865991340154 33.82690930775386 0 0 0
1286 1 14.571947628732028 22.39088067231866 31.987551173011127 0 0 0
1292 1 16.240287731521306 22.86021435618817 33.82157916877472 0 0 0
1173 1 20.451510411630707 24.462097391776673 32.16007591278908 0 -1 0
1290 1 18.62297302806894 22.635950717269548 32.25789773610694 0 0 0
1296 1 20.744565414894204 22.38750643666417 34.07652523282772 0 0 0
1153 1 -0.1991307241030346 -0.21612776245172682 32.199769404847245 0 0 0
1175 1 22.57796458499 0.3523943971917378 33.981448466098755 0 0 0
1294 1 22.62576068934139 22.467619821761094 31.954376895175024 0 0 0
1298 1 1.8592413690397938 1.7476035953129485 36.18879048710356 0 0 0
1297 1 -0.20930250064576889 -0.12420900583344922 36.145995500903936 0 0 0
1299 1 1.855764388921176 24.277975155715716 38.48857726442459 0 -1 0
1302 1 6.403879255416337 2.308329048649383 36.11466343661917 0 0 0
1301 1 3.742976518718536 24.36765377137627 36.19508832711603 0 -1 0
1306 1 10.078556001011068 1.9532610251257965 36.340394079221696 0 0 0
1312 1 12.401148651759199 2.2701473331900988 37.99357955989047 0 0 0
1310 1 14.454484047711018 1.9248421315837816 35.97323819215658 0 0 0
1314 1 18.498823381134684 1.8408043330481432 36.11353762319893 0 0 0
1317 1 20.79052083908239 24.379576973824285 35.934785934737825 0 -1 0
1318 1 22.59270072976539 2.1170665383023457 36.42510089746611 0 0 0
1322 1 2.324162809194372 6.000668606780281 35.83107811718431 0 0 0
1321 1 -0.27007892209732176 3.882068432858433 36.391547191590476 0 0 0
1325 1 4.239174241504776 4.125299882766579 35.99785879415306 0 0 0
1326 1 6.380512080673393 5.875827864121098 35.6914879301287 0 0 0
1329 1 8.195916958156191 4.1812135737862395 35.983183796734146 0 0 0
1330 1 10.25028361092932 6.157037588660135 35.90630674482165 0 0 0
1333 1 12.446940809830167 4.066097279354583 36.05063538318543 0 0 0
1334 1 14.318536766474564 5.78173231379466 36.18287329917273 0 0 0
1337 1 16.568738663604783 4.0862358397062115 36.16114526764018 0 0 0
1338 1 18.708141942771107 5.974293931677987 35.684739542673626 0 0 0
1341 1 20.618194330692745 3.811445364841533 36.378895145551596 0 0 0
1342 1 22.825363378758503 5.761936351531495 35.83962986116136 0 0 0
1203 1 2.1551686670294004 8.134721482130566 33.785517847881714 0 0 0
1346 1 1.9535861544709001 10.402049402310181 35.89257782802019 0 0 0
1349 1 4.284662243730782 7.9338672767287175 35.833791740094824 0 0 0
1350 1 5.861892911770604 10.370440486274925 35.735814968402714 0 0 0
1353 1 8.136208014857466 8.018749294531789 35.75393417754264 0 0 0
1354 1 10.712746747963019 10.3893465753744 36.17396536073282 0 0 0
1357 1 12.51769654104356 8.032791823600293 36.20972682632007 0 0 0
1361 1 16.38771853176346 7.695571550443621 36.28965980551954 0 0 0
1358 1 14.64545975521611 10.330307869179057 36.22958595667659 0 0 0
1362 1 18.556170129326418 9.768917788190478 35.727215612158744 0 0 0
1365 1 20.625585683827182 7.91596998749481 35.474957727490185 0 0 0
1204 1 0.02090899189122991 10.343393265957586 33.95374327999433 0 0 0
1345 1 0.09907249374748 8.33089085189076 35.82198661772293 0 0 0
1366 1 22.47574829301807 10.260818136919184 36.03258108895394 0 0 0
1231 1 6.105984630338488 12.326165069120526 33.93551094650362 0 0 0
1373 1 4.024272103876676 12.76998366125299 35.80694361798425 0 0 0
1377 1 7.96114038155693 11.653379293309353 36.248798594338865 0 0 0
1381 1 12.56519634994252 12.209650149674566 35.96417037557669 0 0 0
1385 1 16.449873901219426 12.18486410895195 35.94135263751808 0 0 0
1389 1 20.666025409353267 12.315138323911125 35.986256818626536 0 0 0
1386 1 18.35757091943995 14.601700140582096 36.030383047577764 0 0 0
1387 1 18.514108638252253 12.416256860599109 38.187923577789036 0 0 0
1369 1 -0.03454334031701803 12.480546472507568 35.969935931019535 0 0 0
1228 1 -0.25719842388479597 14.203536908269484 33.72331307508306 0 0 0
1370 1 1.7285269211946175 14.34611019997371 35.6545141567695 0 0 0
1232 1 4.029683222610958 14.62247697826156 33.9131356346267 0 0 0
1374 1 6.21952770608429 14.261088894895444 35.94877115135316 0 0 0
1397 1 3.91514271565974 16.43054830911277 35.93344753194734 0 0 0
1401 1 8.12892563027456 16.142593051900846 36.09993655141031 0 0 0
1378 1 10.43755082104757 14.125640825259993 36.28717204631619 0 0 0
1405 1 12.039468888978707 16.31135019401938 35.87177050939049 0 0 0
1384 1 12.666965075845214 14.407971680733588 37.861573334581784 0 0 0
1382 1 14.556480808697902 14.415145363915189 36.11930509848759 0 0 0
1409 1 16.423314778280258 16.590758753761165 36.011988688336096 0 0 0
1407 1 14.233162234200385 16.763483830372262 38.07862794028344 0 0 0
1413 1 20.35264162240489 16.34942239449409 35.92984674064835 0 0 0
1393 1 -0.15853003437718893 16.17677008488519 35.81191943428037 0 0 0
1390 1 22.65538196722249 14.377028226252653 36.13057366864943 0 0 0
1394 1 1.7214060108240377 18.180229635932587 35.82145534374642 0 0 0
1398 1 5.826773843591522 18.556489626095136 36.06603218923075 0 0 0
1421 1 3.9635929636761738 20.485663607933414 36.23131348379187 0 0 0
1425 1 8.224574402546256 20.470538041312846 36.169327949074905 0 0 0
1402 1 10.186552497803124 18.41391128059892 36.16805028640624 0 0 0
1429 1 12.050603976777756 20.7843599271267 36.205536100109825 0 0 0
1406 1 14.253934251740414 18.457233585529956 35.952590256954444 0 0 0
1433 1 16.12332780988897 20.779508890146577 36.52747682312561 0 0 0
1410 1 18.489647257293463 18.654446337343146 36.010964513540195 0 0 0
1437 1 20.599456415241853 20.520054853901357 36.03419324887202 0 0 0
1417 1 -0.19063849982513062 20.40739294203876 36.283713092239815 0 0 0
1414 1 22.780898580748953 18.104525424711664 35.90584175301503 0 0 0
1418 1 2.10259885066559 22.43791757794736 36.48692827469243 0 0 0
1420 1 -0.22405037207276102 22.81863721776263 38.212481023645395 0 0 0
1422 1 6.062563271093976 22.552609153071735 36.30990575539786 0 0 0
1305 1 8.151293686207609 -0.1846968994932804 36.13119616302914 0 0 0
1426 1 9.880096302155327 22.71526129558394 36.24814775076954 0 0 0
1309 1 12.152267626787845 -0.1463025265638167 35.84588518545043 0 0 0
1313 1 16.44487466645065 0.011512632719893862 36.017541250395574 0 0 0
1430 1 14.425573366590855 22.759331130227345 36.17412254848406 0 0 0
1434 1 18.344478596215055 22.578786466238153 36.305581137236715 0 0 0
1440 1 20.63488232264492 22.251130660062113 38.19075001744164 0 0 0
1438 1 22.91672892246153 22.267584215036223 36.59162022987005 0 0 0
1442 1 2.2008578841838506 1.5009286200714549 40.28034362224458 0 0 0
1304 1 4.242573514912207 1.8431955566059388 38.240628683947335 0 0 0
1446 1 5.950047928906577 1.7762644284306883 40.23515107862479 0 0 0
1445 1 4.087068659536162 24.386720654265424 40.7035365816784 0 -1 0
1308 1 8.005149353088283 2.0450731497572563 38.40522495785455 0 0 0
1450 1 10.40164451262135 2.124696301573631 40.38633239700153 0 0 0
1307 1 10.324596457654733 0.06518675081491349 38.428539955814074 0 0 0
1449 1 7.842694081412642 0.038878643718543604 40.30494695872939 0 0 0
1453 1 12.317545556004198 -0.08783583353682542 40.281619102664884 0 0 0
1454 1 14.69960953423219 1.7849951986505252 39.823170414331514 0 0 0
1316 1 16.85392380085937 1.7732591617570315 38.473108233130375 0 0 0
1311 1 14.29978777800483 -0.1496704087125899 37.974388574742804 0 0 0
1458 1 18.69750426991184 1.8466732149109446 40.30543671627263 0 0 0
1320 1 20.414720121453065 2.264160679699982 38.43300204503017 0 0 0
1461 1 20.645562367890022 0.09074488392891877 40.42947881931865 0 0 0
1300 1 0.23211984629461524 1.7792344102955937 38.36984526098765 0 0 0
1462 1 23.03835955154196 2.2829004854042134 40.209113915497134 0 0 0
1441 1 -0.0721350441986523 0.002555157438368233 40.374409042767915 0 0 0
1323 1 1.9364629819937642 3.875300088273568 38.07548485621997 0 0 0
1466 1 2.281012387608559 6.140747938161719 39.715750128218126 0 0 0
1324 1 0.14698300039153217 6.318832635398299 38.23349949155114 0 0 0
1465 1 0.16922986176406074 4.151591691886725 40.33482402896816 0 0 0
1327 1 6.207908974761603 3.799279725677918 38.33715476969558 0 0 0
1328 1 4.593999822566621 5.636955594648776 38.21556782918189 0 0 0
1469 1 3.9715407204260478 3.6917516039898834 40.176609926058006 0 0 0
1470 1 6.497868515787766 5.884996922306393 40.20275864796049 0 0 0
1331 1 10.232122817944493 4.21552848861896 38.134151782664816 0 0 0
1332 1 8.232234979094704 6.272853409384034 38.31389877761509 0 0 0
1473 1 8.269935777251503 3.7980940564680257 40.587786571306175 0 0 0
1474 1 10.168809422497924 6.414412697337167 40.17606497563722 0 0 0
1336 1 12.490488117313527 6.430929193909813 38.3865937463356 0 0 0
1477 1 12.441521142504852 3.8830636667294165 40.40550130880545 0 0 0
1335 1 14.811155145007428 3.984784554908517 38.095618649896004 0 0 0
1478 1 14.577510754611989 6.430737835643939 40.40669028213815 0 0 0
1340 1 16.44715915025501 5.929077999117805 38.149696611152365 0 0 0
1481 1 16.712188516592484 3.7766331663034025 40.363965254710415 0 0 0
1339 1 18.39761550871639 4.113403884259297 37.926407177943865 0 0 0
1482 1 18.73852431485355 5.892441287372883 40.1094373345925 0 0 0
1344 1 20.980402355884557 5.841542317798974 37.922999933538925 0 0 0
1485 1 20.905695445402614 4.130813572961821 40.17453402287024 0 0 0
1343 1 22.821915063046546 4.076354031576185 38.26601898943781 0 0 0
1486 1 22.99273441842673 6.208917782350259 40.20288330889175 0 0 0
1347 1 2.0590830029664082 8.4139375215741 37.66937846588153 0 0 0
1489 1 0.5061852198863199 8.545801719889974 39.709488551807816 0 0 0
1352 1 3.9171233449065035 10.262684796675153 37.8027781458459 0 0 0
1351 1 6.197769777280563 8.01059272872173 37.868294300275764 0 0 0
1493 1 4.338433044178815 7.972926279597063 39.59547883757606 0 0 0
1494 1 5.542443548731966 10.093475556805515 40.205316722109885 0 0 0
1356 1 8.094005830283368 10.547301844997646 38.36736327472121 0 0 0
1355 1 10.270350423814726 8.626773189882337 37.97586304152817 0 0 0
1497 1 8.132830772009426 8.299852273659269 40.19695147115859 0 0 0
1498 1 10.325429227863065 10.322804825616219 40.41487699165805 0 0 0
1501 1 12.424103774862047 8.263626601151882 40.5004682019842 0 0 0
1360 1 12.565769470216415 10.16559091070091 38.24872976131804 0 0 0
1359 1 14.575344001299337 8.43033927474249 38.36742528923252 0 0 0
1505 1 16.37574165139447 8.188818364825083 40.125260589194156 0 0 0
1502 1 14.142205778980196 10.415529368078785 40.50179368079828 0 0 0
1364 1 16.780937067055937 10.003222805183933 37.831065988097485 0 0 0
1363 1 18.461056770030275 7.895187792628702 38.009694540883146 0 0 0
1368 1 20.37942624178971 10.033230278698849 37.63647261717699 0 0 0
1509 1 20.56238738069763 8.158881453044721 40.04043649812114 0 0 0
1506 1 18.463358580594424 10.105701219154804 39.972891755127755 0 0 0
1367 1 22.900806658937427 7.976521662975816 37.92943171066223 0 0 0
1510 1 22.359597056770674 10.283436786407592 39.734798401482536 0 0 0
1490 1 1.9945957202529967 10.65912646942456 39.8128549298926 0 0 0
1371 1 1.9576007981157715 12.571027929316587 37.87805195631035 0 0 0
1513 1 24.393696561308992 11.93610935082045 39.89942324678269 -1 0 0
1375 1 5.935309227147066 12.502122799376481 37.91279059561588 0 0 0
1517 1 4.165917895328974 12.337387275854475 39.9268344399215 0 0 0
1379 1 10.187334681364003 12.229772976797154 38.338985505730236 0 0 0
1521 1 8.10670214152251 12.179300263747573 40.48467833478161 0 0 0
1525 1 12.010826171501575 12.149772051242666 40.3713135416634 0 0 0
1383 1 14.477464197317367 12.48157741982891 37.92538343961239 0 0 0
1529 1 16.603971344711475 12.388510760103202 39.75856091612725 0 0 0
1533 1 20.589439137461135 12.397529554016243 40.0761966320804 0 0 0
1348 1 -0.20734896495206848 10.270171686157745 37.91883978990414 0 0 0
1391 1 22.3017707689836 12.349787234373286 38.03805011018631 0 0 0
1534 1 22.48110717917033 14.479501619996773 40.39395215247126 0 0 0
1514 1 1.508093379345775 14.497370201105593 40.1403002729194 0 0 0
1395 1 1.8241424526329864 16.290038589987127 37.87864920370072 0 0 0
1372 1 24.462874141406765 13.821112518841998 38.47967171909189 -1 0 0
1518 1 6.13692197019628 14.515263641041786 39.87986025047292 0 0 0
1376 1 4.107375891257787 14.372224005646927 37.96610820315893 0 0 0
1399 1 6.053511454147526 16.53261596691052 38.00178154459599 0 0 0
1541 1 3.7315944804426406 16.36863149208807 39.965734604630114 0 0 0
1403 1 10.003455540606376 16.02951568296296 38.12989848628268 0 0 0
1380 1 7.994720116620012 14.191752207867038 38.12628303471783 0 0 0
1545 1 8.20785221123761 16.59441136450538 40.278942656969456 0 0 0
1522 1 10.07075912147259 14.580274235453782 40.3153204677883 0 0 0
1549 1 12.43227870347039 16.329618542168703 39.89279018065548 0 0 0
1526 1 14.400978051148046 13.84658825133492 40.20412781535372 0 0 0
1388 1 16.224788616417122 14.72938132748414 38.05535437681744 0 0 0
1553 1 16.39456220560473 16.410836691156877 40.035134458586896 0 0 0
1530 1 18.30822672346173 14.315206810296504 40.02444430876594 0 0 0
1392 1 20.465622354164182 14.589542399498562 37.99528634643661 0 0 0
1411 1 18.21346753904276 16.4993575856047 37.8520026394649 0 0 0
1557 1 19.99824557365499 16.43567555717674 40.39405524470118 0 0 0
1537 1 -0.13535228150910952 16.621085082863832 40.2159381518425 0 0 0
1415 1 22.69142628588191 16.46978000753549 37.91595587170195 0 0 0
1419 1 1.9068014057062306 19.927263189431674 37.98332885153833 0 0 0
1538 1 2.170764206072301 18.62289943027973 40.31844754880101 0 0 0
1396 1 -0.23171581224592022 18.20556362318336 38.07959520830389 0 0 0
1561 1 0.11678874806266526 20.229339147902664 40.10987596560745 0 0 0
1400 1 4.055935491683545 18.25631437901765 38.15597368905332 0 0 0
1542 1 6.409063576593625 18.27467657635213 40.36937161628752 0 0 0
1423 1 5.84752593858189 20.586101224122757 38.39008132849959 0 0 0
1565 1 4.056921242565459 20.559394501572022 40.63725551926309 0 0 0
1404 1 8.190927859513685 18.476044890969202 38.26684919972292 0 0 0
1546 1 10.37411943518034 18.685613072274524 39.99713268816248 0 0 0
1569 1 8.280897718872305 20.254705721125195 39.977623133613825 0 0 0
1427 1 10.046345502705838 20.49904749274341 38.0851326740912 0 0 0
1408 1 12.358398664015136 18.724301396987943 38.00164742401196 0 0 0
1573 1 12.093990944142208 20.658963652312917 40.11358135679239 0 0 0
1550 1 14.56193078434099 18.662611524725992 39.82695018190447 0 0 0
1412 1 16.559878774465076 18.61556961709296 38.19846545150058 0 0 0
1431 1 14.219621586001734 21.055019064738 38.29415197647559 0 0 0
1577 1 16.404190937735677 20.982694681492394 40.34787533078248 0 0 0
1435 1 18.345378141532954 20.46266820084354 38.33181653658191 0 0 0
1554 1 18.390407755138646 18.90031991111106 40.05894590545114 0 0 0
1416 1 20.511891068847056 18.20137510982863 37.98219842897619 0 0 0
1581 1 20.608714622795397 20.447374131539533 40.059063629608396 0 0 0
1439 1 22.57088323028775 20.144472319302857 38.42359336685628 0 0 0
1558 1 22.369696133831397 17.983730017822833 40.00357727146473 0 0 0
1562 1 1.7922097617715615 22.518417278716143 40.563588015533384 0 0 0
1303 1 6.20078937642942 0.19931161649665768 38.03862741194084 0 0 0
1424 1 4.259631431284002 22.58845211163981 38.28458382816404 0 0 0
1566 1 5.99214960132045 22.40245339734135 40.441902737065256 0 0 0
1428 1 7.964176793565844 22.561923641371106 38.19447282434233 0 0 0
1570 1 10.08459997535864 22.69492086735098 40.4758222823834 0 0 0
1432 1 12.039321574693048 22.97538113371412 38.30942246847286 0 0 0
1457 1 16.456710864779133 -0.1900257414216993 40.14714284541969 0 0 0
1436 1 16.37053279055815 22.73753499735521 38.227242454730174 0 0 0
1574 1 14.32520885455149 22.421968514472297 40.30787106319925 0 0 0
1315 1 18.948778818032658 24.45566808415033 38.128549637599484 0 -1 0
1578 1 18.649348339323417 22.600138532895375 40.21631807539106 0 0 0
1319 1 22.83499982782523 0.3159466267676466 38.37902869895032 0 0 0
1582 1 22.71863092202019 22.71847536782702 39.92810382365504 0 0 0
1586 1 1.7258507802737308 1.9252547175285772 44.300801000267725 0 0 0
1443 1 2.045471114963922 24.338309723662228 42.3379392960143 0 -1 0
1444 1 0.07906110085900608 1.846374819676765 42.25346321388474 0 0 0
1448 1 4.0052018304324015 1.7149789738158645 42.478836676762164 0 0 0
1590 1 6.403174272952419 1.9359754332355132 44.34017777543019 0 0 0
1447 1 6.036783531744918 -0.12453226540788097 42.47978234814571 0 0 0
1452 1 8.353662420413583 1.7015104138253023 42.28828434534027 0 0 0
1451 1 10.094682214588884 -0.2128346206070802 42.828185522653804 0 0 0
1593 1 7.944644281732984 24.413418883451364 44.312448044517915 0 -1 0
1594 1 10.238528283304527 2.057859459626831 44.36335152597304 0 0 0
1456 1 12.637594372797507 1.7414744137530342 42.28557482317009 0 0 0
1598 1 14.378610474878233 1.9011833289106579 44.24918679802403 0 0 0
1460 1 16.51310636237924 1.730974485383879 42.37096086482784 0 0 0
1602 1 18.524621554840238 1.8550085131226686 44.237598464076285 0 0 0
1464 1 21.169175062902795 2.2876964859614457 42.06609682883211 0 0 0
1606 1 22.787443244607672 1.5988323490742506 44.28944844910029 0 0 0
1463 1 22.383486108436003 -0.1175004525818492 42.448974132987296 0 0 0
1467 1 1.8340815519330835 3.9000963686670085 42.38036555481892 0 0 0
1610 1 1.7315226918753543 6.07825226367834 44.572762183906015 0 0 0
1468 1 0.07435969564015954 6.050938798158545 42.105832794166645 0 0 0
1609 1 -0.09254925507735565 4.040003331291526 44.4725112028747 0 0 0
1471 1 5.998773701204463 3.7915073069222265 42.35028665266306 0 0 0
1472 1 4.115404595835439 5.811016568614994 41.93556542302861 0 0 0
1613 1 3.936113353125572 3.7105672283724274 44.38608031287464 0 0 0
1614 1 6.317673079257403 5.868650600610961 44.350252902347584 0 0 0
1475 1 10.38080213523599 4.002471163913438 42.43254599122886 0 0 0
1476 1 8.196300845147146 6.111381176302722 42.26912107627551 0 0 0
1617 1 8.418855470919308 4.004627489528804 44.4804148515833 0 0 0
1618 1 10.239172081312596 5.767394578146293 44.139162500981996 0 0 0
1480 1 12.373647560845152 5.7470077022475845 41.985893896235225 0 0 0
1621 1 12.629331251637145 3.9586258524572537 44.393691539262974 0 0 0
1479 1 14.544087802740822 3.9047029528119657 42.37979035478392 0 0 0
1622 1 14.548051294740771 5.864137773684108 44.190481672262365 0 0 0
1484 1 16.50142644529395 5.858721491619202 42.12939967086299 0 0 0
1625 1 16.75753698120439 4.124732672345139 44.06667288413613 0 0 0
1483 1 18.582236679105456 3.928373817502746 42.31687811012265 0 0 0
1626 1 18.922666198444787 5.846551519670433 44.47001527652843 0 0 0
1488 1 20.99611510838453 6.315975161477088 42.10414893347891 0 0 0
1629 1 20.6507694319003 4.1679982886081675 44.178253027918096 0 0 0
1487 1 23.110900367436855 4.1823013047099895 42.37003565173922 0 0 0
1630 1 22.754551851710048 5.993690837312924 44.43431612541492 0 0 0
1491 1 2.1840589574319536 7.872038923899771 41.677530230892145 0 0 0
1634 1 2.0770953287408567 9.76419712388803 44.08011548644425 0 0 0
1492 1 -0.22705187604260302 10.278463084056343 42.22432626804048 0 0 0
1495 1 6.081636478568427 7.862037254815675 42.20377031832944 0 0 0
1496 1 3.7369113934399287 10.450358110463325 42.182078404104075 0 0 0
1637 1 4.091561545735015 7.618631407447981 43.951176826895164 0 0 0
1638 1 6.034324906299917 10.250646662977516 44.28390069257432 0 0 0
1499 1 10.243983714964084 8.178759142355624 42.03130615397765 0 0 0
1641 1 8.506554560265727 7.52983470344868 44.471634329212634 0 0 0
1500 1 7.840724066803411 10.207039248432576 42.55515671548168 0 0 0
1645 1 12.077761542458347 7.602937268623659 43.87233461758696 0 0 0
1503 1 14.421021014158942 8.062257286606735 42.45229413308322 0 0 0
1646 1 14.226439602362223 10.293795636067214 44.30757638676863 0 0 0
1508 1 16.30568000133487 9.729262181933011 42.37895228729474 0 0 0
1649 1 16.545249573418054 7.58925917472768 44.244821803286634 0 0 0
1507 1 18.402128291780592 7.9654394435260905 42.19936479739532 0 0 0
1653 1 20.28075484640572 8.337032192032762 44.06102286862818 0 0 0
1512 1 20.411765989942978 10.047863266379705 41.98347107009937 0 0 0
1650 1 18.220624548218105 10.164832499303488 44.31045483524166 0 0 0
1633 1 -0.0553609726237661 8.041314785329138 44.166299707914085 0 0 0
1511 1 22.859972180074266 8.259683162766096 42.0464849702138 0 0 0
1654 1 22.333419075054714 10.189371505340661 43.89033645241174 0 0 0
1515 1 1.9301931434167954 12.619423325533822 42.335245322696615 0 0 0
1657 1 -0.15249486282437397 11.87328785525864 44.22835385615288 0 0 0
1519 1 5.993950311406798 12.351347619695131 41.83961228601679 0 0 0
1661 1 3.8694049366421126 12.500446323088898 44.20891155879248 0 0 0
1642 1 10.161718649398475 9.704232079445498 44.56886099104292 0 0 0
1523 1 10.05410032458967 12.087471603801912 42.5555618991734 0 0 0
1665 1 8.03407758381801 12.524860789450175 44.198392411666326 0 0 0
1504 1 12.302697435487413 9.985900045889585 42.29448353853129 0 0 0
1669 1 12.185912500432684 12.075542092227455 44.57556205488259 0 0 0
1527 1 13.94431206171402 12.270418002949553 42.29050907569578 0 0 0
1673 1 16.101297168518144 12.153113755175783 43.854472029277474 0 0 0
1531 1 18.19930297420619 12.32546316172779 41.98003171747624 0 0 0
1677 1 20.228866445752118 12.209971076056172 44.20735237528588 0 0 0
1535 1 22.616929818620896 12.61338472774554 42.66807876625493 0 0 0
1658 1 1.6857865949246187 14.260767421717441 44.35946790271595 0 0 0
1539 1 1.8309279285127427 16.647558815821174 42.08078144164131 0 0 0
1516 1 -0.2504004632413186 14.38702118646639 42.39733343121596 0 0 0
1681 1 24.488270917036864 16.652483873494404 43.658734837704024 -1 0 0
1520 1 3.6262675348484747 14.75479023092188 41.99247469901421 0 0 0
1662 1 6.022208315430271 14.307179103350492 44.50062375803689 0 0 0
1543 1 5.964041261649488 16.143777193549127 42.03274791029237 0 0 0
1685 1 3.6930780903984894 16.197847240954317 44.24373007610921 0 0 0
1666 1 10.129602370490682 14.088817768623086 44.437650790976996 0 0 0
1524 1 7.93769143432835 14.420321966741188 42.12160826063186 0 0 0
1547 1 9.975769475256866 16.23305807971026 42.47884308688826 0 0 0
1689 1 7.871437910529188 16.120905690840832 44.40845511100868 0 0 0
1528 1 11.847408186672288 14.3586085799371 42.358225039827374 0 0 0
1693 1 12.313358589490486 16.28447850279968 44.27549305139862 0 0 0
1670 1 14.081662783793783 14.333059448784319 44.08535519396201 0 0 0
1551 1 14.36786670420418 16.15219124160745 42.10750562648714 0 0 0
1532 1 16.38160184949143 14.61154864796625 42.14822065770077 0 0 0
1697 1 16.2249299965234 15.875158354842188 44.393063553947236 0 0 0
1536 1 20.54129530350368 13.947838371751764 42.38114797981679 0 0 0
1674 1 18.43835515776493 14.051411351956203 43.93368145897939 0 0 0
1555 1 18.286891080662343 16.317530473007128 42.50263313347216 0 0 0
1701 1 20.239961983237173 16.2671400218049 44.42149827625377 0 0 0
1678 1 22.76883391272193 14.481841872612547 44.481420097032185 0 0 0
1559 1 21.937494341965 16.421185635631236 42.04213500307667 0 0 0
1682 1 1.8467315211036475 18.534316879462487 44.55041961801888 0 0 0
1563 1 1.938636788727238 20.453483944789696 42.35902558849823 0 0 0
1705 1 24.38755795480693 20.536676448597838 44.30168650761657 -1 0 0
1544 1 3.7932109105405365 18.477813502932598 42.644997098289984 0 0 0
1686 1 6.000286226623763 18.222707946221146 44.385762034534295 0 0 0
1567 1 5.9857792800753655 20.16837337612616 42.23122443329431 0 0 0
1709 1 4.038783477162365 20.66582349777767 44.60640344468014 0 0 0
1548 1 8.343746627515358 18.4416002723149 42.314624461776205 0 0 0
1571 1 10.148975683059334 20.428126100217415 42.25267677943525 0 0 0
1713 1 7.923673169325745 20.37581989979911 44.19431601153627 0 0 0
1690 1 9.784020690370033 18.401789736195397 44.484667512497495 0 0 0
1552 1 12.30337481175169 18.02084831035675 42.19259785092057 0 0 0
1717 1 12.203561655030382 20.338019700165265 44.14166191077563 0 0 0
1694 1 14.43596872776529 17.782602640741132 44.104789214893806 0 0 0
1575 1 14.469204289801585 20.21602885041442 42.10635825555242 0 0 0
1556 1 16.405080374675393 18.206999288193185 42.12007494032163 0 0 0
1721 1 16.30406050630416 20.14013568926784 44.531432216890124 0 0 0
1698 1 18.314131634620395 18.574264502085526 44.40928403284676 0 0 0
1560 1 20.765323287366925 18.809924933490894 41.93015318826575 0 0 0
1579 1 18.528846515647082 20.471195968594984 42.41616508378902 0 0 0
1725 1 20.31354944258309 20.50050097157157 44.7253254573473 0 0 0
1540 1 24.515741603256615 18.639914915447886 42.24673121033189 -1 0 0
1702 1 21.923574794337753 18.224592718756632 44.16197116282125 0 0 0
1583 1 22.693661593702615 20.752048478707565 41.74620091763424 0 0 0
1585 1 -0.05037569421425203 -0.0821543539395807 44.543932746672965 0 0 0
1706 1 1.9773055118997926 22.367494537693304 44.47369796626598 0 0 0
1589 1 3.7269403313367944 24.462948540816726 44.4917511395558 0 -1 0
1568 1 4.048180251240018 22.482209178147762 42.56165464101897 0 0 0
1710 1 6.140381950524621 22.274163384549478 44.36813796584363 0 0 0
1572 1 8.185991060006153 22.579806666321154 42.23629502827206 0 0 0
1714 1 10.256335358879513 22.434025247899964 44.39356430476828 0 0 0
1597 1 12.371686571804704 24.374048289879642 44.60962619117588 0 -1 0
1576 1 12.348917691496203 22.487107458683152 42.420881929159904 0 0 0
1455 1 14.65237444914167 24.38306368412773 42.21091629880811 0 -1 0
1601 1 16.46166872353311 -0.0788869759340875 44.611614198401675 0 0 0
1718 1 14.502147740972994 22.558885027890945 44.3341267118542 0 0 0
1580 1 16.357705135526054 22.33781427078173 42.556696319419075 0 0 0
1605 1 20.47408252600823 -0.06481505942867796 44.35486829221813 0 0 0
1459 1 18.373630194812378 24.426236068092454 42.322678151136344 0 -1 0
1722 1 18.53853175115791 22.507259024110606 44.4698195389922 0 0 0
1584 1 20.744545386338828 22.36337201405575 42.02948655578862 0 0 0
1564 1 -0.07954340192456649 22.958725537498417 42.26611453712496 0 0 0
1726 1 22.627980317013048 22.306226853412944 44.16735864220001 0 0 0
1588 1 -0.06196273500906577 1.653297744185659 46.68207827630323 0 0 0
1591 1 6.05356034363045 24.40975297671495 46.32802181346719 0 -1 0
1592 1 4.152204165708809 1.6454005996056094 46.25919215453774 0 0 0
997 1 11.898072484590028 20.005319007952842 24.06647115099681 0 0 0
1595 1 10.150899759845666 -0.08353469324825052 46.31073062257273 0 0 0
1596 1 8.16180355918893 1.9575505920917058 46.828104782758004 0 0 0
993 1 7.9389362886510035 20.917456485119136 23.695904766890965 0 0 0
1600 1 12.230008209709101 1.8702405800497623 46.404735541045824 0 0 0
1798 1 22.293919602985802 10.272765448264046 48.376055273718904 0 0 0
1604 1 16.58394006191611 1.8247950591174966 46.46113080355967 0 0 0
922 1 10.616810423905108 9.977945999901625 23.758757970160172 0 0 0
1608 1 20.892996420255436 1.933660558121745 45.97873627997614 0 0 0
1684 1 24.396132713683336 18.58737928550399 45.97087914220735 -1 0 0
1676 1 16.125772204586212 14.538627371428223 46.66692938448878 0 0 0
1611 1 1.9969248287813848 3.8225253276236186 46.80981485945956 0 0 0
1612 1 0.002461964712106801 5.555503768968391 46.57941486448117 0 0 0
1834 1 10.212413148143076 18.29780086995364 48.43118154868258 0 0 0
1704 1 20.024068649631793 18.298069944414323 46.41566687281732 0 0 0
1615 1 6.132594092774283 4.003863644426336 46.1261325717032 0 0 0
1616 1 4.160055546001717 6.305847118928966 46.21106599756437 0 0 0
1695 1 14.503452849346255 16.41092032073364 46.36491876812272 0 0 0
1620 1 8.135170761546119 5.551758060163479 46.41810314169745 0 0 0
1619 1 10.285532824487644 3.8665139939236903 46.388711362196425 0 0 0
1672 1 12.161734676469118 14.657797745365167 46.3879382068924 0 0 0
1624 1 12.35455376100449 6.2386432648773695 46.1708329210703 0 0 0
1623 1 14.528243886151014 4.053608773860383 46.35257096907859 0 0 0
909 1 20.420813253709248 4.114804801402157 23.642387771299212 0 0 0
1668 1 8.088845361634377 14.077950836741737 46.81544697365144 0 0 0
1628 1 16.57703077452674 6.056393790213675 46.32185861680162 0 0 0
1632 1 20.973901194723027 6.18410491004402 46.537210328004974 0 0 0
1627 1 18.59817573955103 3.8707065793287985 46.22098846032677 0 0 0
870 1 5.589031218472311 1.6112289302697393 23.681672195276555 0 0 0
1631 1 22.575828464886655 3.925116156414421 46.28881852149182 0 0 0
893 1 3.8142154964513626 3.812052509999991 23.71932469741496 0 0 0
1635 1 1.82723639166751 7.827616110921886 46.64328863643512 0 0 0
1636 1 -0.25685703306860974 10.265795129955047 45.91379574582837 0 0 0
941 1 4.1592013179980265 12.296489526502219 23.767806097364442 0 0 0
1639 1 6.068065260344039 7.881308574136195 46.10780739023023 0 0 0
1640 1 3.9606380160987404 9.84172141226174 46.26050753419944 0 0 0
1789 1 12.428920309511117 8.194469043488814 48.19921143214166 0 0 0
1707 1 1.6664280344536102 20.43091118934039 46.633187141479326 0 0 0
1644 1 7.918356532787225 9.676364310439894 46.05734299584909 0 0 0
1643 1 10.156344075107887 7.884302598535607 46.56028928484236 0 0 0
1648 1 12.383714001691052 9.879372532661339 46.11863044249576 0 0 0
1647 1 14.272083600430623 8.035810938279237 45.87898007587317 0 0 0
1652 1 16.038314623488112 9.915326640523462 46.356333454744444 0 0 0
1715 1 10.409436738801363 20.295431984018062 46.539637098826695 0 0 0
1797 1 20.362515502219665 8.178759604617845 48.26299557619488 0 0 0
1651 1 18.40773974140071 8.32381834424745 46.23984277946655 0 0 0
1656 1 20.366429613786785 10.204133371594011 46.06635032849979 0 0 0
1696 1 12.362426122309875 18.60694717122886 46.447283341818476 0 0 0
1765 1 12.4929765680476 4.0787523187822226 48.36296500695416 0 0 0
1692 1 8.246868479032933 18.531805277103487 46.69926625301747 0 0 0
1655 1 22.717330366883495 8.258130485336034 46.20333036049374 0 0 0
1659 1 1.8289596929733247 12.217883857106616 46.49988290819503 0 0 0
1703 1 22.5697862463158 16.325593266530788 46.2641945595563 0 0 0
1663 1 6.1898271134048315 12.142069077263363 46.29482190046867 0 0 0
1667 1 9.872450352793177 12.06976739858246 46.11854261460525 0 0 0
1699 1 18.09062886705466 16.18060755600614 46.26838624356064 0 0 0
1723 1 18.434264421845434 20.43919730481717 46.758420151800216 0 0 0
1688 1 3.850963320220096 18.590192696318944 46.35815910753795 0 0 0
1671 1 14.214556153335499 12.408449210607419 46.10074058251634 0 0 0
1680 1 20.411439261511 14.258496668470153 46.48826077683793 0 0 0
1675 1 18.042170611265284 12.384907403075779 46.22127671109373 0 0 0
1679 1 22.488193943083438 12.511745300720763 46.35669220115825 0 0 0
1660 1 -0.10614589905400815 13.934378671441214 46.35611773006461 0 0 0
1683 1 1.799533311982028 16.60446869043925 46.499130399355515 0 0 0
1700 1 16.604370852043637 18.439755058412413 46.410648036702646 0 0 0
1711 1 6.066528981829846 20.271993170222434 46.67022005906077 0 0 0
1664 1 3.7734994391886767 14.221241849971527 46.11094275296624 0 0 0
1687 1 6.227181928152255 16.7906739358541 46.55381346640573 0 0 0
1817 1 15.96998921809224 12.243271972942992 48.47857769539414 0 0 0
1719 1 14.181394953844556 20.326699140821326 46.320837343656635 0 0 0
1691 1 10.083546318842725 16.091967227707613 46.44073532833192 0 0 0
1869 1 20.761153551869143 20.500889891075094 48.52821228664998 0 0 0
1802 1 2.356807783967293 14.320533266898142 48.20870624097574 0 0 0
1821 1 20.184541737643364 11.926273167730313 48.204121728716224 0 0 0
1766 1 14.277111679081184 6.15342924170712 48.32854856028412 0 0 0
1786 1 9.970998566212481 9.911200972198017 48.22849648456658 0 0 0
1822 1 22.27596858226927 14.815718283281184 48.4290446886628 0 0 0
1734 1 5.794065520383796 1.7614101478869508 48.26208555578656 0 0 0
1826 1 1.4516262875669068 18.400353467988484 48.38989776959222 0 0 0
1805 1 3.991092895933085 12.075634384605713 48.15967504367039 0 0 0
1845 1 20.23761302617021 16.43920950215652 48.49338007933051 0 0 0
1829 1 4.255643571106072 16.184800778974907 47.89867668519386 0 0 0
1746 1 18.311557762930292 2.045513538397077 48.32675818540592 0 0 0
1758 1 6.141522811967826 6.043263445615126 48.39230208997108 0 0 0
1801 1 24.038293983507955 12.41820462090933 48.32678109176089 -1 0 0
1773 1 20.725333152299356 3.763284960822231 48.47658504029637 0 0 0
1737 1 8.001520024926332 24.371277792876317 48.421567576029 0 -1 0
1849 1 24.449922280177297 20.604311876801685 48.14215143074167 -1 0 0
1813 1 12.031663200663466 11.799552268867425 48.183361419429644 0 0 0
1782 1 6.306254475611075 10.432581814147117 48.255600620971606 0 0 0
1841 1 16.72237815117108 16.25433871068567 48.36237010310477 0 0 0
1742 1 14.49264521578426 2.276371335023654 48.437162018852575 0 0 0
1741 1 12.319527825075227 -0.08178710659562516 48.41395593768949 0 0 0
1778 1 2.0395438013914715 9.951033928864385 48.35850694489001 0 0 0
1750 1 22.360928741981112 1.4855838117182463 48.435654864393214 0 0 0
1729 1 24.513637989509256 24.32647889452529 48.465715334557004 -1 -1 0
1774 1 22.526454005168354 6.3220001468054505 48.47069329898614 0 0 0
1853 1 3.804833433238196 20.160763656578485 48.47597273230061 0 0 0
1793 1 16.32122955813837 7.976706845245351 48.22145335324852 0 0 0
1785 1 8.128646535911397 7.8308993570830765 48.31700546982438 0 0 0
901 1 12.253254767303451 3.74499532152194 23.69096287140892 0 0 0
885 1 20.546651767725812 0.16119538765092584 23.71642904234678 0 0 0
925 1 12.215643940446135 7.566002078798062 23.743289099319338 0 0 0
902 1 14.52730354844319 6.107956833614727 23.666060597485277 0 0 0
886 1 22.54028440432873 2.095426285363198 23.872359230541726 0 0 0
965 1 4.3421601646887495 16.286794568455054 23.741848982014563 0 0 0
957 1 20.54164356441906 12.010004828410878 23.85242501438354 0 0 0
962 1 2.2021331442589784 18.350898626563424 23.77132234665742 0 0 0
1770 1 18.5756755992483 6.07546422410857 48.52774761955394 0 0 0
1732 1 24.275200879572687 1.7318703780779958 50.389629421993284 -1 0 0
1745 1 16.056569519712127 0.0387326680310891 48.78911758599463 0 0 0
1736 1 3.915519483532897 2.2085114598484954 50.89581789831148 0 0 0
1735 1 6.426419450879712 24.380001526405156 50.84043969377717 0 -1 0
1769 1 16.292974354482787 4.43278681069348 48.75484585918855 0 0 0
1740 1 8.010342644094159 1.9344860250001963 50.444637750160645 0 0 0
1739 1 9.819523398244309 24.476171248476515 50.59413148331122 0 -1 0
1744 1 12.237827212263648 1.9287691728071379 50.476941282182324 0 0 0
1748 1 16.284208350189587 2.005801179254941 50.73333974070812 0 0 0
1752 1 20.36185425729719 1.855349309173564 50.61901433080813 0 0 0
1747 1 18.401512779408733 -0.10410571716306657 50.614188064008935 0 0 0
1751 1 22.18098186414403 24.201247673033087 50.64810641833998 0 -1 0
1733 1 3.80663676978398 -0.21140132150851323 48.63453741713056 0 0 0
1755 1 1.8233778443359943 3.9210395452698146 50.80769677204135 0 0 0
1790 1 14.202632248330517 10.204536519476148 48.552581197066075 0 0 0
1759 1 5.950880484175781 3.8072442524887773 50.56295292866518 0 0 0
1760 1 3.3876536988057415 6.086507413613739 51.07643742506874 0 0 0
1858 1 10.052178787049963 22.786671768852177 48.787032999711954 0 0 0
1763 1 9.874074171592197 4.108764732606076 50.43349180446777 0 0 0
1764 1 7.916819382147009 6.086141448184783 50.406829672691615 0 0 0
1768 1 12.319452350996663 6.078466700274782 50.56327310442543 0 0 0
1767 1 14.27763748186073 3.839714357643416 50.88521118366697 0 0 0
1772 1 16.392251262584466 6.103566470408004 50.928857521955145 0 0 0
1794 1 18.244191910768727 10.066560279060969 48.62261075830068 0 0 0
1771 1 18.650678016150678 3.777514995712152 50.29399673280189 0 0 0
1776 1 20.159218959250616 5.8718030141777255 51.12012721034049 0 0 0
2572 1 24.510642629304 21.994287975960148 71.70068170289362 -1 0 0
1756 1 24.393658328192963 5.854671264777838 50.56203114516942 -1 0 0
1775 1 22.3917531607459 3.936033897753334 51.122787158383765 0 0 0
1918 1 22.272177072728645 6.215761805353395 52.64712079424479 0 0 0
1779 1 1.699235614852848 8.414178582642878 50.71222748808707 0 0 0
1865 1 16.167027654115074 20.10154806848317 48.654135536538256 0 0 0
1783 1 5.6300562661279985 7.997675478694147 50.735517195831825 0 0 0
1784 1 3.891804205312609 9.930697957682833 50.33120530677505 0 0 0
1787 1 10.360802616835954 7.970199958004878 50.38322147151583 0 0 0
1788 1 7.965787903853331 9.835830500902206 50.41102221478833 0 0 0
2592 1 20.1048031186372 22.2968466699347 71.08952335320694 0 0 0
2588 1 16.410697287136557 22.403246032541666 71.0472503695415 0 0 0
2463 1 14.225435952986274 24.33254560182568 71.55761972418371 0 -1 0
1792 1 12.048984031274202 10.02521815353375 50.49726281948124 0 0 0
1791 1 14.365239010104386 8.0360672722754 50.44294495405883 0 0 0
1796 1 16.315022834103196 10.064364813584374 50.49262833025464 0 0 0
1795 1 18.3152915781287 7.981131614160455 50.73969025273101 0 0 0
1800 1 20.24478337319473 10.211117268860566 50.23852399904257 0 0 0
1780 1 -0.27558380317803083 10.433919194576148 50.6519126920006 0 0 0
1799 1 22.08618833864081 8.182623909710145 50.573197289926945 0 0 0
1803 1 1.6489318503333839 12.135305365261036 49.9144305443333 0 0 0
1807 1 5.619212284258088 12.19713173616155 50.51692104547837 0 0 0
1730 1 2.119371098459666 1.9314142395962417 48.653230138544885 0 0 0
1811 1 10.441965663856289 11.679285117899461 50.30625489575479 0 0 0
1842 1 18.260150454444407 18.483547928541864 48.783263987204975 0 0 0
1815 1 13.75350570884393 11.878526853719757 50.86264573807477 0 0 0
2584 1 11.986379683231096 22.57504376317287 71.45904682449707 0 0 0
1819 1 18.69442636172812 12.314943338767511 50.90220334216079 0 0 0
1754 1 1.6017943036740137 5.939459336681595 48.6928458806745 0 0 0
1823 1 22.05319497355351 12.512102256220217 50.48534127001412 0 0 0
1827 1 1.7777144608678999 16.427945417486214 50.11382051765401 0 0 0
1804 1 24.510349695705187 14.230765067671854 50.222702320035346 -1 0 0
1808 1 3.696339729136465 14.228792474187589 50.585864095753635 0 0 0
1831 1 5.930908421033779 16.40194008103753 50.54208924318526 0 0 0
1812 1 8.379805097578624 13.646089007368634 50.68891785331404 0 0 0
1835 1 10.040152578040455 16.314491114091727 50.72748536475983 0 0 0
1830 1 6.293773032792788 18.152878291048555 48.67556019192542 0 0 0
1816 1 12.229922694701912 13.722183884745538 50.4105683605896 0 0 0
1781 1 4.006846102740769 7.761660790998764 48.62442742343341 0 0 0
1820 1 16.16750802172691 14.091871489305941 50.689981689794486 0 0 0
1839 1 14.174429597516925 16.469774434919298 50.55960371870054 0 0 0
1777 1 -0.12876909084700036 8.041791346221487 48.72990142241419 0 0 0
2580 1 7.7672857033583345 22.042181277690187 71.04409965625365 0 0 0
1824 1 20.149121338053007 14.407760902293942 50.40718555023806 0 0 0
1843 1 17.970216905675564 16.353104074501765 50.74432506151602 0 0 0
1847 1 22.36476712973628 16.591366122497607 50.447486278804824 0 0 0
2576 1 3.4890912743622113 22.081287449381886 71.44952913387421 0 0 0
1851 1 1.5034617073271674 20.276834527048365 50.10007041899661 0 0 0
1828 1 -0.18716081339609317 18.37136325488293 50.554575334660505 0 0 0
1749 1 20.338213714580334 0.11502269877046506 48.61430066604028 0 0 0
1832 1 4.118345768441597 18.116474071869902 50.79213741152913 0 0 0
1855 1 5.827210942655542 20.474836325937066 50.8315711126388 0 0 0
1753 1 24.193278304604483 3.7104099477309123 48.7989084225165 -1 0 0
1836 1 8.066587350164804 18.07090010900743 50.56862031510424 0 0 0
2451 1 1.691043678640936 24.22306498945085 71.55585499611111 0 -1 0
1859 1 10.040463809398124 20.460302565022932 50.283136318096695 0 0 0
1840 1 12.137250213215411 18.275218269905483 50.62892680521251 0 0 0
1844 1 15.950689280812734 18.306196067277973 50.674997661370206 0 0 0
1863 1 13.880238372323365 20.230186340537127 50.564943681860434 0 0 0
2729 1 16.321217316702892 20.12106501805846 73.30446845095754 0 0 0
1848 1 20.38344935172735 18.355328158685612 50.24903218391878 0 0 0
1867 1 17.852486088473697 20.16033625564062 50.74969370019114 0 0 0
1871 1 22.653549283349207 20.341378699906027 50.589046905557986 0 0 0
1809 1 8.260239622203358 12.088598445954263 48.65377162378346 0 0 0
1731 1 1.8573188842168196 -0.09967042870638915 50.54102665461003 0 0 0
1866 1 18.416075063883703 22.695502595448797 48.62179531832856 0 0 0
2591 1 22.047774719416417 20.187410183796107 70.73213928905433 0 0 0
1856 1 3.666428912233184 22.42686308749709 50.55340310283548 0 0 0
1860 1 7.754532438421785 22.399216597722496 50.69157775499497 0 0 0
1864 1 12.181219254172268 22.39649930569137 50.421219482161334 0 0 0
1743 1 14.45166503744724 23.988231397320074 50.9570479922388 0 -1 0
2706 1 18.23017734936196 18.13512963674966 73.31258012249701 0 0 0
1868 1 16.448697872901 22.220267503102285 50.665546182411944 0 0 0
1872 1 20.007648801494582 22.641836786118535 50.60709192834856 0 0 0
1806 1 5.85689982166589 13.956262653910473 48.56897538140027 0 0 0
1870 1 22.607097610574428 22.308680286200406 48.60848738553102 0 0 0
1852 1 24.433591691248168 22.349291121469236 50.7158345651098 -1 0 0
1874 1 1.1951737051515678 1.77058059566254 52.46184304340024 0 0 0
1876 1 24.284247074619223 1.6487517911309955 55.009369296748446 -1 0 0
1878 1 6.238305341636553 1.7188375591332425 52.80426920580693 0 0 0
1880 1 3.7565828026403922 1.6684541350118498 54.67256077143192 0 0 0
1877 1 3.3804422443616815 -0.1911870378259076 52.564195433794914 0 0 0
1882 1 9.83624061236853 1.761615000994648 52.474028705654206 0 0 0
1884 1 8.409504421877653 1.6842518183008262 54.59587667929649 0 0 0
1881 1 7.9352442457734025 24.269935543618313 52.87113418584017 0 -1 0
1888 1 11.616150718530946 1.6518142547491392 54.598799392190024 0 0 0
1886 1 14.271284629268294 1.380227312538884 52.58525336393697 0 0 0
1885 1 12.210374209134743 -0.1562578025112069 52.71677860232016 0 0 0
1889 1 16.12832310697626 24.177833787615647 52.75247776669914 0 -1 0
1892 1 15.89289022641678 1.5897374604587167 54.633069982270996 0 0 0
1890 1 18.33617961532582 1.5453124789870276 52.693894810367404 0 0 0
1896 1 20.049756181273693 1.832365754299739 54.77522891232209 0 0 0
1891 1 17.837076831846588 24.166678707306446 54.6979175923773 0 -1 0
1893 1 20.23056846955285 24.39463602934039 52.83739129950935 0 -1 0
1873 1 24.408615418279147 24.15734268426415 52.66609543909994 -1 -1 0
1894 1 22.080108934983734 1.5155445634756353 52.65489356202839 0 0 0
1898 1 1.231179300572882 5.813901611674224 53.11271246705726 0 0 0
1899 1 1.659751094530291 3.3292878741690934 54.77635241430404 0 0 0
1897 1 24.23029061943771 3.945836740230135 52.89053926973045 -1 0 0
1900 1 24.373835899587213 5.6251834011829445 55.05734798330038 -1 0 0
1901 1 3.4766389575799925 4.016637606746362 53.007362762676706 0 0 0
1902 1 5.960733149083083 5.5563159776746405 52.66671521289557 0 0 0
1903 1 5.615366600793625 3.779229094838713 54.72268627321027 0 0 0
1904 1 3.892818512827266 5.913330764520615 54.785204980638625 0 0 0
1905 1 7.992721689378799 3.6699983154743188 52.31400470399823 0 0 0
1906 1 10.196378158396683 5.908374891801592 52.6323374409253 0 0 0
1907 1 10.37005367233699 3.923718752176696 54.90858503802734 0 0 0
1908 1 8.079997973542405 5.566623031034652 54.41718617088665 0 0 0
1909 1 11.731569853746253 3.9532521809820595 52.50139179811967 0 0 0
1912 1 12.401143689532361 5.836082614656953 54.725265239148996 0 0 0
1911 1 14.156265656983829 3.518951047475891 54.46697901502107 0 0 0
1910 1 14.192184017211213 5.951509671776429 52.75211519407814 0 0 0
1913 1 16.322429089386993 4.012468709155977 52.74484405862409 0 0 0
1916 1 16.40669859394501 5.9550388515572115 54.734434389179015 0 0 0
1914 1 18.18088670525828 5.666441190354331 52.96740171808949 0 0 0
1915 1 18.27526547062186 3.831420283506593 54.979481375332 0 0 0
1917 1 20.169925271996917 3.704328533271705 52.750511676862324 0 0 0
1920 1 20.206314252137332 6.018698955169122 54.834591934964905 0 0 0
1919 1 22.13867254262093 3.839574834583032 54.87655619627435 0 0 0
1922 1 1.6900020232370347 10.125070675894687 52.83686527125049 0 0 0
1923 1 1.4479057008820007 8.117075042735163 54.75083688490228 0 0 0
1924 1 24.257667201617245 10.166221061953214 54.89915269455461 -1 0 0
1925 1 3.6869841118263533 8.023345018291415 52.94471329129268 0 0 0
1927 1 5.9446648304996055 8.001078138733702 54.72226978005692 0 0 0
1926 1 6.072425959317816 9.949665081704763 52.50890382608295 0 0 0
1928 1 3.7898696357003354 9.963805422291154 54.70535760484119 0 0 0
1929 1 8.060130222831944 8.028779285689692 52.80587759881379 0 0 0
1930 1 10.155977543006 10.011441156521 52.60602562246753 0 0 0
1931 1 10.266205989921001 7.577661680555498 54.98310052915758 0 0 0
1932 1 7.879892791803178 9.997844119221975 54.719120661338714 0 0 0
1933 1 11.82150576310673 7.984677221344681 52.816636258812316 0 0 0
1936 1 12.342674985483878 10.299727667751718 54.71510563603288 0 0 0
1934 1 14.154331182937565 9.657989021866072 52.459714552632285 0 0 0
1935 1 14.174193097742501 7.850536861515547 54.672940533009246 0 0 0
1937 1 16.336769946844782 8.152127474470033 52.72390795883617 0 0 0
1940 1 16.249799823530175 9.880618825040493 54.504096823350366 0 0 0
1938 1 18.112890329411137 10.173738117748648 52.59039634956025 0 0 0
1939 1 18.243990867582646 8.004867778749848 54.87896863676365 0 0 0
1941 1 20.106446084531797 8.087213764296527 52.81161326708551 0 0 0
1944 1 20.265610924795176 10.231474424686974 54.886634985987925 0 0 0
1921 1 -0.2222140832028932 8.179191205282544 52.47978609169103 0 0 0
1943 1 22.369618924726964 8.243700364844077 54.638753154217234 0 0 0
1942 1 22.2825872099991 10.194149936322054 52.42307280126575 0 0 0
1947 1 1.46944271770087 12.2026870332438 54.711936691749784 0 0 0
1945 1 -0.08448167142043966 12.090700704096449 52.5512302337734 0 0 0
1949 1 3.5577792215255517 12.022826530846151 52.706882336414445 0 0 0
1951 1 5.756069341876881 12.066602428154122 54.913476938767666 0 0 0
1953 1 8.142773056082142 12.0196758099259 52.76961398963416 0 0 0
1955 1 10.141523919804486 12.372407362157997 54.68217264587563 0 0 0
1954 1 10.10335865028311 14.569291105744526 52.86125131229583 0 0 0
1957 1 12.200356841952699 12.259206152436533 53.042682493796775 0 0 0
1959 1 13.93658778998999 12.327441011715246 54.78387174604203 0 0 0
1961 1 16.08577467628742 12.391198279117335 52.912835503903636 0 0 0
1963 1 18.666395939990835 12.18148001974708 55.01761035354207 0 0 0
1965 1 20.546799288334014 12.460699415060086 52.81461175480935 0 0 0
1968 1 20.729569903830395 14.561134269115337 54.6580592249863 0 0 0
1967 1 22.48062198161424 12.201130288552093 54.83141174327185 0 0 0
1966 1 22.4989209221918 14.428879224671038 52.330975386806514 0 0 0
1948 1 -0.1750667716581007 14.060842400507447 54.65700911912176 0 0 0
1946 1 1.8276975689745778 14.237462646607204 52.39788823393235 0 0 0
1971 1 1.5382052506936292 16.790930038601044 54.52566622763295 0 0 0
1969 1 24.344284557993788 16.316999649976378 52.370685103958294 -1 0 0
1952 1 3.608299465472869 14.151392742627083 54.747207478021245 0 0 0
1950 1 5.67645731449744 13.96738836341954 52.575823460896174 0 0 0
1973 1 3.7363602053722635 16.144025704934922 52.41984084255045 0 0 0
1975 1 5.641390084884687 16.02509489331797 54.29282928838698 0 0 0
1956 1 7.888856881702788 14.230444298699524 54.60612163512329 0 0 0
1977 1 7.893854015111749 15.984910502767715 52.34241267154874 0 0 0
1979 1 9.978863157748792 16.358961472708625 54.980848305358805 0 0 0
1960 1 11.974911954070857 14.394899912261401 54.86352698088467 0 0 0
1981 1 11.907341702914124 16.377174449491083 52.70977852907609 0 0 0
1958 1 13.94751158931663 14.41502521392169 52.872088405477996 0 0 0
1983 1 13.708038873764044 16.3280559220871 54.93314107719102 0 0 0
1964 1 16.219729174291537 14.272798134157586 54.82523397984481 0 0 0
1985 1 15.940157091230889 16.406104114590175 53.00777802736887 0 0 0
1962 1 18.1603956418655 14.103397484936977 53.087171347970404 0 0 0
1987 1 18.480424465095886 16.639630085176208 54.83391183235452 0 0 0
1989 1 20.22597217956966 16.210304374413408 52.461363250493086 0 0 0
1991 1 22.29464586294212 16.584017505083597 54.74807563902252 0 0 0
1970 1 2.0887909516705108 18.391345167147115 52.507595290808986 0 0 0
1995 1 1.955391143471962 20.21771900691509 54.74540040842277 0 0 0
1972 1 24.219230956259373 18.34375557367705 54.725542758713416 -1 0 0
1974 1 6.519476729480827 18.043462887383118 52.626603408775544 0 0 0
1976 1 3.8580292177371973 18.314402668287485 54.35719928300765 0 0 0
1997 1 3.557307349421798 20.450211356319812 52.50593709302856 0 0 0
1999 1 5.890321211405741 20.256776569256548 54.70446031249127 0 0 0
1978 1 10.037423271337927 18.375183320277 52.53345522937341 0 0 0
1980 1 8.014706788478911 18.094110154356965 54.652285394373216 0 0 0
2001 1 7.7690601315116385 20.35255084806838 52.56002022395111 0 0 0
2003 1 9.994395870714333 20.309912613313784 54.897652884318234 0 0 0
1984 1 11.956482884758552 18.354052322812603 54.94277286344915 0 0 0
2005 1 11.756919484076068 20.556773785170904 52.253733845621696 0 0 0
1982 1 13.951191477578938 18.95014409631134 52.83857263005591 0 0 0
1988 1 16.042285721590382 18.121811539864975 55.207715126808196 0 0 0
2007 1 14.109249049930526 20.21232420970887 55.22730211315287 0 0 0
2009 1 16.091840340434658 20.350427895108588 52.71912098061735 0 0 0
1986 1 18.125085767565402 18.199614470446196 52.41778051046965 0 0 0
1992 1 19.996204156737555 18.575640338790322 54.67214572541221 0 0 0
2011 1 18.10656136722306 20.358092484437503 54.7011179149995 0 0 0
2013 1 20.0403467205386 20.237161507158458 52.44931750905494 0 0 0
1993 1 0.12062726537360774 20.280577308092067 52.620669366935886 0 0 0
1990 1 22.415108960538568 18.43208580469378 52.70191523286134 0 0 0
2015 1 22.3403153197184 20.359881347398105 54.861246698883946 0 0 0
1875 1 1.527596320786472 24.282588448413364 54.44011046786213 0 -1 0
1994 1 1.8211620750104633 22.223678964202833 52.5943740211281 0 0 0
1996 1 24.467502513990695 22.06920450271031 54.73930347630246 -1 0 0
1879 1 5.369170081594118 -0.18509692197887162 54.43191368523273 0 0 0
1998 1 5.780896509335067 22.60066554742889 52.566110240879595 0 0 0
2000 1 3.899344885895556 22.353573872898476 54.43377656229036 0 0 0
1883 1 9.979653060976736 24.072702673578505 54.87045102379833 0 -1 0
2004 1 7.918175211270773 21.97658409979257 54.58280145223445 0 0 0
2002 1 10.196424072138404 22.686911742105384 52.74969083976109 0 0 0
2008 1 11.834789718815976 22.32704337167482 54.94032228242189 0 0 0
1887 1 13.84536944426463 24.27337881954235 54.69948683181794 0 -1 0
2006 1 13.743471429467833 22.257049004099834 52.9791123028256 0 0 0
2012 1 16.137901705172112 22.051150811252153 54.79068373699287 0 0 0
2010 1 18.41879102302375 22.08219599169967 52.694095549455795 0 0 0
2016 1 20.35294970334339 22.09399746003922 54.61601771883923 0 0 0
1895 1 22.01827996837165 -0.1095949800704497 54.81744569694066 0 0 0
2014 1 22.341945552767037 22.290802018554405 52.69135632779547 0 0 0
2018 1 1.713046811876893 1.5724032040164253 56.86947931685454 0 0 0
2019 1 1.856203554989412 24.280729051883004 58.64394666182805 0 -1 0
2021 1 3.907714933559369 24.44471423266021 56.65250427084364 0 -1 0
2022 1 6.213691528496255 1.8645227359515903 56.74033463867302 0 0 0
2024 1 3.7015041936456012 1.8901049564981953 58.87823985136538 0 0 0
2023 1 5.611724978691066 -0.14240852958570924 58.974673220809436 0 0 0
2028 1 7.9324301697146495 1.9384389148906003 59.085176484056824 0 0 0
2026 1 10.073456315331727 1.7913880317677315 56.724896303660934 0 0 0
2032 1 12.011399398879728 2.0129399690125727 59.04350049856973 0 0 0
2029 1 11.723582317649935 -0.21598824706710612 57.15215593306203 0 0 0
2030 1 13.87055909962878 1.7327542709131636 56.764091293448445 0 0 0
2036 1 16.226020563765324 1.7611927765638464 58.66775814868988 0 0 0
2034 1 17.950380301920184 1.9335578680464325 56.77010864581458 0 0 0
2040 1 20.44278877026793 1.4907830944253857 58.74190493846555 0 0 0
2035 1 18.299396082280765 -0.21987176646772966 58.787233648127255 0 0 0
2037 1 20.06924719144476 24.26824726471336 56.59866219204367 0 -1 0
2020 1 24.363293057179455 1.5663497022938546 59.14451428013611 -1 0 0
2038 1 22.723706374269412 1.7723539130508028 56.933046367061905 0 0 0
2039 1 22.560537929104697 24.379296573597745 58.86159180872882 0 -1 0
2042 1 1.9912777466452267 5.948045425355932 56.665469691887004 0 0 0
2041 1 -0.12739845221596874 3.6032654937219823 56.95080821241138 0 0 0
2044 1 -0.23179509261107317 5.700364382339839 58.409893669744065 0 0 0
2043 1 1.6604043272799234 3.57075243903118 58.58393286783067 0 0 0
2045 1 3.7976692327158013 3.764946160439616 56.81889550670086 0 0 0
2046 1 5.869157851451623 6.081966131440364 56.717580454843414 0 0 0
2047 1 6.046947895105265 3.99132486109729 58.72349144935299 0 0 0
2048 1 4.127661763664026 5.99857430507996 58.91186115558065 0 0 0
2049 1 7.810553294651601 3.942915180050808 56.908926535762596 0 0 0
2050 1 9.923560409664521 5.617900806241866 56.864812644991076 0 0 0
2051 1 9.690193469681049 3.85656812383041 58.79150871006457 0 0 0
2052 1 7.593071767312661 5.699438905826612 59.03132964317677 0 0 0
2053 1 11.818224175136674 3.944001324575714 57.247013719506114 0 0 0
2056 1 11.858330202517191 6.002672270026313 58.99220198939511 0 0 0
2055 1 14.638315633748366 3.717449207564124 58.793139506890476 0 0 0
2054 1 13.748517365026393 6.0023560252754615 57.06662069838979 0 0 0
2057 1 15.68725090873026 3.8224286093536195 56.58135890567211 0 0 0
2060 1 16.297065039910528 5.974198143241069 59.192239593238995 0 0 0
2058 1 18.19119259761682 5.931678599540979 56.69750325145233 0 0 0
2059 1 18.226168156110788 3.9402787920853184 58.95930831609307 0 0 0
2061 1 20.69066732261691 3.7402066280357076 56.91694563898977 0 0 0
2062 1 22.174487775205726 6.037080772281836 56.97146066388756 0 0 0
2063 1 22.5194098652994 3.963766917800622 59.004477081941225 0 0 0
2066 1 1.4173245803094008 9.913887175906286 56.73590598661199 0 0 0
2068 1 -0.15570180651440557 10.210173699933964 58.85961273648302 0 0 0
2069 1 3.7598597154331044 7.902647828880264 57.032330431809626 0 0 0
2070 1 5.5966016867349255 9.99590009133799 56.76222617157122 0 0 0
2071 1 6.052938258808396 7.887707392424586 59.05296651164982 0 0 0
2072 1 4.0278617772729906 9.642191538511483 59.090767191602865 0 0 0
2073 1 7.84175797946882 7.879851475071584 56.91461307392624 0 0 0
2074 1 9.911179166146173 9.918736157224496 56.91389039566625 0 0 0
2076 1 7.733204843750071 10.065453021454154 58.61776662386865 0 0 0
2075 1 9.735508302518145 7.497794127233319 58.85853848893303 0 0 0
2077 1 11.976967913319466 8.163048124551514 56.697027099522145 0 0 0
2080 1 12.12157482358873 10.041476751365932 58.92920123574434 0 0 0
2079 1 14.109606324573038 8.039177916817263 58.80456882409237 0 0 0
2081 1 15.761989383014638 7.694380703615091 56.7166304520701 0 0 0
2084 1 16.106419824965066 10.063217956513565 59.11753610798467 0 0 0
2082 1 17.959534843021245 10.097384728270345 57.112366330968605 0 0 0
2085 1 20.39925433163092 7.929810246020049 56.90612940169256 0 0 0
2083 1 18.13639351187654 7.995471974470474 58.74923165325386 0 0 0
2088 1 20.17904870113758 10.069510068697594 59.15605966579101 0 0 0
2065 1 24.44750417826983 7.822878124280075 56.87857835068937 -1 0 0
2086 1 22.68552362119933 9.714948879343698 56.86721662425212 0 0 0
2087 1 22.546631445795633 7.867687789325176 58.86627375469383 0 0 0
2089 1 -0.2694904542198455 12.167213835163126 56.801364379967055 0 0 0
2091 1 2.1057672799117735 11.74360898748679 58.78188839939827 0 0 0
2093 1 3.664959410253029 12.03981308673893 56.76613531504427 0 0 0
2095 1 5.962863359394997 12.092987577506651 58.99643651891841 0 0 0
2094 1 5.93245680874328 14.110829962074355 56.932412937710765 0 0 0
2097 1 8.06090369822652 11.958573612533613 56.71951205011337 0 0 0
2101 1 11.919845734150861 12.198953873338787 57.06135054414376 0 0 0
2099 1 9.74232511078858 12.39626412896782 58.78644007663197 0 0 0
2078 1 14.399172635939134 9.876835633769213 56.40024853154973 0 0 0
2103 1 14.060284254703678 12.352939194925696 59.040258393389045 0 0 0
2105 1 16.230990346407218 12.200331075370109 56.750143646871734 0 0 0
2109 1 20.809647549670032 11.84287886651528 56.851952399446446 0 0 0
2111 1 22.412910915576482 12.21573543740148 58.806310713392875 0 0 0
2110 1 22.630149710278445 14.23605569388461 56.743486530631706 0 0 0
2090 1 1.7673592134519902 14.206120519534895 57.09191960216748 0 0 0
2115 1 1.8619042319229528 16.400479458350006 58.681382221481954 0 0 0
2113 1 24.439587440680867 16.09358982034919 56.7180343798945 -1 0 0
2092 1 -0.267588554049226 14.125041417768852 59.04615330340408 0 0 0
2096 1 3.782681290055807 14.200135715344233 58.7162899752614 0 0 0
2117 1 3.418698807899905 16.153210467694016 56.466943996351354 0 0 0
2119 1 5.976670261052335 16.240558091418766 58.663262986528224 0 0 0
2100 1 7.94565115550399 14.189877055783919 58.92015400812666 0 0 0
2121 1 7.9159014458379 16.473076933035983 56.820138049368104 0 0 0
2123 1 9.657061855376556 16.474221843431557 58.96151524060509 0 0 0
2104 1 11.839497697499677 14.412742404725412 58.77004522300169 0 0 0
2098 1 9.750432917332953 14.490155683249323 56.75820058386574 0 0 0
2125 1 11.822649634765849 16.227684573780405 56.909835752422495 0 0 0
2102 1 14.169473461242044 14.130705108720433 56.72359968669103 0 0 0
2129 1 16.56458261465992 16.324629858153408 56.76103394369391 0 0 0
2127 1 14.280462848692762 16.309494590724775 58.79030776322681 0 0 0
2106 1 17.99582185513959 14.249146782344384 56.687516384232055 0 0 0
2112 1 20.091805925694487 14.211494489094065 58.68244248084524 0 0 0
2133 1 20.405861320012235 16.22448250233931 56.64683887967752 0 0 0
2131 1 18.46657429183734 16.324121381501637 58.84386318604494 0 0 0
2135 1 22.483824495764452 16.04547635950135 58.69078990314049 0 0 0
2114 1 1.5869206599084897 18.272410359825866 56.78025576968855 0 0 0
2139 1 1.7060881694282173 20.215432198357323 58.8052145049562 0 0 0
2116 1 24.374531383096468 18.300757119313538 58.86594747421872 -1 0 0
2118 1 5.4226640884369575 18.04906180496599 56.441201336730096 0 0 0
2141 1 3.962288680924928 20.078097785499995 56.61746327549159 0 0 0
2120 1 4.117272314612134 18.385543276373003 58.82485095259406 0 0 0
2122 1 10.122669236439148 18.491779060255727 57.073372786930655 0 0 0
2124 1 7.874677264476205 18.35521309787902 58.99197368215052 0 0 0
2145 1 7.867206696839823 20.091526180571638 56.7355276896365 0 0 0
2147 1 10.131752076477788 20.106963987076963 59.3239799390308 0 0 0
2149 1 11.746071232063926 20.295636979753137 57.09179881248516 0 0 0
2128 1 12.287680087931315 18.306914912903466 59.011793512695434 0 0 0
2126 1 13.87832727176407 18.096086586425134 57.15916317766825 0 0 0
2132 1 16.415181736824877 18.145343570311525 59.003246072597555 0 0 0
2151 1 13.85320313814253 20.36820542005539 59.1865194302543 0 0 0
2153 1 16.090086479849298 20.427547766575934 56.923703021773996 0 0 0
2130 1 17.875621801910135 18.584530123110017 57.0251486168875 0 0 0
2136 1 20.35076398045362 18.15750370393375 58.797718028137815 0 0 0
2157 1 20.499150986774374 19.970961221258154 56.89329250008579 0 0 0
2155 1 18.432343977138807 20.410094000711965 59.08347744604546 0 0 0
2137 1 24.492961418042697 20.17989738018915 56.72478783345723 -1 0 0
2134 1 22.470243236094277 18.19801418283875 57.1323548574653 0 0 0
2159 1 22.210543844917694 20.483615704506242 59.03096886099931 0 0 0
2017 1 24.408574444367297 24.027877048462628 56.83196005230259 -1 -1 0
2138 1 1.6030169764855795 22.288851844884103 56.57757499713016 0 0 0
2142 1 5.811780641624089 22.442686800331707 56.57803541627241 0 0 0
2144 1 3.3758201479090477 22.198605727806957 58.33041528252563 0 0 0
2027 1 9.788309700257306 0.01027067583722735 59.047881551734584 0 0 0
2025 1 7.82379361852959 24.26130426515245 56.88837975138012 0 -1 0
2146 1 9.789320292780829 22.481305754334436 57.01758034584756 0 0 0
2148 1 7.954104019275412 22.132136214582047 58.94312280729038 0 0 0
2152 1 12.178944728499966 22.444738903256088 59.12399331434724 0 0 0
2033 1 15.772006937332632 24.404544062744293 56.52929029675266 0 -1 0
2150 1 13.841205536536773 22.34880147946038 56.99591961566181 0 0 0
2031 1 13.77388246573043 -0.04628513150623925 58.71524885645301 0 0 0
2156 1 16.229877926978837 22.64586760208963 58.50545758445993 0 0 0
2154 1 18.17652980254077 22.342090430458093 57.03514576900403 0 0 0
2160 1 20.30352548039805 22.30191236870368 58.809476336513036 0 0 0
2158 1 22.317023808930763 22.38801926631898 56.57628574179668 0 0 0
2162 1 1.8265750407955403 1.6683234455919307 60.75943570026476 0 0 0
2166 1 5.559175837742405 1.286080438188993 61.1782147443321 0 0 0
2165 1 3.7178807487453445 24.133811403237917 60.72320746294146 0 -1 0
2170 1 10.017543248168913 1.882031084376829 61.11705450281982 0 0 0
2169 1 7.830338220683959 24.1919662099123 61.076099393986325 0 -1 0
2174 1 13.953460773899039 1.8003681950781596 61.07428924226637 0 0 0
2175 1 14.19524291369547 -0.031491560960534126 63.27641113741258 0 0 0
2178 1 18.0928328519307 1.5704259347688154 60.630415869672056 0 0 0
2182 1 22.1059197162878 1.9436616473394626 60.830995210591276 0 0 0
2161 1 24.307777354386275 24.432084473799424 61.19642104818712 -1 -1 0
2186 1 1.7963808487875892 5.723147633187179 61.544088118841195 0 0 0
2185 1 -0.18997404643449778 3.7783314196998163 60.53594708914342 0 0 0
2189 1 3.9307676191880505 3.8139931341769664 60.83716661230103 0 0 0
2190 1 5.6487650700862355 5.870659466036465 61.210558325328805 0 0 0
2193 1 7.700514075908286 3.7989796467728087 60.976987336214805 0 0 0
2194 1 9.668450033908249 5.914971729559786 61.252635856996804 0 0 0
2197 1 11.732226401280244 4.000529759652593 61.22908910541559 0 0 0
2198 1 14.092622647929396 5.7002551952104605 60.681069860962765 0 0 0
2201 1 16.312199453661655 3.871768764462013 61.1025656302976 0 0 0
2199 1 14.05994548326374 3.9706348160187313 62.59286676883305 0 0 0
2064 1 20.326169509490732 5.947733212738695 58.65077333175067 0 0 0
2202 1 18.248182658728645 5.93195576295008 60.85669144760706 0 0 0
2205 1 20.109860875398716 4.066599389389368 60.768647802000075 0 0 0
2206 1 21.99848878595192 6.16706933285224 60.88329799680835 0 0 0
2067 1 1.6497047993942804 7.902398290432689 58.739943753703955 0 0 0
2210 1 1.8591218539543708 9.618261303987929 61.09070526563793 0 0 0
2213 1 3.528805672780686 7.9779937820039795 61.16686268332641 0 0 0
2214 1 6.066890139352563 9.859065151932272 61.00772235496938 0 0 0
2217 1 8.112118782554779 8.177347141713367 61.104287369981506 0 0 0
2221 1 11.796874968469918 7.976611740110068 61.06857980872425 0 0 0
2222 1 13.898638939653413 9.960988772288472 60.88212090882529 0 0 0
2225 1 15.968870840772167 7.837772726470117 61.06208120068942 0 0 0
2226 1 18.21755509414237 9.865334493801473 61.09109113735925 0 0 0
2229 1 20.044464064432724 8.076040844137959 61.05619865167501 0 0 0
2209 1 24.28871747220822 7.471492831569915 60.88027634655933 -1 0 0
2230 1 22.45168118166275 9.895477625574479 61.269571168775606 0 0 0
2212 1 -0.12708552547883764 10.379112697031305 62.9348686854063 0 0 0
2233 1 24.52991225847788 11.9945014251472 60.90285389311248 -1 0 0
2237 1 3.757092236582457 12.323255023009624 61.074154990580595 0 0 0
2216 1 4.110389375226052 9.68615043276093 63.216165983842046 0 0 0
2218 1 9.936395416459714 10.182057994213821 60.69597808646313 0 0 0
2241 1 7.813275249204828 11.864965779123848 60.75800194099446 0 0 0
2245 1 12.032649308479687 12.195283456698224 60.72326002884928 0 0 0
2108 1 16.321404778284013 14.374858132735753 58.66985636915421 0 0 0
2249 1 16.159358011626978 12.134458991300757 61.235888736618186 0 0 0
2107 1 18.16017248731074 11.862588099825054 58.943653073457156 0 0 0
2253 1 20.245351715283768 11.969665958038263 61.060860807826366 0 0 0
2250 1 18.47138283971264 14.175978914886118 61.01049785020958 0 0 0
2234 1 1.5297680642603593 14.330609356422935 60.649330102763614 0 0 0
2257 1 -0.1438725852391649 16.145549938014476 60.73874953705018 0 0 0
2238 1 5.748152399965946 14.031184301479046 60.98791829663218 0 0 0
2261 1 3.58009881447378 16.07393064302898 61.16210717864506 0 0 0
2265 1 8.055141116677586 16.032679264247363 60.99160981141898 0 0 0
2242 1 9.950201137353549 13.919917797052129 60.908999241379384 0 0 0
2269 1 12.72527210266405 16.140838373238587 60.59117126733427 0 0 0
2246 1 14.394552518912086 14.167589787452865 60.88625095308657 0 0 0
2273 1 16.344057316467193 16.158602034263257 60.820638524115296 0 0 0
2277 1 20.38966612172259 16.16753098813992 61.02867816823527 0 0 0
2254 1 22.09966754837494 14.11663904504357 60.69317402349059 0 0 0
2258 1 1.6825401147281631 18.20730961478778 60.92522826835218 0 0 0
2281 1 24.409152508338238 20.323981536169743 61.14277753387844 -1 0 0
2143 1 5.683153581858754 20.39416975173451 58.95262119459108 0 0 0
2262 1 5.8101868380461585 17.93389586229778 61.23234876513274 0 0 0
2285 1 3.796606927572544 20.713905169257764 60.85779032688033 0 0 0
2266 1 10.214715134855252 18.18497056563469 60.99789449594587 0 0 0
2289 1 8.21077224118324 19.918385181298216 61.30838846219449 0 0 0
2293 1 12.250420987963372 20.23745275410528 61.20029741179376 0 0 0
2270 1 14.283760778309905 18.297582737071814 60.67137884808759 0 0 0
2297 1 16.18861827483873 20.656120705799786 60.41698297137535 0 0 0
2295 1 14.01319097048771 20.27368875760415 62.96748260208847 0 0 0
2274 1 18.337299249515873 18.296259955150422 60.97793702516926 0 0 0
2301 1 20.42187793662748 20.102845826896313 61.07228452230222 0 0 0
2278 1 22.560626042597278 18.22935582140876 61.08728132241161 0 0 0
2282 1 1.4760899914748682 22.373831918526704 60.785550698582625 0 0 0
2284 1 24.395986475786785 22.40026252394278 62.947595309049206 -1 0 0
2286 1 6.078442531469846 22.320336512396327 60.62859314782801 0 0 0
2290 1 10.113447367433148 22.028354939637204 60.86625712553306 0 0 0
2173 1 11.90161568299595 24.46606951822357 60.90039926552401 0 -1 0
2294 1 13.954306334491054 22.55474446446187 61.40542964455673 0 0 0
2177 1 15.883987760558485 24.38952354730548 60.626472586115696 0 -1 0
2181 1 20.07063046291963 24.17131214418644 60.74633216734478 0 -1 0
2298 1 18.31503385410298 22.14955615653585 60.81748835440294 0 0 0
2140 1 24.53005641997585 22.254639863538355 58.74671467304976 -1 0 0
2302 1 22.54080855840177 22.318643707195815 60.92791080401479 0 0 0
2306 1 1.4274898591933745 1.4291773554806193 64.99377128752081 0 0 0
2164 1 24.329063089121085 2.062045264611948 63.04132575928212 -1 0 0
2168 1 3.4797022885371534 1.8278572699512199 62.990558322565306 0 0 0
2310 1 5.6061137439890665 1.9921445349459606 65.39446647307514 0 0 0
2167 1 5.841458943499052 23.93230373403506 63.015271974852865 0 -1 0
2172 1 7.682818741298912 1.702177072277518 63.01997337404512 0 0 0
2314 1 9.869172315926544 1.7302795325344282 65.05518981719892 0 0 0
2176 1 12.086053038834358 1.8206992721786226 62.78256142521697 0 0 0
2317 1 11.879075190923356 24.210999743086468 65.18407406205705 0 -1 0
2180 1 16.111981027306484 2.045084646426962 62.75034017675952 0 0 0
2318 1 13.746839872066754 1.7035483579415425 65.08156184684246 0 0 0
2321 1 16.259256220470533 24.190748386549526 65.49132878058019 0 -1 0
2184 1 19.935927150937403 2.0610876730358716 62.65698441573598 0 0 0
2322 1 18.079396448057956 1.6690314408692475 65.14591293334158 0 0 0
2179 1 18.2894866639802 24.241128157986676 62.86327552482446 0 -1 0
2326 1 21.806687827130467 1.6793068086417098 65.05049743162986 0 0 0
2329 1 24.35198577602582 3.8486888751914154 65.25983296147919 -1 0 0
2187 1 1.5527215953593743 3.7284458683963053 63.41451871895404 0 0 0
2330 1 1.6694856445415032 6.144828956065004 65.46322523265127 0 0 0
2188 1 24.39339249457241 5.781355577061037 63.414773778580795 -1 0 0
2191 1 5.684809459467143 3.419136918089437 63.05153707611852 0 0 0
2192 1 3.658573499935259 5.874431885416193 63.327522049009545 0 0 0
2333 1 3.564363378908206 3.6512473218921926 65.39542350535798 0 0 0
2334 1 5.461659000190164 5.8008694138092265 65.16613116295684 0 0 0
2196 1 7.873721786998953 6.135985272020564 63.23381142160906 0 0 0
2195 1 9.457364935522499 3.7629857425837807 63.040190598450394 0 0 0
2337 1 7.664119285762554 4.0481836113558245 65.34268826732834 0 0 0
2338 1 10.117793285682005 6.01096863734383 65.6047756573116 0 0 0
2200 1 12.097633867604234 5.89775482371487 62.964035981213044 0 0 0
2341 1 11.706494811478867 3.9728407102160856 64.82965674030099 0 0 0
2204 1 15.870635975385499 5.7143391010674165 62.9131236809219 0 0 0
2342 1 14.077582658864033 5.913592543359044 64.86486770575696 0 0 0
2345 1 16.057238225857354 3.898143212669005 64.85445379239458 0 0 0
2208 1 20.225626912675047 5.445773048949336 62.991376186943356 0 0 0
2203 1 17.913413033864224 4.206834793349931 63.14524962048179 0 0 0
2346 1 18.103674944972212 5.905922528690742 65.23509560214161 0 0 0
2349 1 19.945805015213168 3.7596759511573765 65.31001670405037 0 0 0
2207 1 22.221026357110475 3.84345767245099 62.711271232366805 0 0 0
2350 1 22.151413151394635 5.857705703849608 65.1354914798568 0 0 0
2211 1 1.4304315198127733 8.044723219539321 63.26679108612886 0 0 0
2354 1 1.64897403907109 10.052083115863804 65.20899789244233 0 0 0
2353 1 24.2020379787267 8.043536669408596 65.20213199468459 -1 0 0
2215 1 6.120667398827935 7.998196202085163 63.23084238213501 0 0 0
2357 1 3.668082881478129 8.031275214703571 65.3413796471773 0 0 0
2358 1 5.7686727615228035 10.121549474941565 65.38566525281097 0 0 0
2220 1 7.979984856370768 9.819322312474903 63.21898764411722 0 0 0
2361 1 7.9955572937320625 8.542653098952671 65.40972623703311 0 0 0
2362 1 10.30958901693505 10.043790782102908 65.08392432349245 0 0 0
2219 1 9.802592919593895 7.7199031696004985 63.53888617992499 0 0 0
2365 1 12.253282811092019 7.887548146119675 65.24232319813287 0 0 0
2223 1 13.970520466457996 7.725680965800161 62.77539488423058 0 0 0
2366 1 13.954477583904595 10.114235327861586 64.8992875247342 0 0 0
2369 1 15.871034408461002 8.039515547910389 65.21047055971232 0 0 0
2228 1 16.460647886834565 9.804212959844051 63.195672909730135 0 0 0
2227 1 18.169976340881483 7.544424121260123 63.03082315510292 0 0 0
2232 1 20.17619978841215 9.985933990435992 62.93145641554085 0 0 0
2370 1 17.793315571322914 9.937922930190643 65.41931958404598 0 0 0
2373 1 19.95329544771466 8.064358753133531 65.33147259664128 0 0 0
2231 1 22.35196242927762 7.936336996330825 63.10023951978063 0 0 0
2374 1 22.16870161562219 9.984933628721242 65.02189512705844 0 0 0
2235 1 1.8124979084418027 12.14295673615056 63.17048535627866 0 0 0
2236 1 24.44809901787707 14.152437610831365 62.78192903841621 -1 0 0
2239 1 5.80677883261386 11.916950901120366 63.01678602817135 0 0 0
2381 1 3.7106084365525493 12.239032786901694 65.44243655987606 0 0 0
2385 1 8.160571442793781 11.661811634744124 65.4400959651414 0 0 0
2224 1 11.997541430453303 10.08576000166306 63.09677142892586 0 0 0
2243 1 9.955977849204867 12.05345747775301 63.00232699212651 0 0 0
2389 1 11.987200934322887 11.881062313541442 64.97244292723632 0 0 0
2247 1 13.80788092022552 11.907550063585886 62.56227806725819 0 0 0
2393 1 16.125740444900572 11.893916782915287 64.5846648169985 0 0 0
2251 1 18.427839945325736 12.247316358024042 62.71155094257837 0 0 0
2397 1 20.050363950787116 12.116819482339631 65.081725013089 0 0 0
2256 1 20.431591342423864 13.782925223858797 63.149941312005055 0 0 0
2255 1 22.448312759201045 12.063709525520544 62.820253881354034 0 0 0
2377 1 24.31015003689668 12.236458564955653 64.87132298268583 -1 0 0
2259 1 1.7775249712428391 16.0532432364428 63.18926366808222 0 0 0
2378 1 1.3991890465072094 14.167048049774925 65.00602576383784 0 0 0
2401 1 24.27606789555462 16.220578414730067 65.13364503567507 -1 0 0
2240 1 3.450711837923219 13.98040317594801 62.839798788375376 0 0 0
2263 1 5.708771485345732 15.616725370170826 63.46087410318633 0 0 0
2382 1 5.8441761893925355 13.877646162905515 65.30884460663677 0 0 0
2405 1 3.629592546942198 15.661496597673878 65.01096557622826 0 0 0
2244 1 7.827571768282217 13.70536727725932 63.22680290429345 0 0 0
2267 1 10.33053465797393 16.15266439923023 63.096575257369096 0 0 0
2409 1 7.783848901686623 15.866781127361484 65.09694022377163 0 0 0
2386 1 9.91219050056993 13.949089726147003 64.97823246212434 0 0 0
2248 1 11.940688234425787 14.138938312228536 62.71205249992651 0 0 0
2413 1 12.229145312581917 16.169408683595538 64.8814100339621 0 0 0
2390 1 13.900591687155368 13.566246048114191 64.5126070600095 0 0 0
2252 1 16.211067946994476 14.29144146250477 63.006288755870116 0 0 0
2271 1 14.555105601698916 16.211069178609232 63.21025936673048 0 0 0
2417 1 16.297928500399124 16.055906730750387 65.02361578619075 0 0 0
2275 1 18.557701229926003 16.382764048649186 63.04749120272419 0 0 0
2394 1 18.578782088887664 14.225680917337368 65.00898339368544 0 0 0
2421 1 20.176418162430487 16.269730413040577 64.97909471721213 0 0 0
2398 1 22.25563051953057 14.126587346312926 65.2140833645016 0 0 0
2279 1 22.484269411600337 15.797908458771165 62.7752983413078 0 0 0
2283 1 1.9211024265238636 20.108430097637157 62.89268603411806 0 0 0
2402 1 1.8625913217112688 18.196852877308192 65.23344421712865 0 0 0
2260 1 -0.11646684518339459 18.432450849069788 63.017497892512964 0 0 0
2264 1 4.086331353632141 18.206199322996884 63.031008440781065 0 0 0
2287 1 6.103577303649838 20.215186452044865 63.03567779877736 0 0 0
2406 1 5.800558828753311 17.661242322048547 65.09019329478758 0 0 0
2429 1 4.211334166667072 20.22722422566778 65.01450254944142 0 0 0
2268 1 7.896566856260321 17.932837832266692 63.23136825493751 0 0 0
2291 1 9.728534191918484 20.026740129559684 63.3965484218932 0 0 0
2410 1 9.808793778730934 17.895392452488572 65.4066969805279 0 0 0
2433 1 7.521796839694054 20.22206704542142 65.01210314304174 0 0 0
2272 1 12.309019982592577 18.388198816630467 63.17319937933732 0 0 0
2437 1 11.939371304895833 20.124112563028355 65.0506741694695 0 0 0
2414 1 14.310635976549879 17.96597041308247 65.25086401720901 0 0 0
2276 1 16.23440805957773 18.115452315845385 62.94393580706179 0 0 0
2441 1 16.38746802615075 19.95265338700076 65.11790528353698 0 0 0
2280 1 20.400755769077946 18.371365035498986 63.12923036274556 0 0 0
2299 1 17.96656987081164 20.418725623693952 62.67990759176718 0 0 0
2418 1 18.124480530336108 18.093749612706326 64.97090577113443 0 0 0
2445 1 20.29182222015755 20.018374199160473 65.09205272288358 0 0 0
2425 1 -0.2449859159014583 20.354332192083163 64.75563084174121 0 0 0
2303 1 22.20542015814828 20.387264804037162 63.07756054725509 0 0 0
2422 1 22.426830729588815 17.816132433571926 64.69402365849903 0 0 0
2163 1 1.730325243949701 24.42328831934455 62.837125334054875 0 -1 0
2426 1 1.679330137207256 22.54558036896768 65.25740318881658 0 0 0
2305 1 23.877639974684776 24.35297361186124 64.85289250881974 -1 -1 0
2309 1 3.862846893738486 24.33201162611321 64.91664356423986 0 -1 0
2288 1 3.7100592859033377 22.083068267906537 63.0799028258331 0 0 0
2430 1 5.723246636975805 22.427872956652532 65.37154706307477 0 0 0
2313 1 7.950059403941504 0.06697444129982338 65.09222353718478 0 0 0
2171 1 10.143863629388411 24.21658682336308 63.185005317964425 0 -1 0
2292 1 8.073085572407548 22.526495789010312 63.16398077405367 0 0 0
2434 1 9.962948222927917 22.105411712846877 65.08384871507884 0 0 0
2296 1 11.941165509210208 22.258898785244778 63.37690632405514 0 0 0
2300 1 15.88745381901179 22.656500337434796 63.050847603904 0 0 0
2438 1 13.941801007570103 22.21031549843634 65.07463174437574 0 0 0
2325 1 19.966230581502415 24.421903115377724 64.98713828155974 0 -1 0
2304 1 20.15806473013607 22.2775367596278 63.0104433592293 0 0 0
2442 1 17.812029405044107 21.985526924165868 64.86665826902899 0 0 0
2183 1 22.073105263396847 -0.07498863376928136 62.99053117830668 0 0 0
2446 1 22.404598597498364 22.37246145638468 65.11789300523587 0 0 0
2308 1 23.81186737032803 1.551788394956298 66.99201396392854 -1 0 0
2450 1 1.479946506263083 1.7849779744352712 69.159656415534 0 0 0
2449 1 24.028660708877013 23.95579479248112 69.12350277197409 -1 -1 0
2312 1 3.291027874751766 1.553143789907756 67.15936004712793 0 0 0
2454 1 5.950679599433091 1.7008943084784176 69.16014115624834 0 0 0
2453 1 3.4190818043704674 24.46460686250699 69.32798958659347 0 -1 0
2316 1 8.187205540060727 1.793937384680897 67.17628076148031 0 0 0
2458 1 9.934711036288046 1.468572133513251 69.63785806772505 0 0 0
2315 1 9.623666745788618 24.003389681820554 67.17572185130545 0 -1 0
2457 1 7.7315772599703685 -0.16093292613838434 69.26700996078762 0 0 0
2320 1 11.67827788821692 1.6187102289813322 67.03552371096161 0 0 0
2461 1 12.064399265311234 24.249136273209555 69.09886718300065 0 -1 0
2462 1 13.898697900595746 1.5387345865159894 69.19992728067575 0 0 0
2324 1 15.506201067291885 1.8115303098572588 67.007704798616 0 0 0
2319 1 14.028205119198107 24.04047073280677 67.26091125181722 0 -1 0
2465 1 16.2808962600855 24.345231314217532 69.20510031186369 0 -1 0
2328 1 20.028749899277507 1.4837735051736183 67.34953868344077 0 0 0
2466 1 17.918104495429645 1.8393485625293544 69.15047840306362 0 0 0
2470 1 22.14539706845308 1.3979990541372005 69.07139432998852 0 0 0
2327 1 22.2919036199594 23.949579398387677 67.08558125843973 0 -1 0
2331 1 1.3719179864395314 4.0064848695153925 67.25269096370779 0 0 0
2474 1 1.4193058213942193 5.978051863208569 69.05773771087746 0 0 0
2332 1 24.064286120060707 6.002192642251308 67.0565095219794 -1 0 0
2335 1 5.411463074345202 4.240221112266883 67.23321751996876 0 0 0
2336 1 3.6771593221341177 6.515030897568001 67.20433246433056 0 0 0
2478 1 5.539799777555969 5.917172977966403 69.54848500937071 0 0 0
2477 1 3.4287740507649462 4.248670438129641 69.3148308188589 0 0 0
2339 1 9.642835072166301 4.077345289756332 67.27854082671493 0 0 0
2340 1 7.803211448946302 5.88036261187908 67.82413713775512 0 0 0
2481 1 7.896109601965081 3.4058680307681275 69.38099043695681 0 0 0
2482 1 9.87742594617939 5.734173456917008 69.48002746155477 0 0 0
2344 1 12.031679555226821 5.943162534578638 67.49808599026207 0 0 0
2485 1 11.978076744742957 3.4623043162289466 69.07731680234025 0 0 0
2343 1 13.830680882592675 3.7877344990408552 66.8709101114951 0 0 0
2348 1 15.893840416054447 5.690803555764951 67.19858638203965 0 0 0
2486 1 14.165951739630373 5.7813699707164785 69.15335970628695 0 0 0
2489 1 15.64909889620928 3.6779200319160545 69.32938033606781 0 0 0
2347 1 18.0418970442353 3.8165816277164843 67.30367812330095 0 0 0
2352 1 20.32903067788321 6.034598272891983 67.07643055746338 0 0 0
2490 1 18.216793142017558 5.956766224560804 69.28225499542629 0 0 0
2493 1 20.150052091147266 3.9415030315757713 69.09690617164524 0 0 0
2351 1 22.539282924458682 3.8852227385115965 67.06994260803732 0 0 0
2473 1 24.163774335652377 3.2236645817272307 69.18274789437055 -1 0 0
2494 1 22.35070244812607 5.836431949817749 69.29614741028345 0 0 0
2355 1 1.5634860499205059 8.145091544451246 67.253912542477 0 0 0
2498 1 1.3421386675368217 10.094596955225926 69.54256941614298 0 0 0
2356 1 24.242952205116303 10.052634212035182 67.09081250402544 -1 0 0
2497 1 24.246132870679354 7.9457762858055485 69.22014161683451 -1 0 0
2359 1 5.959751302440687 8.152359130427216 67.26826255101979 0 0 0
2360 1 3.713336244969081 10.205497150608009 67.14304067415367 0 0 0
2501 1 3.4665024712571175 8.141621954097761 69.36115033397459 0 0 0
2502 1 5.762194944774927 10.139955315922213 69.6126945071487 0 0 0
2363 1 9.957022336440316 7.981718828549395 67.49460419592523 0 0 0
2505 1 7.746119650664985 7.8576438877582095 69.73163779816302 0 0 0
2506 1 9.832109693531098 9.833619738046961 69.56594380695635 0 0 0
2364 1 7.915046229789452 10.188820017635654 67.56463059538319 0 0 0
2368 1 11.86220874600778 9.810438522865129 67.34325808788175 0 0 0
2509 1 11.984958528343489 7.623772768875265 69.45611752204275 0 0 0
2367 1 14.01504071120772 7.872592056957094 67.32493739021464 0 0 0
2510 1 14.195003428937989 9.842934049482206 69.43590162859532 0 0 0
2513 1 16.123674389824465 7.8094034783827215 69.56916156180095 0 0 0
2372 1 15.956979869502876 10.113335552135917 67.29629536408221 0 0 0
2371 1 18.067135197202525 7.932688835226578 67.25852163757934 0 0 0
2376 1 20.097739530503112 10.252338027558498 66.91891177190591 0 0 0
2514 1 18.2088329211337 9.868165918458557 69.02705899117765 0 0 0
2517 1 20.456168949293243 8.093338156185355 68.97348884235635 0 0 0
2375 1 22.19048773390245 7.8619942504820735 67.26577683933408 0 0 0
2518 1 22.25928373938563 10.045109119051455 69.29530964079648 0 0 0
2379 1 1.5309350805950102 12.40635624700515 67.44213916262993 0 0 0
2521 1 23.997511577579957 12.182927643242207 69.2216111409797 -1 0 0
2380 1 24.475025530677605 14.411970122125878 67.0788074493817 -1 0 0
2383 1 6.098602899353209 12.219798902263816 67.3566660677232 0 0 0
2525 1 3.563661055661633 12.371205161784648 69.1809696842236 0 0 0
2387 1 10.186480984371652 11.839328851929338 67.19981597280164 0 0 0
2529 1 7.884760219618602 12.27349101823013 69.42188148956147 0 0 0
2533 1 12.161305898354408 11.776586323634334 69.31227884969236 0 0 0
2391 1 14.12803405557428 12.099602563310999 67.04005520868728 0 0 0
2537 1 16.167333166719636 11.83064147076671 69.09570539362973 0 0 0
2395 1 17.89102274072374 12.153897665592298 66.9750071419801 0 0 0
2541 1 20.099952392395906 11.901953726980137 68.9925623298513 0 0 0
2399 1 22.657206905420765 12.073597950793474 66.87897522524602 0 0 0
2522 1 1.1383631117313382 14.273230550638866 69.60400915400827 0 0 0
2403 1 1.6362912570733235 16.329590799514296 67.41693346985501 0 0 0
2545 1 24.00976324771449 16.171604664718938 69.05259277875312 -1 0 0
2526 1 5.875496012333985 13.911519835541972 69.19367254860612 0 0 0
2384 1 3.5601608810031546 14.381908356058261 67.27379797278361 0 0 0
2549 1 3.5642817173036385 16.36300662485068 69.63931037103232 0 0 0
2407 1 5.756792296380779 16.125779678819995 67.12176942166911 0 0 0
2553 1 7.8173163199869755 16.197358725398725 69.47836618304777 0 0 0
2388 1 7.883346773978493 14.207540432306777 67.27611722416002 0 0 0
2411 1 10.030793803645008 16.011766421748508 66.99466719148911 0 0 0
2530 1 10.417026327516709 13.859495215762614 69.02160633307584 0 0 0
2557 1 12.27727243326408 15.994890165294375 68.9709903058164 0 0 0
2392 1 12.13947404316194 14.175956489775897 66.63924235660627 0 0 0
2396 1 15.944383956231293 13.851197618136759 66.7176323522126 0 0 0
2561 1 16.234575372227454 15.900976973688469 69.07688198553667 0 0 0
2415 1 14.251088724561457 15.696951312738037 67.23244546412418 0 0 0
2534 1 14.087891864840136 13.911544054466317 69.37126114408109 0 0 0
2400 1 20.366163608281568 14.029825629469087 67.2137950036737 0 0 0
2565 1 20.241787074922648 16.278019655289096 68.99723749312733 0 0 0
2419 1 18.336918439365192 16.26694578356389 67.07183168286528 0 0 0
2538 1 18.09164498640088 13.868996243016879 69.13252717152106 0 0 0
2423 1 22.263591491543032 16.044034328346378 67.22896505083709 0 0 0
2542 1 22.31030268568503 14.37288061135751 69.1389203347616 0 0 0
2427 1 1.8295428301869459 20.276718217351924 66.99731371569064 0 0 0
2546 1 1.7461352560120607 18.181259042094684 69.1211600894856 0 0 0
2569 1 -0.22494814243077538 20.042461395476618 68.78466377570729 0 0 0
2404 1 24.221024892259756 18.294357731456778 66.76154502361469 -1 0 0
2573 1 3.6733008527232247 20.38797750076028 69.2793721524753 0 0 0
2550 1 5.852460267145804 18.209099809282012 69.38217554964899 0 0 0
2408 1 3.7755244667257735 18.116935390561594 67.2304833144681 0 0 0
2431 1 5.812073166307033 20.465760199082005 67.14926767222154 0 0 0
2577 1 7.915981636051308 20.192377676691542 69.16382920462297 0 0 0
2554 1 9.655337346155052 18.212720275472712 68.8040345697017 0 0 0
2412 1 7.625919407910757 18.198164452481972 67.23809302662798 0 0 0
2435 1 9.416366778466568 20.597632082671446 67.22565960440615 0 0 0
2581 1 11.260227892727135 20.364636688073645 69.45773034964012 0 0 0
2416 1 12.116595878518998 17.91695711559713 67.34925993033188 0 0 0
2585 1 15.9090301942919 20.044079957339896 69.25363380475689 0 0 0
2558 1 14.136737450937078 17.845164988824486 69.53460498571751 0 0 0
2420 1 16.187501798487872 18.10661620501257 67.2821124875141 0 0 0
2439 1 14.08429486726381 19.905047909673147 66.99147986672389 0 0 0
2589 1 20.114744753563564 20.056552227081042 69.20673108497893 0 0 0
2562 1 18.138507767042114 18.022158271854597 69.01312326388947 0 0 0
2424 1 20.42756383976043 17.895696381200622 67.1631315750207 0 0 0
2443 1 18.18142531347892 19.98433124692466 67.03201109319504 0 0 0
2566 1 22.32219301984884 18.36667563942912 68.98670771704815 0 0 0
2447 1 22.4069544160427 20.190510428924 66.81500052633618 0 0 0
2307 1 1.333096541001341 24.125753012918274 67.10970238295032 0 -1 0
2570 1 1.4607897011208957 22.3111261111584 69.46088325310073 0 0 0
2574 1 5.591872776715467 22.514835191465075 69.27783048776686 0 0 0
2311 1 5.692701111283224 -0.06304908111653232 67.26318062160405 0 0 0
2432 1 3.861658340677372 22.377324762848552 67.13991293765798 0 0 0
2578 1 10.015131435609616 22.508989353687163 69.1654412339486 0 0 0
2436 1 7.608439718625328 22.51833398123143 67.27191593358341 0 0 0
2440 1 11.78784450824913 21.67029581815476 67.03290056638818 0 0 0
2582 1 14.022412798072953 21.701814799351673 69.29304027346532 0 0 0
2444 1 16.005138458151876 21.908803148204854 67.05667326372605 0 0 0
2469 1 20.30496936890801 24.105249221963337 68.83980483204492 0 -1 0
2323 1 18.131754823452532 23.89465559019743 67.08255767522277 0 -1 0
2586 1 18.320494449776326 22.150551386110195 68.86569391853644 0 0 0
2448 1 20.295296439834367 22.304076392401086 66.8773443401162 0 0 0
2428 1 24.512549645351072 22.11388509472954 67.12366157100125 -1 0 0
2590 1 22.089422085519054 21.957387937734705 68.96962056064538 0 0 0
2452 1 24.419682959561 1.6438937564897078 71.29038400137013 -1 0 0
2455 1 5.5045259780331595 24.427850560565002 71.02970432172158 0 -1 0
2456 1 3.6583609209223895 2.1611358491159827 70.98219483681186 0 0 0
2459 1 10.00371818516931 24.340291104923228 71.61160561858843 0 -1 0
2587 1 18.100444534556758 20.217055504662966 70.8614617163438 0 0 0
2460 1 7.865680144977171 1.9459268769272704 71.58734936945011 0 0 0
2613 1 20.328419026285346 24.12316208567939 73.31071780997533 0 -1 0
2464 1 12.114263237159205 1.927188647498368 70.98758157235292 0 0 0
2468 1 16.300878308890425 1.7481686457241405 71.0913671017465 0 0 0
2568 1 19.906724275119878 18.19693704423393 71.18957288873779 0 0 0
2467 1 18.03377600780596 24.362508660534836 70.83137081564215 0 -1 0
2472 1 20.09879774313694 1.4911229299460678 71.23020581416638 0 0 0
1850 1 1.8062893140632155 22.456648742475913 48.65226759827786 0 0 0
2471 1 22.133958585468342 24.226570716139378 71.47259925143057 0 -1 0
2475 1 1.4619618410992958 3.9612299882974806 71.48386149906356 0 0 0
2476 1 24.32124875105464 5.709944099342961 71.17424415613687 -1 0 0
1854 1 5.622687352243218 22.066243648476362 48.62433434935238 0 0 0
2480 1 3.400644034276104 6.032266208097754 71.44288554429194 0 0 0
2479 1 5.730556391741865 4.033338888022971 71.58900826173833 0 0 0
2583 1 13.747721809473793 20.095281994548138 71.58767432582658 0 0 0
2484 1 7.743519699313721 5.836801276450054 71.39247801576751 0 0 0
2483 1 9.787765884037235 3.8958704851276638 71.45380961595352 0 0 0
2564 1 15.853984905602418 18.2118403598443 71.28076571957962 0 0 0
2488 1 11.842375690134814 5.773901979617847 71.50980325764529 0 0 0
1818 1 18.212689883149018 13.992395479072778 48.68767560862302 0 0 0
2487 1 14.000531147836933 4.086415010342945 71.55469710736477 0 0 0
2492 1 16.40285055535174 5.356966882569764 71.01077711314102 0 0 0
2567 1 21.987450967661395 16.46693012518189 71.25493620662839 0 0 0
2579 1 9.991352225632378 19.66039592330144 71.53916397237067 0 0 0
2491 1 18.38911844119881 3.5048406982848688 71.36910616371594 0 0 0
2496 1 20.593360181399703 5.7232955857423455 71.12957812873151 0 0 0
2495 1 22.37746835920231 3.735311643577457 71.24580121558647 0 0 0
2499 1 1.0382082261078847 7.9461685492574325 71.24555663517775 0 0 0
2500 1 23.900889830052144 10.152846124022535 71.45512795571756 -1 0 0
2560 1 11.962421573484123 17.940728075796645 71.45278232614945 0 0 0
2503 1 5.382773733081485 8.02807162868871 71.64835260565646 0 0 0
2504 1 3.4042568444163925 10.009688918000252 71.83962981191506 0 0 0
2556 1 7.766505847058486 18.014544788573254 71.55887278183732 0 0 0
2507 1 9.999836917276642 7.733100748714196 71.36415564700806 0 0 0
2512 1 12.105539006527 9.711013746312506 71.20829632166124 0 0 0
2722 1 9.751488031540143 22.19726758666015 73.22405361169514 0 0 0
2511 1 13.99001416469096 7.273651873665676 71.5752473626376 0 0 0
2516 1 16.07853525153333 9.640089548700695 71.62830003209875 0 0 0
1833 1 8.347577242644238 16.126696883947563 48.723740858797406 0 0 0
2563 1 18.06089142559634 16.17985645374761 71.02252473302732 0 0 0
2515 1 18.282382818321878 8.184727097841327 71.0874263937189 0 0 0
2520 1 20.028887101459006 9.998277966010413 71.4905253496481 0 0 0
2634 1 18.358316411726086 6.150290345569591 72.5680260167536 0 0 0
2519 1 21.97064949348566 7.955033999179909 71.5083739022311 0 0 0
2523 1 1.593249445963901 12.305897635932151 71.2873544420323 0 0 0
2559 1 13.982585299366567 15.931265970994087 71.41367390262162 0 0 0
2527 1 5.7734954901222135 12.41747859694389 71.64080328317831 0 0 0
2508 1 7.696917610637094 9.867641324444735 71.13057568989151 0 0 0
2531 1 9.855738660834325 12.036543281672602 71.47772402298305 0 0 0
2571 1 1.266343827415527 20.022963049080495 71.03741875765908 0 0 0
2535 1 14.185969294843193 11.78391879191511 71.29518792512351 0 0 0
2548 1 24.06994203215487 18.303502293086293 70.86521971920233 -1 0 0
2539 1 18.141336055823082 11.856905583603234 71.02391179112388 0 0 0
2544 1 19.998936933131972 14.303261166080114 70.90030498341618 0 0 0
2543 1 22.079924345147255 12.096413236602267 71.27461759031827 0 0 0
2547 1 1.4757918323785006 16.369946481903483 71.42951195348158 0 0 0
2610 1 18.327595320189843 1.8130205690575596 73.13324765394368 0 0 0
2528 1 3.777805415686948 14.488388524516363 71.38708026658956 0 0 0
2551 1 5.664664773453383 15.973603957717547 71.30181690375949 0 0 0
2524 1 24.129132145831136 14.355498185330429 71.47304100348506 -1 0 0
2555 1 9.909384267193042 16.19156155552539 71.37663831019148 0 0 0
2532 1 8.018624375896229 14.263203871033902 71.51548004282799 0 0 0
2575 1 5.535542545638041 19.96588775646925 71.30042792325104 0 0 0
2552 1 3.314498893420501 18.250287528830288 71.46190094391456 0 0 0
2536 1 12.011592195542157 13.919094838764074 71.45068504942162 0 0 0
2540 1 16.224204811066357 13.835094672221002 71.54509409991564 0 0 0
2690 1 1.2427497488382295 18.485711778422537 73.197749017367 0 0 0
2730 1 17.863751387900443 22.279157198634568 73.24038751083252 0 0 0
2701 1 11.881460585302923 16.010441775498283 73.3672967605458 0 0 0
2709 1 19.955372929677388 16.177051621612804 73.18320723875554 0 0 0
2718 1 5.823676812502062 22.44668410172192 73.20727040303667 0 0 0
2710 1 21.97587251344529 18.663309835149175 73.13818233024844 0 0 0
2625 1 7.738177362540201 3.864994984022484 73.39385934214029 0 0 0
2641 1 23.78944944857983 8.089008186327156 73.2877708857629 -1 0 0
2629 1 12.174234580847866 3.7061596698502832 73.41276989743379 0 0 0
2666 1 1.6692454231538298 14.041077187411371 73.30504434940225 0 0 0
2618 1 1.4104155560466474 5.931620580617779 73.424215451516 0 0 0
2650 1 10.032504173123355 9.799797182829682 73.43825724004405 0 0 0
2645 1 3.0232691434527386 7.859811218997564 73.14095241413504 0 0 0
2734 1 22.24162408849687 22.25707303987921 73.3063153142756 0 0 0
2633 1 16.402470905479205 3.8157722754793397 73.28087194955883 0 0 0
2686 1 22.28828216192806 14.336277502163362 73.12428025530093 0 0 0
2617 1 24.095745744900313 4.159247657119399 73.39186920769929 -1 0 0
2598 1 5.81444043377896 1.567008616077729 73.30906571501181 0 0 0
2669 1 3.73364058490382 12.230301258968959 73.41930875854851 0 0 0
2682 1 17.984937194449415 14.08616123706956 73.1691392664846 0 0 0
2677 1 11.88280192683459 11.802835983789928 73.32166016339598 0 0 0
2637 1 20.387094577207144 3.8863214852597006 72.85436947185538 0 0 0
2602 1 10.206195599108165 1.8888925193805295 73.29641852966013 0 0 0
2702 1 14.191052508785857 18.262032693858153 73.32666596868823 0 0 0
2605 1 11.95098685296987 24.454289630202478 73.38950644440435 0 -1 0
2725 1 11.739616975225744 20.548572048339008 73.37990470035088 0 0 0
2649 1 7.702444120455801 7.746858298443384 73.2950371967383 0 0 0
2685 1 19.78482379074135 12.273427853611393 73.30982678464453 0 0 0
1838 1 14.160143830222127 18.285910802775586 48.57957046588082 0 0 0
1862 1 14.413487869770416 22.391472820180844 48.627873636652375 0 0 0
1861 1 12.17446062614553 20.566344511338105 48.6055178293975 0 0 0
1837 1 12.186491582641795 16.196323977708232 48.689434459217 0 0 0
1738 1 10.242695583936257 2.011119742444006 48.555493263144065 0 0 0
1857 1 7.986830286824231 20.421451978894815 48.695316853366954 0 0 0
1814 1 14.022477779877992 14.28960414027455 48.672062998294145 0 0 0
1810 1 10.48367161941426 14.308883427779037 48.5604057534644 0 0 0
1761 1 8.027526122186368 3.9714624213440155 48.57236567884337 0 0 0
1757 1 3.7928933531265088 4.121138444415692 48.66395491073285 0 0 0
2681 1 15.879262497956608 11.644761072083462 73.43595318900971 0 0 0
2597 1 3.84141184496269 24.44632987955792 73.4290013383824 0 -1 0
2622 1 5.233732162706756 6.000887432216825 73.62519445685538 0 0 0
2595 1 1.5905337735892289 24.28960232213692 75.7616006375208 0 -1 0
2600 1 3.499391254433276 1.6675178668993424 75.62142661336983 0 0 0
3456 1 20.01524397372316 22.54893511300365 96.04949082627924 0 0 0
2638 1 22.209425746266255 5.804419542163205 73.90737509556423 0 0 0
2604 1 7.859561927758614 1.395042428764154 75.70364844739956 0 0 0
2746 1 10.176684833173383 2.0149492547010395 77.45879337744665 0 0 0
2608 1 12.110288646767962 1.448709433379882 75.39445674988085 0 0 0
2603 1 10.112154701113507 24.390210640720888 75.7871667115168 0 -1 0
2612 1 16.283732283542882 2.089054537385236 75.15952879754728 0 0 0
2689 1 24.103311507315468 16.182807445679938 73.57444812560217 -1 0 0
2616 1 20.29246281273418 1.3903994812017872 75.30916249320686 0 0 0
3452 1 16.277058989980695 22.4164638426137 96.18300856576248 0 0 0
2596 1 24.39893069506364 1.7829731752908877 75.53527095671689 -1 0 0
2661 1 20.317683809386693 7.652728436158083 73.69798371545028 0 0 0
2615 1 22.530017461860837 24.308047365859437 75.69652539388262 0 -1 0
2619 1 1.3342216202551431 3.450751693617538 75.51143236477937 0 0 0
2620 1 24.161591985604808 5.9844756178137715 75.54353363605608 -1 0 0
3448 1 12.357025770089004 22.117076183700878 96.65755338235114 0 0 0
2623 1 5.456090754861526 3.357207544669533 75.65732838686694 0 0 0
2624 1 3.305648399657371 6.194369648274697 75.47039785864074 0 0 0
2705 1 15.893626417418373 15.892987661350787 73.759304507767 0 0 0
2627 1 9.794066106815672 3.769716437734839 75.52015112776873 0 0 0
2628 1 7.861507024606517 5.694178013008492 75.15927791022331 0 0 0
3444 1 8.240773062414922 22.54324001546626 95.95041340107974 0 0 0
2632 1 11.685118057753641 5.667242786790608 75.31563672968021 0 0 0
2631 1 13.949539463553712 3.6573404147140396 75.19343702125424 0 0 0
2636 1 16.152231101018415 5.628382317097016 75.83547806580967 0 0 0
2678 1 13.973360227387063 13.92184472258909 73.50449858542659 0 0 0
2635 1 18.38800104112878 3.96640616890089 75.15392711162542 0 0 0
2640 1 20.190815737702252 5.946056061279637 75.70670829350239 0 0 0
3319 1 5.864709985345491 -0.1970953975724735 96.35478973600517 0 0 0
2639 1 22.123424030125364 3.44302380902611 75.7853714934862 0 0 0
2653 1 11.969195964993105 8.094760554881924 73.59244455489025 0 0 0
2643 1 1.2260943846603896 8.337034457506011 75.30659907963137 0 0 0
3440 1 3.7449226419316988 22.369804107402356 95.39200937180077 0 0 0
2647 1 5.605519221212674 8.410791310425548 75.28528745143208 0 0 0
3436 1 24.51456777376263 22.6545592926873 96.52376092599427 -1 0 0
2648 1 3.2169945552659414 10.00519820758053 75.63199816373879 0 0 0
2630 1 14.03714865850345 5.790975163355338 73.71383543969078 0 0 0
2651 1 9.53812433936237 8.060557881335614 75.68242620558114 0 0 0
2652 1 7.586183456425644 10.423039196598191 75.77394869680222 0 0 0
2714 1 1.5398612818121593 22.106936619233554 73.5622623864275 0 0 0
2656 1 12.030770425805468 9.80689875407255 75.80800451145971 0 0 0
2655 1 13.67559076807153 7.853253387456958 75.70108033823252 0 0 0
2660 1 15.91437401833184 10.24936998386141 75.83774174561398 0 0 0
3455 1 22.382039985223834 20.625125734306092 96.35847122217056 0 0 0
2659 1 18.08734178809224 7.9703684821165535 75.41021799520087 0 0 0
2664 1 20.05781648880604 10.022550058388738 75.58793965640041 0 0 0
2713 1 24.030506908464965 20.14742571271457 73.68227511061455 -1 0 0
2644 1 24.221112598338863 10.141981568615373 75.77323146334679 -1 0 0
2663 1 22.3980203868556 8.123401782703619 75.86120362507498 0 0 0
2667 1 1.4527450998624385 12.340542367867402 75.36888279519967 0 0 0
2671 1 5.700644292243114 12.062511867148544 75.61807341055032 0 0 0
2662 1 21.595022073563165 10.131311578743286 73.45335145773474 0 0 0
2675 1 9.933421148457489 11.850995742054007 75.7303866161042 0 0 0
2621 1 3.3912554231193615 4.118961032379151 73.46397411767555 0 0 0
2679 1 13.819846140273535 11.905065829298403 75.5955265122538 0 0 0
2670 1 5.903723031905876 14.307038639439385 73.46940503523244 0 0 0
2683 1 17.926515377833304 11.887527210325375 75.55386662631197 0 0 0
2673 1 7.981971218535477 12.439594912126308 73.55128913580386 0 0 0
2687 1 21.927507983923235 12.109390385618193 75.28288100324106 0 0 0
3451 1 17.961806394860886 20.519757263271096 96.51644313769987 0 0 0
2668 1 24.295241522609537 14.123370210405911 75.43479491265975 -1 0 0
2691 1 1.2801450018223854 15.929852252319826 75.57128392904737 0 0 0
2672 1 3.4719822732877597 14.054253621544476 75.68394876160924 0 0 0
2695 1 5.391758881833355 16.45801287349534 75.4234211302794 0 0 0
2694 1 5.867326175679648 18.240982587858042 73.71574755366922 0 0 0
2676 1 7.808654921274716 14.02927833818555 75.97426543614422 0 0 0
2699 1 9.92262569677732 16.23260827676247 75.61605174029005 0 0 0
3432 1 20.297054275753233 18.778721415385817 96.26595591733812 0 0 0
2680 1 12.130443978751018 13.91935315533052 75.74769676034872 0 0 0
2717 1 3.3930761427412266 20.363258375588664 73.7826010061134 0 0 0
3447 1 14.146454562279253 20.162391457365423 96.32839495164181 0 0 0
2684 1 15.81673167882896 13.927686467263218 75.38147541334821 0 0 0
2703 1 13.72454514023744 15.980774299908674 75.45381024944129 0 0 0
3428 1 16.08737115482561 18.626379833797984 96.65319486139497 0 0 0
2688 1 20.350045639492834 14.326425157978477 75.51654433075451 0 0 0
2707 1 17.991265067478857 15.927159110874182 75.50770117328383 0 0 0
2711 1 22.086384529481784 16.32416043012193 75.20743488759673 0 0 0
2642 1 1.1999906814528123 10.129201767110645 73.44986839561368 0 0 0
2697 1 7.912788615559073 15.882417626680287 73.75271664810424 0 0 0
2715 1 1.3586891390425266 20.179163960727827 75.74094206784113 0 0 0
3424 1 12.185693078620375 18.20578074748331 96.2784429945639 0 0 0
2696 1 3.2086881701039753 18.41995199336283 75.67721409512271 0 0 0
2719 1 5.927498596947876 20.45056830667907 75.55448788583017 0 0 0
2733 1 19.769457423453822 20.281220848326033 73.68733767262627 0 0 0
2700 1 7.770957923969556 18.436649580573345 75.82613968221139 0 0 0
2723 1 9.809105289713202 20.332634588052287 75.68300460579789 0 0 0
2704 1 12.034240062206505 18.14956574774977 75.51080252479726 0 0 0
2726 1 14.114088370650144 22.331149002884448 73.5555720633774 0 0 0
3420 1 7.9977392990796385 18.312308810625087 96.29299526965474 0 0 0
2708 1 15.896321335261804 18.213204225925104 75.4542604167263 0 0 0
2727 1 13.739296206055824 20.426903174031462 75.52011295630196 0 0 0
2712 1 20.057285725050008 18.047393612128012 75.61728405374198 0 0 0
2731 1 17.677319575311564 20.0489577150521 75.72164465561521 0 0 0
2657 1 16.397735294229392 7.395849924990024 73.53825957634653 0 0 0
2692 1 24.00131068314999 18.165206173763465 75.9195342518635 -1 0 0
2735 1 22.12762117030819 20.110824191514226 75.26560298205592 0 0 0
126 1 5.862961602039689 22.206690532494886 98.14650801107217 0 0 -1
3443 1 10.09022831080301 20.37020598019084 96.31784836566128 0 0 0
3416 1 3.913545166637535 18.36204363453056 96.15588454269974 0 0 0
2599 1 5.7298272394249254 24.316872390524427 75.30800485031577 0 -1 0
2720 1 3.7103779709758182 22.472326105497668 75.25876658521467 0 0 0
3439 1 5.9561718537206145 20.254300967799 96.29818800193185 0 0 0
2724 1 7.754197110297316 22.134663707126208 75.32756070822214 0 0 0
2728 1 12.03013293457899 22.346205382654787 75.64317836442143 0 0 0
3435 1 1.9712414953842772 20.243994463264727 96.56413827697628 0 0 0
2607 1 14.40303805705535 -0.07120199830345611 75.40073275874293 0 0 0
2732 1 16.073797668913684 22.113971846707905 75.5702799524607 0 0 0
2611 1 18.13885595791288 24.29674712603256 75.18798883105586 0 -1 0
3412 1 24.527280026966018 18.27021392641516 96.57420621911892 -1 0 0
2736 1 20.19293361748072 22.411461933327466 75.3543606703681 0 0 0
2674 1 9.879967156247979 14.132793109979898 73.86374429113303 0 0 0
2716 1 24.07453174858945 22.058062260608367 75.4019282010406 -1 0 0
2738 1 1.683197961995367 1.6081200691991417 77.5160890526458 0 0 0
2740 1 24.012512127505317 2.097266497515175 79.62955885484367 -1 0 0
2742 1 5.648845848735625 1.5351133045496552 77.45759213503051 0 0 0
2744 1 3.4215023823699537 1.5293322114863712 79.70566028103693 0 0 0
2743 1 5.679667633847376 24.379640710197588 79.82452765114006 0 -1 0
2741 1 3.5716920880562486 24.467023005681124 77.79475202910837 0 -1 0
2748 1 7.703319269794604 1.6922529586171213 79.43842466374265 0 0 0
2747 1 10.07059211968599 24.312422918725357 79.75895597577565 0 -1 0
2745 1 7.957123464870783 24.17497910973509 77.72549272018956 0 -1 0
2752 1 12.192221610957422 1.6488300001095895 79.55737584865008 0 0 0
2749 1 12.091508039566175 24.383900137177402 77.66943966336876 0 -1 0
2750 1 14.484906132779038 1.7752448648872248 77.46634638254406 0 0 0
2756 1 16.13141175582743 1.813391604578951 79.55777871542368 0 0 0
2751 1 14.085111177706818 -0.15865669123529397 79.86466817244178 0 0 0
2753 1 16.28599176110184 24.355677053192622 77.2819063040729 0 -1 0
2754 1 18.141349113768598 1.9774187354942212 77.34970364929053 0 0 0
2760 1 20.304689059783804 1.3994834448782318 79.68173220004203 0 0 0
2755 1 18.148628771677586 -0.17076687753626058 79.6087610143743 0 0 0
2757 1 20.401603247656553 24.278724597043396 77.65078100311067 0 -1 0
2758 1 22.361442785472725 1.8876360558061034 77.72738762036111 0 0 0
2759 1 22.511645428598058 -0.1489497111492042 79.91835772699518 0 0 0
2762 1 1.6505396490805813 5.902746196699531 77.4264092787408 0 0 0
2763 1 1.4233645159232475 3.670698084468828 79.6821356249239 0 0 0
2765 1 3.535071602629843 4.136134768043823 77.47911422195835 0 0 0
2766 1 5.720517879045873 5.956227093356339 77.40476622043408 0 0 0
2767 1 5.700915038988852 3.372283743807647 79.52415563469918 0 0 0
2768 1 3.620780073630818 5.873479111956451 80.09340488636401 0 0 0
2769 1 7.726133432090389 3.725178568538516 77.2553672490532 0 0 0
2770 1 10.053716825190113 5.849468683671589 77.33690558887356 0 0 0
2771 1 9.957143518088342 3.708401233518219 79.24056587499398 0 0 0
2772 1 8.026674150889047 5.428569562627433 79.7108960661194 0 0 0
2773 1 12.46122843365487 3.4890547031749004 77.48244221371033 0 0 0
2776 1 11.869958185195578 6.011047300067856 79.7642235901659 0 0 0
2774 1 13.936514636977424 5.969096991033097 77.75439555815902 0 0 0
2775 1 14.488971627070445 3.894997366098357 79.56971565792901 0 0 0
2777 1 16.31644480230765 3.7592026315010445 77.51717941408943 0 0 0
2780 1 16.25931099010532 6.073147237216894 79.47467168228066 0 0 0
2778 1 18.184430852634357 5.723189822350834 77.53227045148115 0 0 0
2779 1 18.224873077858113 3.7291108279491847 79.43589389472491 0 0 0
2781 1 20.078858905117414 4.047034775469331 77.69136728301115 0 0 0
2784 1 20.523017262855518 6.015405825266188 79.70977813456904 0 0 0
2761 1 24.301476872154787 3.8878410950612476 77.67457529442561 -1 0 0
2764 1 24.471835596852394 5.836698335415015 79.60263944833896 -1 0 0
2782 1 22.153430727230727 6.223768799112252 77.91420103354014 0 0 0
2783 1 22.379548914974187 3.970573607488511 79.53742760713148 0 0 0
2786 1 1.6651036276056281 10.40498702258698 77.8833080025547 0 0 0
2787 1 1.7029228579348772 7.9875325173768115 79.70539386374055 0 0 0
2785 1 24.505813352537032 8.348037991074522 77.96323729696987 -1 0 0
2788 1 24.4287371921928 10.222680456435633 79.909837954859 -1 0 0
2789 1 3.4464869961366653 8.000281961855713 77.5697767367752 0 0 0
2791 1 5.908213207372059 7.324572174007916 79.94994053233104 0 0 0
2792 1 3.713668866645196 9.81231049948676 80.00163135924994 0 0 0
2793 1 7.72594783883363 7.517680109131951 77.59279264470533 0 0 0
2796 1 7.315844602703892 9.798618522489292 79.54994316367282 0 0 0
2794 1 9.515075138461782 9.871138514915094 77.73920053384519 0 0 0
2795 1 9.671650020804492 7.5315396275239035 79.48742420039247 0 0 0
2797 1 11.79607583473377 7.88228033947102 77.88394782392093 0 0 0
2799 1 14.185676478748304 7.647827182094276 80.12327018262535 0 0 0
2801 1 16.101936120623442 8.081854062199959 77.47566133583236 0 0 0
2798 1 13.929515168129083 9.753233669186193 77.68321861991963 0 0 0
2804 1 16.332024579973833 9.922273914859282 80.0711739886417 0 0 0
2802 1 17.974512089737566 10.004771490700334 77.88468484006772 0 0 0
2803 1 18.32176692302683 7.6636381338212285 79.53272701404056 0 0 0
2805 1 20.281044095043285 8.108586897012579 77.7994349452551 0 0 0
2808 1 20.340200500482204 9.574831734560318 79.92379471212402 0 0 0
2806 1 22.183616752192492 10.145975770752504 77.92985783021923 0 0 0
2807 1 22.387195097815145 7.650156404297581 80.16867280439483 0 0 0
2811 1 1.7511428683984134 12.139772991838456 79.74765223393011 0 0 0
2809 1 24.424430743426207 12.391236457753717 77.89435241518682 -1 0 0
2790 1 5.30598795964913 9.805854091526204 77.8698100819174 0 0 0
2813 1 3.800323472771794 12.244065831864695 77.93767439585659 0 0 0
2815 1 5.928606571767614 12.252311212086987 80.05263706480582 0 0 0
2817 1 7.868197111648039 11.882259161352325 77.72248616483621 0 0 0
2819 1 10.002912325574298 12.138672039622785 79.64493949617061 0 0 0
2800 1 11.902677026745506 9.633208533165885 79.84678482100274 0 0 0
2821 1 12.052825597167427 11.93790125244217 77.39218989841673 0 0 0
2823 1 14.197884970197174 12.172447100638726 79.78020292831495 0 0 0
2825 1 16.056899291404648 11.928635194150628 77.90256257246533 0 0 0
2827 1 18.210093334464858 12.134566403918303 80.01787627076372 0 0 0
2829 1 20.137844546705608 12.300946864480304 77.5062171540547 0 0 0
2831 1 21.867648316675016 11.95445937355863 79.47845989467558 0 0 0
2810 1 1.701947861175495 13.94950543398221 77.80340020168964 0 0 0
2835 1 1.1011541749127323 16.34095356509458 79.67620188644062 0 0 0
2833 1 24.1363382402345 15.983134111922087 77.70336166849445 -1 0 0
2812 1 24.152552486558655 14.030006476837794 80.14316723471721 -1 0 0
2814 1 5.887666464878073 14.197570358507033 77.77268157049691 0 0 0
2816 1 3.5572659698994045 14.179357089461394 79.9998198976067 0 0 0
2837 1 3.672008782132793 15.95469466860493 77.87561682413082 0 0 0
2839 1 5.868743978466531 16.04081925900739 79.82919045205095 0 0 0
2818 1 9.964843811275411 13.987923527031164 77.7262847809965 0 0 0
2820 1 8.285065062019704 14.408496659354196 79.7231397767606 0 0 0
2841 1 7.926789437493001 16.255375672067213 78.17650750638609 0 0 0
2843 1 10.413293040109737 16.03399317530828 79.37435518906618 0 0 0
2824 1 12.160758647532548 14.105671710920978 79.40059445420844 0 0 0
2845 1 12.271995710526895 16.27308782075677 77.40332262278163 0 0 0
2822 1 14.331239989143988 14.208650059875238 77.8826516951097 0 0 0
2828 1 16.253298170144937 14.155873949165164 79.89372312008996 0 0 0
2847 1 14.062588363241868 16.204805244561758 79.98125914095202 0 0 0
2849 1 16.58211113475062 16.13054726228924 77.88192899675096 0 0 0
2853 1 20.392778658198587 15.741583659304956 77.96204482280561 0 0 0
2826 1 18.33821264505277 14.124084024472015 77.94646650554691 0 0 0
2832 1 20.019984828745898 14.178090375751196 79.93097417452478 0 0 0
2851 1 18.235154859995568 15.995451878739388 79.8714201068374 0 0 0
2830 1 22.290313205914494 14.096240950132096 77.46422781292222 0 0 0
2855 1 22.077473936958306 16.14915339492205 79.82227823235517 0 0 0
2834 1 1.8729832766481338 17.92633593633622 77.7629238860425 0 0 0
2836 1 24.131157675999823 18.319213244302873 79.72499408707881 -1 0 0
2859 1 1.7864640342775475 20.239498648532244 79.66218938145144 0 0 0
2857 1 -0.2718865907448727 20.233798025647705 77.6499964615845 0 0 0
2838 1 5.640886610177803 18.266561177517957 77.43092498862556 0 0 0
2840 1 3.6833504248602873 18.097221494156454 79.78947851419326 0 0 0
2861 1 3.793092537932236 20.391608540353964 77.07636816419601 0 0 0
2863 1 6.047664577230679 19.974060077182372 79.53729288047307 0 0 0
2842 1 9.849726272642028 18.191286925818066 77.50017169147672 0 0 0
2844 1 7.951764316012055 18.21731691722 79.973117258141 0 0 0
2865 1 7.754084902607069 20.50554078698806 77.77683558788564 0 0 0
2867 1 9.99513969832129 20.63202088228615 79.36334510861383 0 0 0
2848 1 12.144879704453608 18.209592128877436 79.52250150087066 0 0 0
2869 1 12.175730755549196 20.205703869260947 77.97097797687333 0 0 0
2846 1 14.465120286448235 17.735779964980026 77.8625688514514 0 0 0
2852 1 16.450491763936967 18.25308344080024 79.85514512389469 0 0 0
2871 1 14.410848158297751 20.28414614688332 79.72821033695081 0 0 0
2873 1 16.14967670260124 20.070413402160778 77.99155105449759 0 0 0
2850 1 18.339451623196453 18.12004421476799 77.76182068506196 0 0 0
2856 1 20.363982676493045 18.063840844507354 80.10301418825 0 0 0
2875 1 18.556679981554346 20.082280782066242 79.65945344625845 0 0 0
2877 1 20.336987081838124 20.055572380822458 77.59895877536735 0 0 0
2854 1 22.341201339009565 17.8194668622941 77.74468836493776 0 0 0
2879 1 22.177496486822825 20.384672916193857 79.7785928666866 0 0 0
2739 1 1.147341366970186 0.029999108233574823 79.81820422892419 0 0 0
2737 1 24.22436261109322 24.262039442165207 77.61702485911394 -1 -1 0
2858 1 1.5783220444487223 22.17625055949383 77.89145758689135 0 0 0
2860 1 24.1932683096991 22.403646589001816 79.86419752422874 -1 0 0
2862 1 5.674055139251573 22.513121049307347 77.27852907249378 0 0 0
2864 1 3.8014284459297194 22.349867734761375 79.48860852245525 0 0 0
2868 1 7.884038673126403 22.06203456874469 80.00380776472706 0 0 0
2866 1 10.014941468294502 22.719039374046904 77.47954272179854 0 0 0
2872 1 11.971357248352613 22.458936867120983 79.68649546625264 0 0 0
2870 1 13.932664548954195 22.66625555877316 77.64182788835502 0 0 0
2876 1 16.461784055585618 22.35572366936071 79.67779052944283 0 0 0
2874 1 18.43199375847032 22.369616370946567 77.61932896977495 0 0 0
2880 1 20.75151214202088 22.506040949035146 79.77400860590811 0 0 0
2878 1 22.222575062127248 22.070805464848686 77.70890805953701 0 0 0
2882 1 1.3969281055801175 1.8906897695101792 81.94403794024807 0 0 0
2884 1 24.23037855474678 1.5289988130862566 84.11056805903313 -1 0 0
2886 1 5.335476128855508 1.5922185679678453 81.86550938895184 0 0 0
2887 1 6.3051833876855685 24.47836668592061 84.11033810398943 0 -1 0
2888 1 3.424704807498043 1.6664763808412744 84.00939954738622 0 0 0
2891 1 9.625148646305044 24.44028861811933 83.99854443547324 0 -1 0
2892 1 7.769508017608329 1.9566944559538624 83.83807427138314 0 0 0
2890 1 9.617145900291376 1.6826844291845764 81.52919298989676 0 0 0
2896 1 12.307246699030655 2.083622548913211 83.76843003073319 0 0 0
2893 1 11.756284228338854 0.169738230304378 81.65320568138846 0 0 0
2894 1 14.31238096861073 1.6610809863514322 81.5023483275152 0 0 0
2900 1 16.461353427259773 1.8325152616089078 84.00004421843123 0 0 0
2895 1 13.871913180236836 24.24238773132237 83.40875552555354 0 -1 0
2897 1 16.424376314743505 24.40495221050704 81.81893204931819 0 -1 0
2898 1 18.52522112075703 1.7585436417937694 82.03333402138371 0 0 0
2901 1 20.481020055539197 24.269338756576907 81.91294130151032 0 -1 0
2904 1 20.124636835339622 1.9281597756321953 84.12170754595806 0 0 0
2902 1 22.61538590572337 1.6893809345148483 82.29406143069986 0 0 0
2903 1 22.3608672426963 24.324361915567955 84.07319262592524 0 -1 0
2906 1 1.7731929319412498 6.082637051245404 82.04009663428941 0 0 0
2907 1 1.6652135126488286 4.074467424554043 84.10141050373518 0 0 0
2909 1 3.351405124241745 3.964404546353734 81.89992714732159 0 0 0
2910 1 5.869759385689658 5.849042144795461 82.1837317912986 0 0 0
2911 1 5.839262192450174 4.009971844139881 84.06067192462073 0 0 0
2912 1 3.749716067509831 5.894977831094896 84.00127816317209 0 0 0
2913 1 7.477055935908011 3.5192698754004654 81.71454662065312 0 0 0
2914 1 9.595453262627585 5.924891939229087 81.80154747563311 0 0 0
2915 1 9.821120721393267 3.885593706450716 83.62863725315937 0 0 0
2916 1 7.8563419332330096 6.039071593252622 83.94920946215694 0 0 0
2917 1 11.735891601081052 3.649749198730514 81.44635625027736 0 0 0
2920 1 11.706954432389455 5.996256610651427 83.7864359352759 0 0 0
2918 1 13.695781491619062 5.695930885677931 81.89132673690152 0 0 0
2921 1 16.162096318351068 3.5092402409647883 81.85944928586733 0 0 0
2924 1 16.070188470015395 5.837088540725426 83.62104765648041 0 0 0
2919 1 14.05814877145724 4.028150507493272 83.64763548975067 0 0 0
2922 1 17.981499515244025 5.578921930646208 81.4835526119864 0 0 0
2925 1 20.258068048606724 3.745180980260366 81.63520324679068 0 0 0
2923 1 18.09622039112105 3.933604549146967 83.9209361187746 0 0 0
2928 1 20.1167238268034 6.037653242232631 83.84576685413431 0 0 0
2905 1 24.321902152559147 3.998934934483252 81.93223047957402 -1 0 0
2926 1 22.40961820993484 5.575354290359407 82.06187548832213 0 0 0
2931 1 1.4648689684549314 8.205641289323056 84.0507803117863 0 0 0
2932 1 24.216763213543054 10.152880114812296 84.23196953093331 -1 0 0
2933 1 4.011539550988091 7.8705859923599295 82.04603273757363 0 0 0
2934 1 5.8097036802878925 10.362440106919761 82.22425845995697 0 0 0
2935 1 6.013318226424959 7.8342835611232235 84.22505598031857 0 0 0
2936 1 3.532608487313235 9.634000910754231 83.97474040497711 0 0 0
2937 1 7.705306223891077 8.238005594561425 81.55912737347147 0 0 0
2939 1 10.09675283213627 8.183488184356937 83.82398375625378 0 0 0
2941 1 11.819894563888724 8.003374285616989 81.82694954331316 0 0 0
2945 1 15.81410747298827 7.84339650862233 82.0794225916893 0 0 0
2943 1 13.620126382948595 8.105073213982054 83.87184311204062 0 0 0
2942 1 14.137563980607394 10.206564157134835 81.74998621258585 0 0 0
2948 1 15.894004647000243 10.200921235555985 83.62640449590263 0 0 0
2946 1 18.13908715777901 10.159736087017476 81.90962044785185 0 0 0
2947 1 18.182708334473674 8.168656409641601 83.97691131587956 0 0 0
2949 1 20.097427740603152 7.903269412674197 81.91409757646177 0 0 0
2952 1 20.13064555957763 10.120029873222718 83.5192436042203 0 0 0
2929 1 24.44731921762164 8.25565761270852 82.0348027365612 -1 0 0
2950 1 22.199265845627167 10.055681740911375 81.95395563291089 0 0 0
2930 1 1.6483831960853466 10.23088212144992 81.78888503673049 0 0 0
2953 1 -0.24748978101950045 12.188954868150386 81.93728245978447 0 0 0
2954 1 1.918310258522982 13.928887267644901 81.93633763260672 0 0 0
2957 1 4.107006912040834 12.38715604291595 82.21989524764736 0 0 0
2959 1 6.0068207045324336 12.492136027705413 84.02613593023347 0 0 0
2940 1 8.045322391798798 9.98722203557749 83.84609295476177 0 0 0
2961 1 7.954835399350255 11.823893166567705 81.9219981731667 0 0 0
2963 1 9.859257111958724 12.353684247110584 83.69954616180468 0 0 0
2938 1 9.931306286386862 10.047656862908951 81.45337749634368 0 0 0
2965 1 11.929823458026057 12.442918697078392 81.7931047684488 0 0 0
2944 1 11.982662595920141 10.256028168578483 83.79854535837195 0 0 0
2969 1 16.120409660093095 12.158095694814827 81.92958736337711 0 0 0
2967 1 13.915534679882203 12.162742092061348 83.81383093209517 0 0 0
2973 1 20.396148894512194 12.194080414336781 81.87328700604755 0 0 0
2971 1 17.986892687359365 12.075335354097833 84.27563820453236 0 0 0
2975 1 22.442094096670708 12.537932697146758 83.90644036860454 0 0 0
2979 1 1.4845461766239885 16.34644120522184 84.19372265196263 0 0 0
2977 1 24.45694144988353 16.155735857075154 82.06501955811507 -1 0 0
2958 1 5.942885883575689 14.217828402259206 82.00327342579942 0 0 0
2981 1 3.5673101130889004 16.292229450561504 81.9180940910169 0 0 0
2960 1 3.2350847990252376 14.353330994877872 84.08817612838727 0 0 0
2983 1 5.770961632434468 16.045778794186983 84.10866429157556 0 0 0
2962 1 9.937141016654996 14.072316692442925 81.83090479078052 0 0 0
2985 1 8.018200426100027 16.230131151174703 82.04451189390106 0 0 0
2964 1 7.87546238103762 14.320449837225011 83.98544124612908 0 0 0
2987 1 10.069883572471225 16.14961211833228 83.94012199020362 0 0 0
2989 1 11.490002124240139 15.998410465429178 81.55577998218432 0 0 0
2968 1 12.29599945871174 14.343977687994197 83.91606512235299 0 0 0
2966 1 13.842814444611253 14.271335582601363 81.93799995772936 0 0 0
2993 1 16.006495240649826 16.26579901164501 81.93360173386672 0 0 0
2972 1 15.831515729564748 13.985553314410154 83.88434365940749 0 0 0
2991 1 14.123824707416581 16.281525437550087 84.0277628168749 0 0 0
2970 1 18.201779986734977 14.134467557321475 81.95511312362967 0 0 0
2997 1 20.12398320852528 16.522281726121076 82.10834048446495 0 0 0
2976 1 20.20434572174964 14.247146478354118 83.94736899456531 0 0 0
2995 1 18.512644532295667 16.11207237668613 84.00920362248573 0 0 0
2974 1 22.16710419934855 14.547771423570193 82.08110070505309 0 0 0
2999 1 22.592290509174013 16.394113141842375 83.92281370920554 0 0 0
2978 1 1.8512933336401423 18.07741248652318 81.9274040337784 0 0 0
3003 1 1.620535803220768 20.39537630373856 83.83312517845997 0 0 0
3001 1 24.100334745130034 20.25437411696491 81.63925424127149 -1 0 0
2982 1 5.707353495278842 18.180117614302382 82.05322517263785 0 0 0
3005 1 3.9840488079836254 19.992071973073468 81.63157562823115 0 0 0
3007 1 5.604808186114132 20.28010460976084 83.91208106064968 0 0 0
2984 1 3.9471098432297174 17.981205744676554 84.12249613143346 0 0 0
2986 1 10.087606143645377 18.089144002249345 82.43697512667225 0 0 0
3009 1 7.603624852549657 20.22804515608207 81.59600219150386 0 0 0
2988 1 7.695063086379478 18.67906557298892 83.86741855531977 0 0 0
3011 1 9.778921221809165 20.57360957267685 83.580852249091 0 0 0
3013 1 11.894221506309808 20.371056662024383 81.69653937718238 0 0 0
2992 1 11.950530576245265 18.395993208416535 84.31639896461813 0 0 0
2990 1 13.37950263122421 18.110560480639386 81.84088547576657 0 0 0
3017 1 16.30499170982521 20.498510082849673 81.61251662683125 0 0 0
2996 1 15.882385148246696 18.092287779307583 84.16063790915479 0 0 0
3015 1 14.095963346390654 20.30332521699828 83.405315883646 0 0 0
2994 1 17.952689423641473 18.218281348908683 82.34887922512887 0 0 0
3021 1 20.480533054637128 20.20816996194336 82.08636540696736 0 0 0
3000 1 20.559672275109868 18.281331266893456 84.26587025836993 0 0 0
3019 1 18.42359750023315 20.082651425191933 83.96901185033973 0 0 0
2998 1 22.483743630416612 18.222099000616968 81.71350904837952 0 0 0
3023 1 22.485667683582996 20.3277985656361 84.01278003086844 0 0 0
2980 1 24.515878627582133 18.35783290386401 83.72281521917783 -1 0 0
2881 1 24.536840282982475 24.182889615978247 81.83094537248473 -1 -1 0
3002 1 2.012872183357267 22.189218651521294 81.86525587823294 0 0 0
2883 1 1.4835567269208059 24.42003119446948 84.04747303227445 0 -1 0
2885 1 3.3787580107849404 -0.15953273375698898 81.75984892807965 0 0 0
3006 1 5.644050376540275 22.46562855812376 82.15011017367173 0 0 0
3008 1 3.6967591427371085 22.658029182228223 84.39491514859895 0 0 0
2889 1 7.57564221153077 24.327032472198542 81.63553549776177 0 -1 0
3010 1 9.90282957288652 22.679474281693967 81.87621587604804 0 0 0
3012 1 7.784775579346919 22.135370651269994 83.74201037006772 0 0 0
3016 1 11.957067945256176 22.350965053878177 83.8145392915889 0 0 0
3014 1 14.12179020443047 22.29790784273364 81.59778853797538 0 0 0
3020 1 16.13652444382231 22.58566440714449 83.8270924468093 0 0 0
2899 1 18.282136561573836 24.4299007718706 84.39030259170532 0 -1 0
3018 1 18.239068286028655 22.163560957018642 81.79743479107736 0 0 0
3024 1 20.35597843446031 22.355616080259253 83.84059817788362 0 0 0
3022 1 22.208601935002363 22.292374145728914 82.08796451766288 0 0 0
3026 1 1.8078044562883284 1.7715595280281535 85.94712829774278 0 0 0
3030 1 5.751063030043535 1.9603386661684654 86.15537809972247 0 0 0
3029 1 3.628766713876083 -0.1598971114094108 86.11973731650072 0 0 0
3034 1 9.893842382894007 1.9194011766099757 85.4233449035156 0 0 0
3037 1 12.451191179097526 0.028365626998274662 85.9540464050658 0 0 0
3038 1 14.183924861579554 1.7925460969945828 85.95973697311088 0 0 0
3042 1 18.000329489143567 1.6766447416816046 86.1608335315838 0 0 0
3045 1 20.261133724604562 -0.10587726107992318 86.23776390664878 0 0 0
3046 1 22.175654778744068 1.6515564220877192 86.15194179717993 0 0 0
3050 1 1.5610405699936654 5.998960105624906 86.23090006321395 0 0 0
3053 1 3.6008234659424994 3.621502193671269 85.9933997365218 0 0 0
3054 1 5.926637876245122 5.727579101197114 85.9457006411074 0 0 0
3057 1 8.03749448467721 3.642362613519186 85.94509020602975 0 0 0
3058 1 9.836130375649276 5.774384097600176 85.94324052249526 0 0 0
3061 1 11.971789928115772 3.8394537510999562 85.96328160512823 0 0 0
3064 1 11.536343647266795 5.663695940899766 88.20862815227481 0 0 0
3062 1 14.086920125975245 6.085115790745558 85.8678843231386 0 0 0
3065 1 16.069040695890635 3.9472265207000437 85.84211417926939 0 0 0
3066 1 17.879335276099404 6.054682847216492 85.54968158403099 0 0 0
3069 1 20.180572597246858 3.681931259504469 86.47902645757554 0 0 0
2927 1 22.296057938129223 3.651019700753989 83.94547549944305 0 0 0
2908 1 24.232346126696093 6.006987723901173 84.04416630589517 -1 0 0
3049 1 24.08899058883368 4.057291936749865 86.09621503186226 -1 0 0
3070 1 22.337215707104363 5.81540317621566 85.90599042008445 0 0 0
3074 1 1.5242124998778344 10.362456990734964 85.7164833798512 0 0 0
3073 1 24.3529203611404 8.083820395814591 85.99110185410032 -1 0 0
3077 1 3.631570549016396 7.758660557187682 85.9092388584774 0 0 0
3078 1 6.260081486834806 10.226181917189745 85.97738973889562 0 0 0
3081 1 8.049306599113743 8.473346744223385 86.05503913455176 0 0 0
3082 1 10.03619662059266 10.345622963467951 85.82674428874009 0 0 0
3083 1 10.135999370713158 8.281149238376393 88.16218435381573 0 0 0
3085 1 11.742835069111171 7.976853189142849 86.28948394049553 0 0 0
3088 1 12.102114431898285 10.100923211936047 87.86938034291705 0 0 0
3086 1 13.532269011700706 9.858844863772816 85.8618915010011 0 0 0
3089 1 15.908392088773143 8.215795455564466 85.9260448951231 0 0 0
3093 1 20.157130588314715 8.014386400268846 85.94442122539535 0 0 0
3090 1 18.16532114921811 9.855523428157735 85.97715003587822 0 0 0
2951 1 22.408234165755154 8.006843496831067 83.93515824408313 0 0 0
3094 1 22.05215384062739 10.099404292495679 86.078814003738 0 0 0
2955 1 1.8572959337043131 11.918532560405817 83.76129135922217 0 0 0
3097 1 24.002303891418933 12.224056837552762 86.17618925618565 -1 0 0
3101 1 3.8816542064629562 12.065475605394182 85.28346919014862 0 0 0
3105 1 8.079663487593885 11.85716105106631 85.74215052467578 0 0 0
3109 1 11.921389396393002 12.297205683511702 85.87306285869371 0 0 0
3113 1 15.748622856621788 12.08480193196312 86.04692435284494 0 0 0
3117 1 20.22577905826457 11.991573562255427 85.50757180075419 0 0 0
2956 1 24.540209953117156 14.276261066238815 84.15931751600972 -1 0 0
3098 1 1.6767622680487515 13.613954950566175 86.06287635782931 0 0 0
3102 1 5.578391346270342 13.895983417448186 86.0308434758383 0 0 0
3125 1 3.6880817508170525 16.32758725801479 86.23664676085143 0 0 0
3127 1 6.19609304029686 16.292624810949413 87.76102973332338 0 0 0
3106 1 9.933034629147995 14.209777162438943 86.07403071422145 0 0 0
3129 1 8.011712163222107 16.37889023425949 86.05191851301744 0 0 0
3133 1 11.94107571644606 16.229062115730944 86.33355807741789 0 0 0
3110 1 14.018637438518658 14.344614713241423 86.13291008436642 0 0 0
3137 1 16.22382512246611 16.092174464078848 86.07959633517098 0 0 0
3114 1 18.189047299731506 14.144711151286925 85.75300821574108 0 0 0
3141 1 20.351242442837126 16.172390184050442 86.15889407853898 0 0 0
3121 1 24.252373893475387 16.439291065439942 86.17648797530691 -1 0 0
3118 1 22.234171198399316 14.26338365420521 85.89242608765049 0 0 0
3122 1 1.8731453778940583 18.63705289939725 85.83611691649287 0 0 0
3126 1 5.942174225501395 18.34098825348159 85.90965465619176 0 0 0
3149 1 4.241673884938533 20.37789316125019 86.15301985573363 0 0 0
3130 1 10.107236400439525 18.435813390799492 85.85601214632571 0 0 0
3153 1 7.979808910503648 20.31197592464173 86.01168159448895 0 0 0
3157 1 12.244296545910938 20.367321475123976 85.79398932384986 0 0 0
3134 1 14.170341251629486 18.246223513262088 85.78334468584823 0 0 0
3161 1 16.19979705921979 20.357908768565537 85.87214585424604 0 0 0
3138 1 18.18422501139044 18.510542136079955 85.9931115851121 0 0 0
3165 1 19.969299243141435 20.509506375840232 86.10824822064644 0 0 0
3145 1 24.326015964283613 20.471898416265763 86.00516661552312 -1 0 0
3142 1 22.66581169371983 18.533786580394924 86.08686409126393 0 0 0
3004 1 24.461466320726693 22.195474137100422 83.85312233059983 -1 0 0
3025 1 24.389280801242144 24.417288572159254 86.54890242203078 -1 -1 0
3146 1 1.5146565688616105 22.37988965496597 86.13002817532812 0 0 0
3150 1 5.914788641419732 22.512853075554066 85.99881146895498 0 0 0
3033 1 8.004099023422635 24.403428754824706 86.25546775472321 0 -1 0
3154 1 10.29740085011005 22.436186327565924 85.86042766378974 0 0 0
3041 1 16.142861752078545 24.401557383682384 85.78780561042197 0 -1 0
3158 1 14.049597038035815 22.426405826935447 85.87220001624142 0 0 0
3162 1 18.099347362566554 22.59357588935323 86.00442089499217 0 0 0
3166 1 22.09988181064152 22.425943834192864 86.29019427425195 0 0 0
3170 1 1.432767246983528 2.1344296763614428 90.271213130939 0 0 0
3027 1 1.7636837411267718 -0.17996194957436226 88.19390112473198 0 0 0
3028 1 24.193933832302534 1.8394904631749847 87.90490991772428 -1 0 0
3032 1 3.931240048083742 1.747043491648456 88.46399342753199 0 0 0
3174 1 5.5920088431588875 2.061640602738248 90.45877421549196 0 0 0
3031 1 5.731117888440387 24.016948068649054 87.9839986735138 0 -1 0
3036 1 7.9042310722322195 1.4298999707533757 88.23859984301332 0 0 0
3177 1 8.112545467422292 24.23157437166877 90.13792090056363 0 -1 0
3035 1 10.247692344751961 24.324457665476768 87.86054798802962 0 -1 0
3178 1 9.866019181317824 1.8919299259806772 90.18105330560662 0 0 0
3040 1 12.118426447911887 1.5983953823069428 88.28393625382955 0 0 0
3181 1 12.308886831289342 -0.18804272990499676 89.96983586816945 0 0 0
3182 1 14.24728297472379 2.182019453883212 90.00367445447641 0 0 0
3044 1 16.020797099945703 1.8664964786765559 88.02261771229692 0 0 0
3039 1 14.29117694380695 -0.15320165601439967 88.15379661693008 0 0 0
3185 1 16.23866609966224 -0.2140356509790517 89.890366760702 0 0 0
3186 1 18.180606379897633 1.805196118889258 90.43540417467527 0 0 0
3048 1 19.95148687636319 1.8946866398214297 88.5062686801397 0 0 0
3043 1 18.215304724924316 24.398043579409766 88.20990012626707 0 -1 0
3189 1 20.1626387113229 -0.05031126469228464 90.32816965049311 0 0 0
3169 1 24.444482357287185 0.041033212276081366 90.10888428436812 -1 0 0
3190 1 22.733326943047835 1.9129877147069614 90.12764256070321 0 0 0
3047 1 22.061349433481467 -0.2196536599277361 88.41781955762147 0 0 0
3051 1 1.7142680454456798 3.9596542519131654 88.24208295057461 0 0 0
3194 1 1.7676183024817274 6.395345358776694 90.17297495031383 0 0 0
3052 1 24.14243759658862 6.0308613216077775 88.01154112861055 -1 0 0
3055 1 5.957977826810117 4.159656949784485 87.91935893718792 0 0 0
3056 1 3.747897035285253 6.149263918691625 88.11559367580702 0 0 0
3197 1 3.7840255499918136 4.226885468479458 90.34069525403368 0 0 0
3198 1 6.1146332429093 5.663706013866142 90.23227143926556 0 0 0
3060 1 7.792916372232096 5.8416950804703305 87.75013991318475 0 0 0
3201 1 7.69892147623519 3.684705437896938 89.85205862645186 0 0 0
3202 1 9.685603892489409 6.423283529059266 90.41176976194555 0 0 0
3059 1 9.623532883311022 3.736891395221216 88.31592248522131 0 0 0
3205 1 12.006844380382839 3.473438403089245 90.25698628840684 0 0 0
3206 1 14.04775707031302 5.785186692853827 90.13785319295658 0 0 0
3063 1 13.984362131685849 3.9900544551554047 87.86439176023914 0 0 0
3068 1 15.83936196494066 5.917995195826078 88.03575755261501 0 0 0
3209 1 15.929685103300722 4.1473717349262165 90.02362878793147 0 0 0
3067 1 17.69917564333913 3.6092779840333553 88.04856562513548 0 0 0
3072 1 20.211394296198577 6.127896838042342 87.83567280025953 0 0 0
3210 1 18.296185662896754 6.363265407183765 90.2959482682762 0 0 0
3213 1 20.06756866611851 4.154787879803309 89.85225353011542 0 0 0
3193 1 -0.14212141531673803 4.250224622484912 90.16927586200045 0 0 0
3071 1 22.1766236257981 4.021280639915686 88.04601724808349 0 0 0
3214 1 22.257702949801555 6.2507762900400765 90.11793526844927 0 0 0
3075 1 1.2574880755766533 8.020104308829803 88.16083140979599 0 0 0
3217 1 24.03581803841854 8.223146904227505 89.84519034342183 -1 0 0
3218 1 1.6402231114823962 10.455324406516109 89.89353223458116 0 0 0
3079 1 5.669154828581561 7.913727723814054 87.52313557146276 0 0 0
3080 1 3.4475327814342362 9.37124146929563 88.1341401500635 0 0 0
3221 1 3.786980392697825 7.656976216697687 90.32748373061504 0 0 0
3222 1 5.643098818149123 10.01378600241473 89.86920243964481 0 0 0
3084 1 8.327939823040966 10.085610062826794 88.24946638675983 0 0 0
3225 1 7.550707970634179 7.798051035305731 89.5162951100243 0 0 0
3229 1 12.067521031412165 7.869946331984172 90.18759310433424 0 0 0
3230 1 14.135822145830609 9.684730145955223 90.29933260886871 0 0 0
3087 1 13.934607380186037 7.813880780142991 87.98905834152025 0 0 0
3092 1 16.305937347100958 9.882099349913846 88.22814645782566 0 0 0
3233 1 15.87506212019098 7.75517203604822 90.1608397341111 0 0 0
3091 1 17.999768789119294 7.6846854893569345 87.87501378265934 0 0 0
3234 1 18.31897753142281 9.880495509368133 90.07956541424392 0 0 0
3237 1 20.308458928732534 8.122409366608563 90.1792320551351 0 0 0
3096 1 20.12028505841561 10.249972136347854 87.5997878350182 0 0 0
3095 1 22.495874976410285 8.08462115152889 87.69697090593813 0 0 0
3238 1 22.050963725972153 10.376704694171309 89.71524879324473 0 0 0
3076 1 24.528261881007623 10.158230116259226 87.7095674465846 -1 0 0
3099 1 2.1788911632392516 11.624196772152077 87.87061558154414 0 0 0
3241 1 24.51902290520882 12.219610560132933 90.08069780786138 -1 0 0
3103 1 6.0140954631566546 11.939468179197359 87.89366163240314 0 0 0
3245 1 3.9901068628548 12.019334715962733 90.26555143669529 0 0 0
3226 1 10.053383258424885 9.954363389546195 90.3758768860095 0 0 0
3249 1 8.019062250232084 12.321212710787556 90.26006660206039 0 0 0
3107 1 10.140299406526246 12.137962376953608 88.165014308811 0 0 0
3253 1 11.945087572980931 11.706209844883066 90.08388772859783 0 0 0
3111 1 14.106786914802045 12.04281125328648 88.32889203927263 0 0 0
3257 1 16.264160502390766 12.012665890831373 90.3583635418926 0 0 0
3115 1 18.196029860922216 12.270845132552031 87.48633874878043 0 0 0
3261 1 20.302894236584848 12.44508876068023 89.72976838872123 0 0 0
3119 1 22.366337099922376 12.427441598098975 88.05057188025282 0 0 0
3242 1 1.90051069526189 13.913194730410515 90.08816895608354 0 0 0
3123 1 1.8221092822706537 16.219053207899414 88.23815560206292 0 0 0
3100 1 24.27800150611352 14.433327692383862 87.87759045533994 -1 0 0
3265 1 0.029934180743316607 16.20246493925202 90.15867830285075 0 0 0
3104 1 3.9098477654057078 14.254029297560594 88.17316329239704 0 0 0
3246 1 5.932589498235467 14.136958269264566 89.71095566067784 0 0 0
3269 1 4.004393424350575 16.381860800206795 90.08736718082352 0 0 0
3108 1 8.162663290753057 13.986467876418104 88.00296010647503 0 0 0
3250 1 10.18741764975171 14.276029304885757 90.10883308090203 0 0 0
3131 1 9.985072334063984 16.28736990714063 88.07644650245334 0 0 0
3273 1 8.074546963308425 16.325729563958234 90.17189556064028 0 0 0
3112 1 12.10321437659141 13.97682500696078 87.99153082973902 0 0 0
3277 1 12.09945870656865 16.027640950716574 89.84514260607007 0 0 0
3135 1 14.33596388683021 16.205726518443477 88.17780966614362 0 0 0
3254 1 14.144349686168518 14.05681788227273 90.29043607377032 0 0 0
3116 1 16.182139331821276 13.978813708648365 88.12058021904608 0 0 0
3281 1 16.42049288577534 16.14018969062734 90.0667937469797 0 0 0
3139 1 18.44015878643566 16.516274808329207 88.15819577418824 0 0 0
3258 1 18.362748454238258 14.152465836907671 89.94387360276606 0 0 0
3120 1 20.51963768297947 14.25266135436773 88.0459685787257 0 0 0
3285 1 20.662514795186965 16.423368266871208 90.07383490235587 0 0 0
3143 1 22.579715557165898 16.595160323960293 88.31550839891082 0 0 0
3262 1 22.49820947778028 14.294380531847052 90.03444404617981 0 0 0
3124 1 -0.05391255901445044 18.58083135914483 88.13425416009225 0 0 0
3266 1 1.6292472520831212 18.57543137144243 89.98023929396017 0 0 0
3147 1 1.7349256153544306 20.557044250080306 88.04357409614951 0 0 0
3128 1 3.68792828869077 18.496089818298287 88.02413139529675 0 0 0
3270 1 5.877996377979796 18.192849565552276 89.78433035896047 0 0 0
3151 1 6.002662953557413 20.313474417678677 87.85719015897536 0 0 0
3293 1 3.8497411675113504 20.398088974843187 90.32299894526203 0 0 0
3132 1 8.153801272520141 18.409360741829985 87.83896753713243 0 0 0
3274 1 10.47343772306426 18.26456851293754 90.19225507377688 0 0 0
3155 1 10.005704611869177 20.56932085417548 87.82394111030598 0 0 0
3297 1 7.9608761966309505 20.02057492090817 90.00850781193651 0 0 0
3136 1 11.747998301074931 18.718825202655616 87.90360498752693 0 0 0
3301 1 12.226597109673389 20.547703006200532 90.00668756565699 0 0 0
3278 1 14.223508629638207 17.75186435302116 90.16450233444957 0 0 0
3140 1 16.050403001448565 18.149792583219533 88.36187201125448 0 0 0
3159 1 14.457360889987136 20.291332853927187 87.7638292877386 0 0 0
3305 1 16.21461036724959 20.029992663478424 90.22569640143799 0 0 0
3282 1 18.315324362493712 18.43662801185697 90.21278533686032 0 0 0
3144 1 20.30457555141153 18.193823819420775 88.06532570439903 0 0 0
3163 1 18.133403542576602 20.144504374838267 88.06030094254888 0 0 0
3309 1 20.065855813545802 20.23802081298157 90.14011342839063 0 0 0
3289 1 24.27552327618131 20.32844073023857 90.10504899139153 -1 0 0
3286 1 22.660922410275838 18.302532564114514 90.19846836121722 0 0 0
3167 1 22.28958609227164 20.245760478357628 88.0831588813052 0 0 0
3290 1 1.7406601525332368 22.455801004495697 90.40689554569192 0 0 0
3173 1 3.9600902348791633 -0.08418510026093323 90.23088565139412 0 0 0
3152 1 3.7870911070554083 22.345043061460213 88.43070707848509 0 0 0
3294 1 5.924270275074592 22.065264977191738 90.12890515242314 0 0 0
3156 1 8.11649935994905 22.363999634012416 88.36759955856517 0 0 0
3298 1 10.319668413210152 22.54292058745905 89.91482295724856 0 0 0
3160 1 12.638354476579284 22.680524733131527 88.23866329466695 0 0 0
3302 1 14.419296256900607 22.586464593371975 90.24643373117027 0 0 0
3164 1 16.247575219612372 22.07497125289263 88.08270550347434 0 0 0
3306 1 18.171302110649762 22.495672733212146 90.28568950342381 0 0 0
3168 1 19.903376572925374 22.267660272938176 88.34877339908275 0 0 0
3148 1 24.19784347599434 22.42859461901681 88.18884383461177 -1 0 0
3310 1 21.95349253492696 22.14821630219139 90.21142588949495 0 0 0
3314 1 1.6353026885275441 1.651176432702957 94.61047550191046 0 0 0
3176 1 3.6781922126976543 1.963270219052026 92.49674268903784 0 0 0
3318 1 5.801206113288199 2.0574379094545523 94.41743038368743 0 0 0
3180 1 7.840408424319875 2.189850577774497 92.17616632497845 0 0 0
3179 1 10.253965819226472 24.405256217143997 92.11128744246099 0 -1 0
3322 1 10.366090074075087 2.0414054598289577 94.10647623003318 0 0 0
3184 1 12.349939182371159 1.923495238503897 92.12718071519764 0 0 0
3326 1 14.018873444082983 1.806771125516362 94.36721870855907 0 0 0
3188 1 16.11930800643473 1.8961949465965922 92.02493302978493 0 0 0
3329 1 16.34304118488054 24.356032898120354 94.39140611968526 0 -1 0
3330 1 18.16093410751047 2.297408077192395 94.13629186977063 0 0 0
3192 1 20.60843117177712 2.000870294910225 92.1751927513276 0 0 0
3333 1 20.09400355940398 -0.0908820653028547 94.23698644170778 0 0 0
3313 1 24.431648222623053 24.435468027234613 94.36027194677358 -1 -1 0
3172 1 24.344016854361925 1.7475110206621187 92.39552660229646 -1 0 0
3334 1 22.552887761589098 2.1146052435965865 94.27792182962179 0 0 0
3195 1 1.5892847862072217 4.181997784693669 92.23405503483131 0 0 0
3196 1 -0.26404485570085 6.1817509239779955 91.97340399774376 0 0 0
3337 1 -0.26090729795300793 4.022669762484032 94.45227784449334 0 0 0
3338 1 1.3221931027746594 6.215257286482474 94.30487387233404 0 0 0
3199 1 5.721095404255205 3.8160720602287377 92.54747504998993 0 0 0
3200 1 3.8568857073002025 5.945492199810437 92.29381912203074 0 0 0
3341 1 3.537940324276189 4.185824452219635 94.24292308769199 0 0 0
3342 1 5.936141109219142 5.887332901357455 94.46780322130057 0 0 0
3203 1 9.703409817661079 3.9797692715770294 92.18948623246594 0 0 0
3204 1 7.958628772581488 6.2520463256064245 92.38714817367136 0 0 0
3345 1 7.972224001897988 4.0271986743872965 94.29419148723059 0 0 0
3346 1 9.743497037627161 6.111076414797147 94.46665444914656 0 0 0
3208 1 11.83200384480987 6.128437257294563 92.30561365332994 0 0 0
3349 1 12.2843250500039 3.7378719150646593 94.57470350039253 0 0 0
3207 1 13.964166832338474 4.00362180194262 92.2305083619545 0 0 0
3350 1 14.199490903466039 5.790965179158174 94.48649319231409 0 0 0
3212 1 16.288199503135303 5.945553405912155 92.24503954458328 0 0 0
3353 1 16.07789265600281 3.867220044749245 94.50941379667805 0 0 0
3211 1 18.213827256806134 4.0560860382874635 91.73585057177449 0 0 0
3354 1 18.205227740701567 5.800771273215755 94.19294602879567 0 0 0
3216 1 20.251621397775786 6.04797573407013 92.19399550684318 0 0 0
3357 1 20.1718319530818 3.6972220658045907 94.79615041461079 0 0 0
3215 1 22.308187594585128 4.097475678543979 92.04411986086443 0 0 0
3358 1 22.19422965412347 5.953639423651135 93.98820227275468 0 0 0
3219 1 1.6508396074660154 8.248702250438784 92.12454587222386 0 0 0
3220 1 -0.17777279681839542 10.325293257526464 91.87289837180512 0 0 0
3362 1 1.6192368779046251 10.146911279604174 94.08520815124979 0 0 0
3223 1 5.750592672388157 7.924863652282198 92.29003491895077 0 0 0
3224 1 3.721372879051854 10.005379785065077 91.99356786327917 0 0 0
3365 1 3.8640523004991367 8.230911375800604 94.28801457754594 0 0 0
3369 1 7.781272272545808 7.747735299261644 94.33763899947138 0 0 0
3370 1 9.971328217004544 10.241991989198716 94.11124144532178 0 0 0
3227 1 10.14559623753499 8.312865308846042 92.36780224832258 0 0 0
3373 1 12.17389329581252 7.87477077038954 94.15033810371692 0 0 0
3231 1 14.383632253169926 7.877119390453403 92.24575218303211 0 0 0
3377 1 16.142335176618076 8.204721428620399 94.27529519740526 0 0 0
3236 1 15.917955253619676 10.179567671334357 92.12385687446253 0 0 0
3235 1 18.026262908675925 7.942146442090706 92.19148612212902 0 0 0
3240 1 20.20166727987089 10.141069940029187 91.82522874046288 0 0 0
3381 1 20.16554106990614 7.818324579515112 94.28776794600608 0 0 0
3378 1 18.66821589038159 10.20007908671999 93.95003886144431 0 0 0
3361 1 24.22685706367384 8.4781691439036 93.86565601041617 -1 0 0
3239 1 22.179251213307452 8.02328402005676 92.01010585389848 0 0 0
3382 1 22.465598891760322 10.271291022827773 93.77132743968724 0 0 0
3243 1 1.7002526967298328 12.303439073804114 92.1668168573741 0 0 0
3385 1 24.454995172315108 12.229121342117681 93.91008351188593 -1 0 0
3366 1 5.858436857846305 10.317484127264523 94.1144930215775 0 0 0
3247 1 5.658169730447535 12.329163583104739 92.14442965388255 0 0 0
3389 1 3.6450733146271923 12.104719296645605 94.17186156957294 0 0 0
3228 1 7.937037476606589 9.440226692661527 91.86772685660172 0 0 0
3251 1 10.216624278604986 12.027873387291022 92.01903025556574 0 0 0
3393 1 8.175587346233987 12.01694534230532 93.9627059823365 0 0 0
3232 1 12.130953700790887 9.862270645428234 92.25334057815643 0 0 0
3397 1 12.366767032390182 11.77700786883931 93.68337691481858 0 0 0
3374 1 14.10342340956337 9.85644318668824 94.20524622412215 0 0 0
3255 1 14.216193355778353 12.061515759353364 92.13156550593968 0 0 0
3401 1 16.494053296089568 11.948683972446124 94.27734245897031 0 0 0
3259 1 18.60427617879577 12.19551486303556 92.21402705583758 0 0 0
3405 1 20.518295649619773 12.252638146796848 94.26614722950877 0 0 0
3263 1 22.27570293828596 12.208494841949975 91.81921871132113 0 0 0
3386 1 1.8034699586300977 14.20407393080762 94.23121835240462 0 0 0
3267 1 2.0355874539466132 16.267990017095535 92.47213146773716 0 0 0
3244 1 -0.02515442750600788 14.383865330870174 92.28984115623302 0 0 0
3248 1 3.97449292983009 14.183521793086213 92.07698290187885 0 0 0
3390 1 6.179904932925444 14.189567581163605 94.46664612229092 0 0 0
3271 1 6.1676909117513645 16.20828698589597 92.20134881367122 0 0 0
3413 1 4.133966485951712 16.20639284675251 94.08701862024415 0 0 0
3252 1 8.140550141206024 14.220517033821256 92.05771914236612 0 0 0
3417 1 8.28969840914765 16.107761255149896 94.09862620235457 0 0 0
3275 1 9.928809316794158 16.375184762419277 92.28577615144549 0 0 0
3394 1 10.229189052380196 14.126289993706616 93.9254897858133 0 0 0
3256 1 12.392718967192751 14.12053472160679 92.2178082684561 0 0 0
3421 1 12.073839066251452 16.14513824997752 94.40899669632894 0 0 0
3398 1 14.3420358922503 13.845596475017379 94.43528887570811 0 0 0
3279 1 14.099682730200225 16.01262746947357 92.45864732039122 0 0 0
3260 1 16.23673716101385 14.270746832039372 92.46001133513373 0 0 0
3425 1 16.127511070051625 16.310727593285378 94.49452660761204 0 0 0
3402 1 18.27743345110521 14.180898015283578 94.42790206718956 0 0 0
3283 1 18.392176864050896 16.27273320580749 92.11617623575623 0 0 0
3429 1 20.651586812277024 16.405350411764637 93.95218169934311 0 0 0
3264 1 20.346969880183842 14.184740366288501 92.1892410734526 0 0 0
3406 1 22.682041436890813 14.407866854036609 94.64427315534681 0 0 0
3409 1 0.15281734973971428 16.25929485971372 94.39677433151365 0 0 0
3287 1 22.664591880996397 16.352474889627853 92.3112811251749 0 0 0
3410 1 1.7655533654061997 18.341960196798016 94.50262191509614 0 0 0
3291 1 1.8061505277716807 20.40466931795604 92.30247456508033 0 0 0
3268 1 0.08813654746575988 18.198359697349023 92.18758019250842 0 0 0
3272 1 3.881990315079393 18.207055824403405 91.90364934136609 0 0 0
3414 1 6.101202549536517 18.171601793656095 94.58890077065186 0 0 0
3295 1 6.053809314490928 19.9593417713529 92.13978395512315 0 0 0
3437 1 4.2217766627594235 20.123440079284293 93.86113233756085 0 0 0
3276 1 7.937513995249416 18.13348048496896 92.01225757581742 0 0 0
3441 1 8.509168830216362 20.406199757194308 94.11017931468095 0 0 0
3299 1 10.727782026538483 20.31752856067902 92.16208320290286 0 0 0
3418 1 10.103290548355353 18.392548298750903 94.32153028912681 0 0 0
3280 1 12.334699528286475 18.064302963742737 92.35040317741942 0 0 0
3445 1 12.077665484868062 20.408635439780344 94.29596968435777 0 0 0
3422 1 14.043664306528218 18.333531651090603 94.49318946021488 0 0 0
3284 1 16.27626917961424 18.25310222032291 92.17254373784061 0 0 0
3303 1 14.106366465256254 20.145421206226764 92.05033348309604 0 0 0
3449 1 15.881502381645829 20.464122368301993 94.18650459142727 0 0 0
3426 1 18.234742513123045 18.58355095057538 94.45905902812379 0 0 0
3288 1 20.18685497504932 18.486442699365387 92.05248011882325 0 0 0
3307 1 18.278229375005886 20.512897927883806 92.18853707797011 0 0 0
3453 1 20.835879452982724 21.024767095630555 93.9132279419468 0 0 0
3433 1 -0.2343050608347774 20.48424423646062 94.9029524245088 0 0 0
3430 1 22.507503071185624 18.495671084117056 94.54082075095411 0 0 0
3311 1 23.19924696878813 20.33833959744801 92.30009597227979 0 0 0
3171 1 1.7908922513440544 0.0659456289134816 92.09106423140885 0 0 0
3434 1 1.4520754501514945 22.47493537710918 94.16617106897219 0 0 0
3175 1 5.970754693631203 -0.06381660068130912 92.46310895026868 0 0 0
3317 1 3.955980514320988 0.1992780498309143 94.23087096769994 0 0 0
3296 1 3.823575831070759 22.444913649721073 92.24794471233112 0 0 0
3438 1 6.105989958445132 22.226560810285296 94.13606288915938 0 0 0
3321 1 8.195078583079509 24.33864285165508 94.24681221582755 0 -1 0
3300 1 8.069597548147325 22.098937890411843 92.08449444222856 0 0 0
3442 1 10.19234185478322 22.39764298760855 94.00672134582375 0 0 0
3325 1 11.997015531518256 24.290081520513414 93.99795164651982 0 -1 0
3304 1 12.528650229385805 22.598641349528176 92.1003142127195 0 0 0
3183 1 14.238938219825032 -0.10548740267695637 92.1905288611247 0 0 0
3446 1 14.293008494388548 22.65546409389846 94.41000863932597 0 0 0
3308 1 16.128379439241805 22.049716542161708 92.04272497204347 0 0 0
3187 1 18.34015166072372 -0.04244070619439022 92.26893658792504 0 0 0
3450 1 18.147045911285574 22.32343956962773 94.11657579608281 0 0 0
3312 1 20.248412107970097 22.54464042215501 92.19860979204527 0 0 0
3191 1 22.235058809593923 24.27952779624665 91.95057871906955 0 -1 0
3292 1 24.495865111258304 22.53715654342362 92.03188060983936 -1 0 0
3454 1 22.8158189236049 22.628578530546296 94.0599861250003 0 0 0
3315 1 1.8395236518185594 24.466372899626517 96.17844393101494 0 -1 0
9 1 7.52183827647986 23.9922964084686 98.33451970310423 0 -1 -1
3320 1 3.8130150357133266 2.1740539359157363 96.52669789146562 0 0 0
141 1 20.421078213713876 20.794685918921903 98.06217896297423 0 0 -1
3323 1 9.905540973166435 24.423929432606243 96.33977147324791 0 -1 0
3324 1 7.820016118933747 1.8301379046188346 96.17214011538131 0 0 0
3431 1 22.440825360971473 16.520727795349096 96.44969108021277 0 0 0
3408 1 20.276864968157497 14.181885456150152 96.22604858578534 0 0 0
3328 1 11.870197154627622 1.5523113311005203 96.06786478443243 0 0 0
3327 1 14.011472023766672 0.012690225201991617 96.213478828987 0 0 0
3332 1 16.289336590486187 1.6369464203187833 96.2723601943938 0 0 0
3331 1 18.236939975001675 24.452569872679476 96.66376020911717 0 -1 0
3336 1 20.120452977125773 1.7627779313843348 96.3306921646622 0 0 0
3427 1 17.998608135854866 16.53512014489261 96.22069674999864 0 0 0
3335 1 22.695841013096427 -0.0024120439501238433 96.11666309882533 0 0 0
3316 1 -0.12834991354624886 2.209379414870992 96.66960710461125 0 0 0
3339 1 1.7371749346267795 4.131456768714511 96.20281520592178 0 0 0
85 1 12.358972833434354 11.95200441735394 97.78531719633112 0 0 -1
3404 1 16.192836478106663 14.045676910839369 96.38459775884355 0 0 0
13 1 12.072458701451513 24.298186935976997 98.15793407351343 0 -1 -1
3343 1 5.885322882366152 3.8407816862911783 96.6653838555303 0 0 0
3344 1 3.8473015917432054 6.0173411008729305 96.44671511814697 0 0 0
82 1 10.331331900075885 14.058515221692405 98.14646992172067 0 0 -1
3347 1 9.881768434503861 4.128193502470858 96.22902347500036 0 0 0
3348 1 7.883185158531727 6.0681070028677055 96.74950362641289 0 0 0
3423 1 14.227541412878535 16.093079406253988 96.36230108206279 0 0 0
5 1 4.176768834560708 24.072657851453542 97.97933150583808 0 -1 -1
3352 1 12.00734663196728 5.967550361115431 96.25057142932914 0 0 0
58 1 10.08456059094527 10.528115699307111 98.16714358695108 0 0 -1
3351 1 14.377139177681615 3.9700094052118065 96.41215230420327 0 0 0
3356 1 16.069351116121325 5.914768887759631 96.71412672966132 0 0 0
3355 1 18.08390526872293 3.9099595850124773 96.49188889610532 0 0 0
3360 1 20.403662387006335 5.82032127815272 96.15530785148529 0 0 0
3340 1 24.01755463559242 6.399499629867803 96.20722834287488 -1 0 0
3359 1 22.407365476306175 4.104589430123236 96.46194537578417 0 0 0
54 1 5.864152551246924 10.047936914885721 98.28101434476014 0 0 -1
3363 1 1.844191367222483 8.321828770062456 96.40921901262111 0 0 0
3364 1 24.34756691021977 10.024893172149268 96.2370704144462 -1 0 0
3419 1 10.030259180022123 16.116083601549718 96.43607512386808 0 0 0
3415 1 6.067306603014847 16.16323689987554 96.45191767505948 0 0 0
3367 1 5.8019688965041185 8.16934142928035 96.0934630865525 0 0 0
3368 1 3.791006681275242 10.005295821334167 96.55513743904051 0 0 0
61 1 11.872384318219202 7.770242653811267 98.12695007299837 0 0 -1
3392 1 3.7894682510989677 14.111174670549206 96.50392598515116 0 0 0
3400 1 12.328873411671594 13.988934656553026 96.10308977283377 0 0 0
3372 1 7.953950003701381 9.831047221303896 96.16508618435891 0 0 0
3371 1 9.924927786826851 8.074866176111462 96.17465458542864 0 0 0
3376 1 12.077577691678552 9.636063885448332 96.08244922175936 0 0 0
86 1 14.122517677431464 14.03391779534823 97.95465825753058 0 0 -1
3380 1 16.361345054919447 9.814620869089072 96.42524398759596 0 0 0
3375 1 13.887997715893631 7.766560175098907 96.24379457798416 0 0 0
3379 1 18.059848606758273 8.068362073718664 96.16533574193278 0 0 0
3384 1 20.177380105638726 10.101568975390785 96.91029697970492 0 0 0
3411 1 2.1387776876204923 16.13327415372886 96.25358380656937 0 0 0
3383 1 22.073102726017964 8.40108113108776 96.0670546747583 0 0 0
3396 1 8.197005432931187 14.181934456281564 96.38770526280342 0 0 0
117 1 19.759128418764426 16.40317842725576 98.0928213646334 0 0 -1
3387 1 1.8149112444347941 11.71541971421706 96.13924311452618 0 0 0
3391 1 5.902944451298559 12.160547483544452 96.29826153512688 0 0 0
3388 1 -0.19723111008550107 14.0101310370244 96.36125962000942 0 0 0
3395 1 9.875836952843239 12.222099033668863 96.00872809151949 0 0 0
3399 1 14.581938410089498 11.853541576759781 96.14225518648497 0 0 0
3403 1 18.438356115840158 12.161762413706407 96.48433568072996 0 0 0
3407 1 22.117486727901827 12.170207214975795 96.4061220970896 0 0 0
10 1 10.469530290143819 2.2744819342645815 97.95867113383196 0 0 -1
105 1 8.05010679934901 16.10712841161398 98.28764169470287 0 0 -1
134 1 14.38721512028124 22.75577141015082 98.10138359699376 0 0 -1
14 1 13.955076407715577 1.7946171493717409 98.22492073574264 0 0 -1
122 1 1.731362929736691 22.11556371506906 98.2953186719538 0 0 -1
118 1 22.03706810807337 18.43365463095909 98.1890168954796 0 0 -1
130 1 9.825086235561397 22.585047677899606 98.11726288689403 0 0 -1
49 1 24.212544942746973 8.052594755543689 98.23881652022645 -1 0 -1
89 1 16.298789139678867 11.948123548209455 98.29983812539263 0 0 -1
109 1 11.893124925156004 16.349053231443957 98.30131076301228 0 0 -1
133 1 12.051434633345304 20.405897967694944 98.27133394937093 0 0 -1
21 1 20.592638095445494 -0.18142619229788118 98.32311086110408 0 0 -1
142 1 22.86494024377837 22.495261747753943 98.31731039867782 0 0 -1
129 1 7.955970477778987 20.39370416909298 98.29531647624924 0 0 -1
57 1 7.863327385653088 8.162785323805823 98.18967388225674 0 0 -1
18 1 18.281252124011843 2.0102409027659682 98.28615534293569 0 0 -1
73 1 24.375908687665166 12.20781084411238 98.26440238467717 -1 0 -1
94 1 22.319354275208475 14.340808049695436 98.29690539372365 0 0 -1
2606 1 14.213190923697775 1.6526996628731054 73.5572337724242 0 0 0
2693 1 3.6027456119750334 16.119360587108584 73.46687968878452 0 0 0
2601 1 7.978313936359557 24.141313850163726 73.64138439949157 0 -1 0
2614 1 22.534762513784493 1.5866413497611798 73.68017148308223 0 0 0
2698 1 9.72192801265952 18.200963989011413 73.89306626913687 0 0 0
2658 1 17.796109019825202 9.649274530895962 73.64505123043023 0 0 0
2594 1 1.6533895606191156 1.5934513215434203 73.53120632822485 0 0 0
2665 1 24.181073758051582 11.98534063291499 73.48281566051347 -1 0 0
2626 1 9.738530877937542 5.931818897374146 73.49365112766112 0 0 0
2609 1 16.346939815947444 -0.10574231926140874 73.55822239432119 0 0 0
2646 1 6.095692326124563 10.241615030243906 73.57032493015448 0 0 0
2654 1 14.32760342598508 9.424825985463405 73.6920176458224 0 0 0
2593 1 -0.20916508893387198 24.21472578284738 73.45695865581813 0 -1 0
2721 1 7.879530271256247 19.960844585758984 73.50973366950437 0 0 0

Velocities

3 -3.2414578788076738 6.251402928846906 0.2907719820645485
8 -2.2337139385950917 -3.1496842224731654 -9.852880306806437
7 5.7191339713095575 2.4751232496748834 -10.389953905537897
110 9.121314546150987 -0.7935353064999154 -4.827463592641042
11 -7.079161003717701 -5.456850027799025 3.0431296512277135
12 4.160860278024793 4.701005495767881 0.030296791098991138
33 1.54289994887863 3.8536570466035975 -0.2557801463358443
16 -6.959333909056735 -2.056439314127829 5.706502397709375
20 2.847070977621251 6.392225969624821 -5.081148631543492
24 -0.14079424824230818 7.651256996870146 -1.0323913383834769
78 -3.185378872358489 -6.066086588775841 -0.9971521095813919
4 -0.2196474129051574 0.6837468497837612 -0.18434461230146965
844 7.714665149303068 1.7535625954683889 -2.946138432551797
25 2.0408310811741197 -5.559707461830038 1.5004838853409486
27 -0.467873439464935 -1.9494031643652039 -0.9539728464447279
31 2.7854390680789827 3.1916806946766796 5.767541404167514
32 -15.191183565356932 0.7064357834448356 -2.592433789592233
35 -0.007361353179224451 -6.715067885395965 -5.531247836694385
36 6.00255734146781 3.1188681682124275 0.7709199170720379
40 4.064906516510956 4.642164646533727 -4.978797438190504
39 6.482240524824039 -0.3371896105499609 2.2090990668942934
44 -7.066997640066393 -5.935249858467866 -1.4480486108038666
743 4.4753722877663416 -0.47375086807763145 1.4208511739588794
106 6.033028121445754 1.4852160098618483 0.3164305547810102
43 -3.175648042636144 5.242581421405549 -8.467889904851264
48 -7.716183678209843 -0.8358439833910948 3.343049538306229
37 6.830618856768162 10.65366864546067 -6.468551882085922
41 -8.576853682632636 -2.896230673000962 4.240564452181848
28 0.1670586347503089 -3.560876158646712 -1.2359669686160777
47 -3.8204092693268064 2.2604145303218006 -6.198308328948273
51 6.472031353355326 0.5428703651110117 -1.3610731801534186
52 -4.760385626672407 -6.507708186130416 1.0982076587684688
55 -1.978581886738822 -0.7382555519452986 -1.4605976240907625
56 -0.34383759093094746 -2.623839416329671 2.549938570634857
59 -0.861013527888827 5.817589668038886 1.409895276906776
60 -1.7728235306494082 2.8159542566440163 -3.968904340649899
64 -4.343657396553146 1.4306513587278091 -0.45016208143939934
63 -3.0098140729533536 9.71325126483064 0.5333707494578065
68 5.109955009781956 -0.9289437136945613 0.24552784609965939
26 2.9185475237801684 -2.866317232628061 3.1123376733234385
17 7.540460857401275 3.806931616547677 -4.037095533728004
67 3.663606100457838 -3.297968968398079 0.7196444120819673
72 -4.212813420574501 0.5575965681719238 -1.0899544648341692
97 -3.7741438011356183 5.26071987622391 -5.020678827994196
71 -3.4932066896729532 5.1208374844958655 -10.682231262926729
75 -2.9267197216037184 1.3804497996615273 -4.050941635925172
79 7.359735347973608 7.798840604124606 -5.855404444692135
83 -2.415637034050984 -2.2992115912998283 -7.843829926779828
739 5.73836203981755 -1.7824050170874401 1.6719204776105923
864 1.8675708782413798 6.426114827737445 -6.036386313458331
98 -1.710373654182184 9.114998079838108 -3.6884172602657324
87 -7.068201087091208 -5.23787544192983 -0.11705833681490574
91 9.174480326687936 1.105640663053267 -0.9237062946051149
34 -5.712633918288652 4.9760972493925895 -2.6769317060283746
95 7.338152462581466 -4.376617971570882 -6.033305444442817
99 -2.3388618791474283 -0.3563429861678499 2.965343560755902
76 1.4141019888275264 2.552413732317139 7.25959910920689
80 -0.19927152057537753 3.862127187196423 3.352651194021222
103 -1.534323363366056 -6.997988448926836 0.14614774613347983
1 -1.959810896045973 -1.8629752336974834 -5.8991979439
84 -1.9285359593667788 5.130044491405522 -5.260875107612306
107 -1.4801096286386648 6.817777202610288 5.4453024380680795
113 0.13229746280992521 -1.0825455193371851 2.2906839487799284
88 7.4498064319984225 3.026175182142453 -5.067648259130499
855 -0.5895326177150543 1.5056933371888999 10.130470970855527
836 2.030981846993276 1.109094361872787 -11.079629191710291
92 1.2845496253446265 0.3739565988419394 5.4508307807479435
111 11.032609185011266 1.040052062146484 -6.879750473442034
96 -4.885899093624627 -3.76344862316621 4.590625703904413
115 2.66733652969431 -11.515461087697833 -5.470162912530688
800 0.7803374338584648 -10.651840540274893 0.6151918505826698
823 -3.392790889032118 2.706621900593959 -2.4084136111226395
119 2.862888227129491 -0.8205181914030851 -7.79276307234673
90 5.218799720157309 4.206132007228182 0.3417476564544876
81 -4.652700241414812 0.15043412982365284 -2.230383823290228
123 -4.01852166568423 5.406280245597241 8.52483897098504
100 3.3893196728969444 -3.2080759246459865 -4.504827110463763
847 -7.686933681523822 -7.326002023854613 9.549521700001158
104 -7.048207312290773 7.502577260118224 5.85893916050935
127 0.8621191505679693 -2.800413712955905 2.5815466721626583
53 3.41687042914381 0.3037840486914029 2.44806814609666
860 -1.2117599711233777 -5.257987203273359 6.130422915343094
108 7.671578475408423 4.455907516139122 -0.6367148941530639
131 4.929721241693528 -5.782115722983989 -2.1171742500134076
112 -19.430360815055533 3.6980202766219756 0.6794067977881288
863 2.8628741472741384 2.5905729692449038 -0.9605770621065132
819 6.22080924516331 1.5834740735068853 -4.947896990388241
135 2.589215315613828 3.267772187508987 13.776747049969744
116 11.42160241464079 -1.358237567214208 -0.8342387772509688
38 -6.378569603974983 -2.8836814366283754 -2.4541358761766054
120 7.38023208958614 -10.403277545854621 11.146220118568213
139 -1.5424209679935765 -0.4304587370211197 -3.010844108798449
735 -2.771581811975864 2.5366572077491814 -2.1175214813335614
815 -3.55218740240778 5.147982649179563 7.856555196309886
22 5.971997204137799 -1.018928647042882 -7.226943299030945
143 -6.357377108691731 -4.006778136077497 5.864475844774143
6 2.804827884517009 6.614417557822964 0.5957093279786502
128 17.865238128822988 -5.2859507687409195 1.3461725352911864
102 4.013776940521352 -3.9706000838026947 -2.2176015655078247
132 -2.528091067156299 1.5675344847658919 4.373088326209409
136 -1.1611264359036846 -6.484477133370745 -1.4354195739366327
986 1.5150499608166375 -0.31158586139263295 8.418953792866107
811 1.7746397421856321 -0.3433674570891349 4.006866756000298
15 5.473271285958333 8.729513632412901 7.14143969317831
140 -1.5780581982547193 -4.253540251929384 -1.6251646445960872
19 -3.3277566571728627 9.768960029735494 -4.1157904378058054
144 9.81849091202427 5.8891855539218945 9.544526906225432
808 -3.742659094631524 -0.3041707860447515 -7.802362733717728
856 3.5517970219189423 -0.6457121273197225 -2.519473585966522
124 -1.154036201445368 -8.013922561119061 -7.112756483306403
23 3.2840160774123652 5.936248245159785 0.44911736334644625
146 -6.712265499632308 5.295303269730973 3.247967869643641
145 4.942415475155352 -6.768590471374619 -4.396156333238915
150 3.526771713373081 0.29600243169231333 9.638242836630578
152 -0.1320746709930157 3.777717385340813 -4.616494703578501
154 2.9112237310483073 5.534522840501774 -11.568839973082481
156 0.23904552353542366 5.739107443368416 -3.4019819051365303
160 3.3655079598669255 6.548873872904086 -5.444618561677054
158 9.893668656200159 5.489223521971267 -5.760244406391113
164 -10.034201774273289 -0.757831046093722 2.326847123418207
162 -10.475929405800686 9.298110081089723 -0.6563035631351393
168 -7.306686543471284 5.370221924555695 4.043886147678278
148 3.779296771576614 -0.05714330344705216 -2.9737971616714907
166 -8.257534959406305 1.4664403125373158 -4.253251579357132
170 -3.6455625463100185 -1.50097948765852 3.329848133954296
171 7.892779441304054 -7.757113032974208 -11.42186938409192
169 -6.27177522198854 -0.6910072239142964 12.060359856917122
173 -0.471935652979962 0.2671164005451265 -5.384584776682242
174 2.9045944054227077 -10.192030464978146 2.4115155834772466
175 -4.41542012734345 -0.35488158442533146 -0.16977756731937255
176 -11.966451838474024 0.7272086645219237 3.4776101754986466
177 1.1946811026138782 -8.780091909342701 -1.870524553607656
178 0.22145478426244525 -0.37964560088686633 0.013922018556817248
179 -3.824342935920056 0.6086862014582541 -0.629581905560151
180 -3.5491923703112174 3.3471084233689137 -1.8991817272070721
181 4.704227302633651 -7.03453630047 5.89684811133885
184 3.4734952805434887 5.036699703651985 -2.310788083474511
183 -1.6192205428688662 -10.120732779189112 0.4072837623001991
182 0.4458597353703414 2.0582922458692896 3.2818878795556707
185 3.852708748489192 8.025227027240987 2.5646605753361187
188 5.612528905934855 1.951790912850968 9.499564504848104
186 0.6357317497059137 -11.168821930285889 -5.796234098213916
187 8.558659754451817 -5.655999873756116 1.5729401319312886
189 0.8371073980279022 -11.54773642382759 -2.5749660323839194
192 -4.586274059548184 -3.6496437973215623 -2.372057698629778
172 -5.138165953923084 5.915475091079968 7.947177249997074
190 11.099616274539219 4.790222012111371 1.038778920918154
191 3.821146134112266 1.8018965700260923 -4.951094404111304
194 -6.857262369977444 -0.3455500242326597 6.480401782716824
195 0.641355270836959 -3.7536065149315982 -1.6453815445554036
197 -5.506132200386969 5.569612149790049 -4.889786364695095
198 4.762319085235045 -3.9309132938192586 -3.6907041583586206
199 0.5892192774572325 0.7038378516418268 -7.170543219590233
200 3.050609420862537 0.13032041516165782 1.5652269859048635
201 -14.061421932776812 1.5704264975165778 -1.4659406696665012
202 -3.537818713681809 3.220803990572184 0.030099553498399108
204 1.6459987616377671 -4.683567020115054 -3.514601116837491
203 -2.7664109363765266 8.288797692121221 -3.884874164626879
205 5.5155171855796254 -0.2557472429462741 -1.9397948192357723
208 -3.5256857290413866 1.0652075692128282 3.788154193897691
206 -5.228371088947294 -3.2318496113919943 -0.4747291962246382
207 5.925601623310331 10.610594339461949 5.298125888483604
209 -1.226950554066136 -10.895011044152946 -3.7789853296683376
212 2.4563609082824787 -0.9586525161259752 -4.16012712758718
211 3.402808317202589 1.1964224296101666 2.6085298685870835
213 2.796453931228399 -3.31594336199609 -1.2208816646156269
216 5.651317005027908 -4.779911377488109 -0.1414023498430655
210 -8.517944087761999 -9.20342315460946 -3.7999244651883286
196 -8.141068591120588 -2.8985675205876626 5.676723498990207
193 0.8551261717326742 0.11084855823414108 -1.5987402495794762
214 6.092973438575468 -0.09422625312980198 13.205009608669476
215 -4.454836553819515 -2.6740879118123213 1.2327600270269519
219 -1.6922024215141866 -0.6338889786882731 1.6631718131248776
221 -6.340340032693848 -3.507220552902372 4.270727484765882
223 4.918520649723234 0.3607982068839292 -4.528548620005326
222 2.043077439440734 2.8141963211754453 6.12985606475265
224 -8.181671703827321 -7.894475710615882 -4.2640777064198625
225 8.866984752475364 2.5079691855949178 5.557479034442275
227 -9.42357420460124 -11.680523329515522 2.022105813995272
229 -2.3538192774504516 -9.024272871740438 1.7696177092851821
231 11.409651506428427 7.648509576010256 -7.265887832730182
233 -1.1776539510436486 9.575557082501183 -6.560613053028766
235 0.7696618276957535 -10.517287155604762 3.7726791538350533
237 5.828083715122209 6.094812496180416 3.4599748340873235
217 -4.341891022708685 5.094610889013789 1.2680695137809757
239 -3.3021487310139 -0.4750991614060853 0.4953955042564149
220 3.2288217302987112 -2.528396707690253 4.274755735007416
218 -1.4713031126211495 -5.448805569679933 5.1539295160316785
243 -10.053681780998879 3.6921252491741576 0.9821404410306418
245 -2.8456968538116665 -2.6893120883409805 0.6663204364710068
247 -3.8784237514631057 3.6512322045830063 -2.6615435773968255
228 5.593707755302415 -7.809463984397612 1.1274860941510398
226 -0.8258986636298539 8.394354614804866 10.071074705262733
249 -0.16353339325514551 7.826245431961905 4.986783822615172
251 3.8560006613224296 -8.455527426135903 10.386029084103653
232 4.665384591812246 4.86771508059909 2.565702358079514
253 8.037963036487595 -2.385993635552269 1.7333091101307856
230 0.36264287712318977 8.987923524732343 -3.5266157430200282
255 -7.6103364511234295 8.14861467391088 -0.7764864802601772
236 -4.121750665162339 3.983438515747863 4.428822519205669
257 -11.254121571415762 -9.672328668859283 -0.48403963188912935
234 -6.754756845668124 4.690767077296476 -7.175962618089815
240 4.4087578450414835 -5.256465769099288 -1.4202688133055903
259 -2.438630395697444 6.904099000833449 4.869473076786177
261 0.16847181398640526 2.7384529316959547 7.094754878691097
238 3.9971474591397667 1.9915563548389543 1.43893151265222
241 -2.6878482437168523 1.7356350328635686 1.5891388121899428
263 -0.8832064923889991 0.07044841193369533 1.9951953827263595
242 2.948779874581278 -1.2900549487961916 0.35038443520662493
267 4.408557837868129 -7.398895658964872 4.683243877376164
246 -0.18626297985321688 -3.6326411276764703 10.15378219871764
248 -8.992067425689704 -1.3205176736170061 -6.655019333778748
269 -0.4835158645706657 -9.496481556634645 2.672035934266607
271 1.4245050029793431 3.9498784523157133 3.195335455176169
250 3.536318818384513 -4.6037716166078555 5.148132195008389
252 -5.206421271966722 6.651770718068845 1.459736289174823
273 -0.26714218709330556 0.5195052680511507 -5.040003277641447
275 -9.273782108897825 -0.782247870894882 -2.1951085081213715
256 -3.2783062547751824 4.253776282387468 2.663110047774424
277 -0.7078193290356651 4.757080359928172 -4.148724273509427
254 -4.486189122984057 3.582516537068825 -4.783822723232448
260 6.057024581220285 -7.5453875236688095 -1.5763029667869068
279 -11.502195049007108 0.8059699451816654 3.058987776061923
281 -6.187551831549033 -0.2848997312847461 0.054932336304380415
258 -8.39813413422671 -4.611904022067116 -3.3728353924779246
264 0.31132319640945455 6.486612664784073 -7.894727395959971
283 -1.7174268989013108 1.5614733104304717 -8.660977011280362
285 4.451013436595415 -0.17855356233556222 3.7005473035055805
244 -2.2505351845318122 -2.8202760289005093 -4.415251711715322
265 1.7380682285228966 2.7767630134245813 -6.025305251878996
262 16.274482768385344 3.6754616145227503 0.025554678674276646
287 0.9646227273413134 3.476926177390753 -5.7979396948328725
147 -5.16141277275442 -0.7198728678259187 -5.085265692348174
266 8.738631617805098 2.1659835707772706 1.890780970783834
149 0.536209383472274 -0.23858610068830305 -2.073925297859584
151 6.3485003660234405 -7.901883707501778 -13.41420149853979
270 -4.764833892058048 -2.4625857223607612 -3.7186197193250683
272 -5.0276378321103214 -0.378353090352815 -8.586214800828873
155 3.0463394733496987 -1.2946813679478588 -7.793544125447486
153 12.135823422907306 -3.0846631715309094 -1.3460443094615941
274 -4.89294313139832 7.698818479066175 -0.3999642967190652
276 -3.562128108416071 2.1502840182475107 0.9705714043777394
157 1.4245379803745604 0.07548081197153059 -12.598392907054384
280 -0.6776821273299921 2.065627974954192 -5.562707970567221
161 -1.0208755444493272 1.3237033520145047 3.174729666313404
159 -7.157110822820472 1.6470196172050466 -3.2888319870164264
278 -6.561649810309874 8.827573655906845 2.671447396174856
284 8.073592671259934 6.518537669531246 -0.7804414752424154
165 -0.2678159048686881 -1.5919846984253891 -3.7096011616920217
163 1.6429624730157817 6.0050116735021195 4.847383368166595
282 -3.892152462282298 -8.567752690541624 -9.724683527429182
288 -2.9700209040352363 3.2778079142336334 4.223247602284537
268 4.273663832838525 3.409611782050364 -3.581141185145545
167 -7.930809847521642 10.99101951197864 -0.6532717014041294
286 5.491431638826396 7.116622867732494 1.2071830048027563
290 -7.213128787296624 4.148206980783995 10.758262535234723
294 4.222026892822231 -2.359315078463281 -3.9174689108047764
296 0.11617365371066565 -0.7759665032550188 -11.266132655803808
319 2.3069064431598143 1.5216343348610237 -9.226652676264036
298 11.461094477855118 3.3969850048912154 2.5371221271669184
300 -0.6371829828258273 -3.0512380783502158 1.9136869614054108
304 7.6775988427478445 3.6536138579195963 -6.429122816687665
302 -2.7279316180006195 0.4372654734927718 6.21887537067952
308 -0.9670983051132668 -10.073120156517552 0.26450722985950564
306 6.8363031635162725 -0.956084152674537 -2.3197346320880308
312 -7.638339148820351 -5.5656968152528465 -13.5568332756968
307 2.3204646494238346 2.9286023946601727 -6.335704022855954
292 -5.192472662207703 11.971724541973163 -7.413564374830349
310 0.5904234596593313 -4.5751820355271 -3.7684106213188455
314 -7.425185511359737 2.2221935437828173 2.972297120737499
315 0.19585225616503008 3.4545958850493963 5.388520869541854
317 -13.128909758980457 -5.430170340762941 1.955142656215982
318 0.538574668348676 -22.019254457727534 4.411690549464948
320 2.246035070698826 7.951580199746633 0.7836545578927862
321 -2.5798083115034625 18.13206676568064 8.401645020269362
322 2.318893623498324 -8.7527734363309 -10.545624634010734
324 -4.55988954445606 -0.36292959066451724 -0.5466579821131675
323 -3.1733006680998 -7.71877326872468 -5.049072211178158
325 2.1336918265037315 10.277204582193194 2.0144734955968353
328 -3.3851552340136855 -1.513698706121857 2.9978373881414475
326 -4.813135702764681 -3.449144546156185 3.9845228029468056
329 -9.232431383673873 3.100650317911983 -4.827801235548054
332 -1.2930015343928958 -7.678386098069097 6.246612572958548
327 -1.382198609451133 7.862491322102848 5.5843130898851205
330 -4.212875317976994 5.271105190026654 -5.976260623299623
331 0.3400250789100663 -2.85011827102694 -8.082644969913579
333 -3.502937283207521 3.951742566197971 -0.08760992110738508
336 -4.449427192819085 0.05176503943657627 5.996827669362704
313 -10.456631898105675 4.471387326178267 1.109249894998025
316 -2.352350467453381 -4.182841730900832 3.9421770179500593
334 5.915326310454013 -2.0386425096457486 3.2924469917908574
335 -2.261232833411846 9.46063060385053 6.940413744657502
338 10.550516888167584 0.18953824380797374 1.692822583917132
339 2.8281609060687725 6.640013780164474 -5.9130582796019855
341 -3.708102238274533 -7.8259658644375545 1.6016027192069455
343 -3.0527505281122647 -3.5528488130756353 -0.5564690597251786
344 3.7742081987502254 3.761220446724549 1.6110704442850243
342 5.003905914884899 5.330149944692901 -2.8645060524353885
345 -1.2893694218165088 -3.983860354624782 -0.6848338800947739
346 4.25318756760314 2.4872937865450937 -1.185441658392262
347 6.677103423817344 -2.056400407205788 -2.3217939976302753
348 -1.7267209103996226 6.503896048905054 0.4855622211601728
349 -5.048667329617383 -6.7410208295410605 0.68792663445951
352 -5.047406156655475 -1.190640501021465 4.129560905111739
350 -4.234417501676662 -12.953978691492239 1.7669610919487924
353 11.79731078361961 -8.220179443918001 -1.3326703394324948
356 -3.145135137162475 -0.11536367681428777 2.554354145389334
351 0.25447363906167647 -0.05486927693565043 12.326641274904787
354 6.641703514763042 7.233462011504114 3.825026250614252
357 2.102455624840134 -7.349886659171599 -5.849829392355725
355 5.081361813502113 7.185990926085467 -3.964217980471329
360 0.20316675469343806 2.470155223079894 -5.352072316203862
337 1.512606261219374 2.953037657280607 -2.2635356454274125
340 6.171947638411949 -2.8718276309873203 -3.189877338914442
358 0.30444299241049344 11.033736617869849 0.5225418329560397
359 -4.367884477090592 7.187047597832648 2.2388121393544487
363 -5.302833322465179 1.600275943377886 3.9285461828440034
362 2.388371736981006 4.088595388027958 3.2829039349715416
365 4.728271661313268 0.8407028689368383 -5.9521351511770435
367 -0.4119275035458271 7.830377960415265 3.480095297277743
369 -9.494249498636497 4.517025908921633 9.332128819869284
371 -3.2176100950718634 1.9462287701479288 -1.9102345531594385
370 -9.852263177080363 5.134842220419986 5.914400388312778
373 1.608053931626023 3.4021939458014687 6.435710096364922
375 4.500248445505896 5.806258372234721 3.5520691326919214
377 -4.78217614715828 7.005010319276254 1.8983622438583232
374 -2.2038935037823384 -6.621189995415788 -7.9438291905901295
380 2.127105617527987 -9.3993067631746 -1.3127412495531123
381 1.6165576616538015 1.9768398549528539 5.039276293894631
379 9.532355822974406 3.5638223727944642 10.019272924553015
361 -3.8693888047593936 -2.377656722348713 -5.710621886737606
383 7.61639824974791 -0.8094107627072723 4.30153078657589
364 0.010741030846107995 4.592992292303565 6.35316092611547
387 4.2451539050831135 0.4546581904309597 -3.2119004588027593
366 1.9665653800750713 0.3273547442964047 -3.9620830441478843
368 3.6886618484417286 11.196560468685107 3.9549692902678086
389 -8.428931243557557 -0.4677628756941109 2.4470302435643285
391 -4.691023318768031 4.721316974754886 -0.7400051125133257
372 -9.207942455833223 -4.759548240444067 8.05615332269117
393 6.304961368691189 -5.402622494958636 0.65669649373893
395 -3.7895004510585766 -2.3491318524117455 3.3694105379156403
376 0.019909920400628528 3.3418928713544385 4.7135297315517315
397 -5.492330606892948 -7.707382192774577 5.56942681353339
399 12.242399318226592 -8.431339870229698 -2.7541003065349003
401 -0.738184373895561 2.5377419902055403 -1.6980731871431891
378 -5.190652743563751 6.809483107093947 3.469030679149357
384 -1.4994401300879452 0.9240682973613844 3.99896958113323
403 1.288795811582795 -0.369739569759197 -5.168973781884325
405 -3.195215767163097 2.7588410104611456 -3.960447989528305
385 -6.271938291347799 6.506378064854237 -6.7113182203638635
382 -6.221132051192215 6.80114771306529 2.5569525361892063
407 -4.403506942916535 -3.9507614953794765 4.82142188430289
386 0.9815395486418476 -3.6268264197212265 6.943346328848548
411 1.5265009127336446 -9.308645435019992 6.388551057786728
390 -1.603605642081694 4.983924920888743 6.188923268050966
392 9.210119818401328 -1.8978121267301988 4.467244606705553
413 3.446487024138586 4.607633733910863 3.7304945545170436
415 -2.7966029334346465 -2.0452876094614565 -0.07143579993873247
396 -2.014180823992542 3.403174158873887 5.603726811262368
417 7.392680961588162 -5.948280838453271 1.8598456088180337
419 1.8329944710643855 8.60095594870611 -0.6278175085380825
394 2.4212079327283087 14.476614126793434 2.3123485646632456
400 4.2773598099730945 6.440599532357037 0.17307279011388338
421 -7.379455069615642 -3.579671443409766 -0.30736633997179214
398 11.665075274756266 0.5506755355133603 8.686868216632403
404 4.652490526648812 3.781158146045722 -1.1840507591409937
425 4.952217808750454 -8.16682269716201 -3.7812485434860696
402 5.24914715360139 5.896830123311536 1.1599386796892774
408 2.979971255694828 -2.168450122933391 -2.5033947547363766
427 -0.8032304972685766 -0.42497137183830347 8.002862915265197
429 -4.441543076444504 -1.3083126165046544 4.441854883507169
409 -5.170593118068943 -1.0790878854053194 4.58748662863056
388 -8.860114946826565 -1.1285592846943375 5.339460673161426
406 2.577882839072749 -1.0513599205574835 3.722798500175151
431 -5.4098622941907735 -0.5362380733591695 1.2826153430799294
291 10.44371364101897 -7.402401626637445 -1.7143279197847427
410 5.262123046670196 -5.450233700976437 -9.503176588532334
293 8.97430720079964 0.34636084954059093 -8.696650558097373
295 12.11112715749603 -7.694614640139815 -7.862427412759885
414 -6.251304344852835 2.90562962215919 2.742049201734023
416 6.962651706175088 -1.0647731013964994 -0.16917884658786378
297 -0.6301727276430488 1.4411814940993406 -0.7196422736099273
299 -4.446094335103301 2.0309059361564743 1.7066414968774957
418 3.32169909590467 8.76772024228455 -10.66655272230667
420 3.8567381582602076 -8.218459082214824 6.934293153412596
301 -6.621310129860979 -5.147593447942223 1.4828716440190683
422 -2.087675539226094 0.10035500375850175 -9.206429268408677
305 0.9669205740798407 0.3785745497495667 -1.924560715989123
303 -2.6058267681192193 1.2055819798125882 -4.397206602612541
428 0.7714885216984956 1.8268131665397849 -11.750077950715086
309 6.780248862118828 9.243804124611476 4.5244738116044365
426 -0.3541814839346429 -0.8249176192874653 8.11637345341798
432 -4.211728537634647 -0.7567698636233257 4.461994565623663
289 2.8122668546112974 5.370486085683938 -2.414147909633687
412 1.3319598117274494 -6.779849976850528 4.183411716828087
430 1.2421649718823267 3.086520594689482 2.5086353144530764
311 -6.074617258751937 -6.036727181526758 -13.194655183373337
434 2.252778088079549 -4.257765818604139 7.802038687175467
438 -1.5751159403614676 -2.4040436211240483 0.15480536387538693
442 -3.886689421954126 -2.6833757462981076 -2.867260917716886
446 7.801308349657974 -4.978178036957201 -7.480856519489872
452 -7.721004554658477 2.984539756637344 8.313971104229752
450 -0.41456439032101833 -5.700627456378461 7.2858469436528726
454 6.48763090019385 1.8554081598163574 -3.1723390249346837
458 8.243679019520732 -1.0070651338917767 0.2769076296171821
461 7.5278586295093834 -6.358299177590992 2.0899734216854733
462 1.8106552792954071 1.3018080346394132 -0.20003912167253404
465 -3.771023076839195 0.19888040857361552 3.519876570346811
466 5.326841839796715 4.425911764472125 -2.14740210861058
469 -3.76113224396086 -3.641059646346836 -0.3646768158141088
470 -5.200099598553833 -1.4375656231482177 -5.344245902653738
473 1.867287891755475 2.5297135666846686 -7.159223807615019
474 8.320659104485264 -6.7142767257251945 1.8845802721514233
477 6.77257941724295 -1.2756707499415183 0.28633710567003984
457 5.887783897167457 -5.927421813614178 -0.12526449692960206
478 -7.151037572762808 -3.92498173321681 -1.751144465762234
482 -1.2750213357212445 -12.010941753142378 0.11219779990030879
481 1.1776356774796832 6.167219976625897 -8.98776306117677
485 1.8472893825485794 4.6004129730614745 -3.919969816220847
486 4.829635709030131 4.0765081171649005 3.0529849980935144
489 3.029496069475796 -2.1058600746127776 -5.246629964447674
490 -1.237504243924759 -2.719246357223618 6.055377498962369
493 5.355822677722595 -0.3543187253585216 0.47610545031945284
494 8.307668406561554 -5.244292253520632 -3.571307568172479
497 -0.6474938034066802 -2.2107007953131252 2.3857995423103637
498 0.7489018158196631 3.2409745153553993 6.980196610102268
501 -5.934174575311703 -1.965076913835935 -6.281666988423336
502 -1.4594733065388357 2.2346446449431627 1.6541723793279297
509 -0.4835486702744763 -0.38145812825516157 -11.975208698042406
513 1.6613969162534976 -6.800706884508154 -5.023215801644662
517 -6.312724605278021 -0.5642462916299663 -5.333259983984157
521 7.069049445284867 -3.065329013913035 1.3703158037366305
525 -4.475632158617826 1.0913076811676152 -4.995977612252108
505 6.015708682589551 -2.79734267542452 2.325373706119441
527 -1.37886039332591 -2.7891681371445496 2.252779536325123
506 0.9489036512242022 -5.377189058679492 13.548791675728046
510 6.049528360818162 12.893422103113608 7.298968010509276
533 -3.727568060333308 2.6106216989661704 0.942360047585497
537 2.265656076394523 15.148970784497738 2.0684366876317903
514 2.272941076517838 7.764293562969566 -13.875967009476463
541 0.048587415110943895 0.2131250695454822 1.6035335361464342
518 -11.933863096113337 -1.051128178440492 0.061350668557862455
545 -3.7595789252749583 3.3456552726862876 2.0051329417189736
522 -1.602908136750872 11.436537529979 -4.704640815461306
549 6.46904435199492 1.2688657349261947 8.24024880588189
529 5.137262229235339 9.789241111339411 -15.471879787752465
526 -6.737165858117037 4.593168833818049 5.274777911966876
530 -7.088747542209242 1.9849872510785995 -10.85788061437372
534 6.401734246746601 -2.057413072912799 -17.26397133602875
557 -1.5855159891924808 -1.8765441292687952 -4.774470258566616
538 5.697592947550825 5.62552076361555 -7.323868601595177
561 5.434160850999411 -12.47546612420201 2.4257428726305093
423 2.503044850339001 -0.7247910192779556 3.1203539582039466
565 -4.191938598278385 -1.579399364831977 -14.567734396223061
544 2.8073551148969584 15.891821298894698 4.3792638892938225
542 -5.16184102347501 -10.741841603552512 1.6308756267319984
569 2.1035058022986193 -5.9741235583232175 8.487853761572696
546 3.117242399196497 4.286674364002044 -1.0550256732158096
573 -3.5174341816680594 8.025143791675706 0.3239571876918664
552 6.537991200631662 0.36956752507277685 -3.5480937371534322
553 -0.15529942178448297 0.5172794016754135 -0.46695656869395
550 -7.304536057913383 3.139016402459315 -1.6496365677181153
433 5.5671185185575425 3.3617524300946173 -0.47695229567708564
554 -6.0299265764077985 -1.2335513575215113 2.5226383346246064
437 6.4815922341974606 5.311923692495942 4.64337191793466
558 -2.5393302186760343 6.750358705608458 5.5792358430123565
439 -3.6164456491894756 -2.986323445370516 7.334812729919866
441 4.282981082503129 1.6211647545130141 -4.324357611882311
562 5.370528207760719 1.8292118374745243 -1.9523058810411091
424 0.8429396432539845 -11.073637629699073 1.7862638300587343
445 8.730796739408007 6.245493849566666 -6.013066522986811
449 -8.270922589361273 7.254979570364654 -0.32946564368163994
566 -4.09280595548038 -4.153087566124528 6.264871458572794
453 3.1374223286973693 4.055120660866201 -1.2238599823797385
570 -5.054525672242432 -5.994423014392653 1.922854910400043
576 -4.6435810752093865 7.802066401383013 -3.5724295478068164
574 -0.8854099500087779 2.133712740220261 -7.965338653057217
578 3.510528827253179 -6.105646494244524 4.881544724235647
440 -4.00119090196279 2.312808891017751 9.029352318947701
582 4.1065560683743465 -2.5744782490245224 -1.9567273351028889
444 2.632152361942288 -5.100940531853256 5.777786443435273
586 -8.046458655045562 -0.7992710386661571 0.9228284246523951
448 12.939957426824114 0.918249647742201 -3.2038295429851593
590 -0.4979474512672035 -4.4874191320537316 -1.4342497700921657
593 -4.290155796839593 6.048844761434897 2.971822803451259
447 0.26239483358333554 1.270112942939636 -4.580282860250575
456 3.3184300953984867 4.2432096056431545 8.168814264369761
594 2.0902286034398734 1.2746896285915315 -2.0918402013009247
436 -3.293875092828501 -4.913676572794644 11.666528202084253
577 -10.284474921986266 -5.183802955766265 -9.091618187784759
598 -0.4669646261788159 4.272283586369676 -5.137579112469335
459 5.631643202113813 -3.627672588906975 2.9238401115719133
601 3.2508612281120928 -5.170678265630327 -4.94766631482173
602 5.653430277228132 -2.3719890716694825 -5.469109583727971
463 -6.240240914572616 9.045529748742062 -4.940798836694243
464 2.514995079173525 -6.453780197166866 5.448699036741487
605 -16.206949462001578 0.70873898525063 2.563122423067451
606 8.375996568446771 -9.068447865962803 3.2133837153289466
468 -9.514775728094163 0.5316098494004694 -0.3759561878471907
609 -0.9104059726458117 6.623760299815839 -6.6880630765361255
610 2.8178961322156506 -5.93836407093728 -1.4684276154212474
467 11.19268426753764 0.24116631487373882 -2.9670170433312344
472 -0.6228977697680689 -3.1571832838433767 6.54874723649102
613 7.227900150809104 4.891031836053828 0.8811204201628092
614 -3.5794468904511825 -2.886901167530195 10.732840084150409
471 2.274368403879457 3.8753892134440133 4.728539780164738
476 -2.4884185325100003 -6.13231756778472 -5.712542970670391
617 6.260706229630079 -4.106638709295621 -0.547229809341032
475 0.899627681552146 -5.054875021261393 1.6018100452302828
480 -12.880251618347762 11.596675258800017 -1.3253534186686147
618 -6.531515378255628 1.6005990978647722 -8.80971313262057
621 1.0870900103080023 4.919253470073394 -6.847801659638494
460 -7.840693491983386 2.946650821616229 -5.734765887986147
479 -5.2677989461862245 15.001284447985105 -3.3234291051127354
622 0.9737593655994009 8.714901354190154 -4.384972201678739
483 15.80834624757037 -7.159409376397343 -3.25961973076791
626 -8.741528416319529 -7.900115827170958 11.207877248908126
625 7.53372656695516 -5.7449264836005405 -12.032570807702273
487 8.238002442941346 4.572992384103394 -2.8849504831793475
488 -4.860373205401462 -1.8157545995138233 -12.301051247931028
629 4.2744521295406726 -0.3511354366822543 -4.800729496054856
630 0.6012453693237163 -1.3102925848735696 3.556571637033441
491 0.15890306743123048 5.195601407690604 -11.672966944997142
492 -4.831768868841251 -10.828854180433124 4.542930665619251
633 2.2471596891177352 8.829920873798836 2.070366961400472
634 6.901077433876587 8.16259414989573 -0.8878761975799571
496 -3.3696446397854127 -1.1062429572382577 -1.7773407059937358
637 -0.9358595579015784 -2.884740736493632 -3.249585796351804
638 2.8445686706795383 -2.984964843950042 -13.043767169642443
495 -19.019818898116704 1.5716991728893124 -1.417485939997812
500 1.0899969721483156 3.9177003774092976 -5.082748469621979
641 2.9179695361785205 5.253072180156859 -7.084084492526725
504 1.1971843120805103 1.8273568791132715 -0.3242392362367128
499 6.219586824278576 -2.4204827032618312 5.551047508452419
642 6.16680013769305 0.192391695430671 -5.88953351651984
645 -0.38579058973262503 -5.429497305955186 1.6267123394068779
503 -4.826701413367676 -7.841297625859676 -2.000750836730724
484 1.28773965872572 0.45487468837215267 0.036309563533174154
646 -1.87636094267822 6.722471170425574 3.985582310621079
507 6.4384475182750025 0.9722453638731079 -2.618822573364332
511 7.478647370071687 -3.2931991473828237 -3.089203731086199
653 -0.4682028845650004 3.9179986737121055 1.8993263049561653
515 -2.207679034327078 -3.4464170331297153 -1.0453035677121092
657 -0.7981584234998126 3.883903057163901 -8.594872806604448
658 -4.604475577334851 -3.1382833707626445 -4.477737418358216
661 -11.42425353174437 4.633009569484128 -1.833457313073435
520 -0.9544761333112364 -0.8780492774808955 8.213152459562338
519 0.2909048046013921 -1.4150419712100524 10.708110693320345
665 2.1379030364949614 -3.243974340867001 -3.071796446580725
524 -6.237202348130626 3.1880741364365353 -12.18868505987361
523 -4.912245661126363 -2.1186770385209046 -11.973577781788844
669 -1.6791012588885494 1.1679790146082472 0.3424953996791032
649 -2.06570987108849 0.28799690583591003 -4.022852385173929
670 0.07822543922360772 -7.039617722689599 -5.415696643741507
531 -3.4814088758301414 -11.40732832661291 0.2916258586598832
650 1.2303097779640058 6.961395366797317 -0.37544321746318704
512 -2.404204896907659 5.263327121960865 16.70153317644501
535 16.35060403332873 8.074558372010104 -5.171808522669843
654 -3.3821085302105454 0.6118124192270081 7.799698473559846
677 -3.8360558964318523 1.5669967606357282 -2.3353591610209676
516 -4.548272392037629 1.5095109999858412 -4.4572145849189395
681 5.8479201032443635 7.161562613174972 -4.653089198739968
539 4.0296326489859835 -3.5142412995157875 -4.012954301941767
685 -0.40820910353262907 -4.731105650479372 -2.30348770063237
543 -5.999057068211803 2.4888443854846063 4.287270006349671
662 -1.8812273319791188 0.10564894267799861 -3.3846075616118574
689 -0.46281004657158126 2.517198656541772 -4.272199111429813
666 8.166876749460943 4.954264564024751 -3.6703676165700756
528 -5.753153437385137 -4.44052391034562 -8.411740515047104
547 12.226718301901183 -13.646066306350127 -10.390418974858155
693 3.6205941023317676 6.174719817773896 1.1431952995357773
673 3.2232082598746747 1.0273423507107735 -2.651387974319934
508 -1.3421780549567466 5.439537541782299 4.9271780258766205
551 -12.201545677020581 -3.223654409005554 5.4905919225549304
555 6.470840367866717 2.477125969146075 -2.0898673734978717
674 -0.8726128134871846 -2.0793316201211134 -8.074028956736779
536 -10.6145385961078 -8.838652995237304 6.348274039240446
559 11.42800800133766 -5.10463735547795 1.063280068574152
678 4.3355445397838075 -1.591226562928553 -11.62081621498804
701 5.149245906427563 -4.398145322053991 2.724843220200203
540 4.347241372489194 1.6495286746741316 7.237670129112252
563 7.045789102529023 8.526035136495919 -6.739718067912179
682 -7.575471091080275 -2.6260926734588486 3.0029843981674134
705 -0.47541865047544735 1.8057012371466599 1.2971539309998703
709 -11.32500945236278 4.779700343318688 11.498041856986605
548 0.5786164627097549 -1.673133166175976 -4.736213437628565
567 2.4023968140624445 -8.174617787257695 -0.7938042846093097
686 0.38152619522981845 -4.843112499727002 0.9912056085848439
713 -6.367768847483602 8.369168476623326 1.0197020050345125
571 -3.14947218061418 -5.814610819500443 3.1557758195844694
690 -4.754279811724362 -4.8427213038140104 -1.0429548208287798
717 3.542706286475166 -5.949511411846599 17.216447028198154
532 3.294163361052443 3.4443598805298183 3.23997720891373
697 -5.276449285592955 -8.71798891092824 0.9625540557866616
575 -0.7086163465896173 -6.607034783991668 -3.2915527846953108
694 -1.6892695207851907 0.5433348766193864 0.5085009127569303
435 -12.553626086104789 5.923253623820844 -9.177416294124866
698 0.03223239373220071 8.142500706001185 1.957886467625458
581 -6.48364922618592 3.198394791639351 -9.307363729041379
560 -3.804886233968127 -4.662862454006232 2.7510066138227636
702 -7.558917488366794 4.009486633900334 0.4968433612316183
443 3.200315172330073 -3.2531462156127087 7.0199217764649395
564 -0.434388229530852 9.650961782659078 -0.09010559219366586
585 -7.174988633632686 -2.0292203943250544 -2.374144532311648
706 -0.04214032962153002 -1.0940684820250661 2.7156697609066733
589 6.452672868430194 4.38398011781618 8.423219827676224
568 0.8488466108498646 2.915109070300534 -10.212695145696594
572 6.116536572676477 3.7025877036082666 -1.13430699202133
710 -4.898184463171727 0.13537023068500512 -0.3290728821269408
597 -3.0876414124962515 -5.088171099593634 3.18713092578841
451 -4.847791760068349 0.2851897404796388 4.33952879785636
714 -3.3783505814395633 -2.002938947773904 5.888167476890523
556 9.719916841359778 -5.997401952755679 -11.558776196510038
455 -4.232398090786385 2.5088090544624766 6.45910294083336
718 -7.187644329914857 2.379500469820475 -6.272268967766193
722 11.860104645417882 -0.6398757732162816 -0.9114292315773105
584 -9.755917674217262 3.4646436445415594 9.035324903809242
726 -12.76975938683316 -10.032333681462287 10.896392417496175
583 2.6697321176088886 3.2214482400151785 12.18914375436555
588 6.328817147374963 -5.977740036455888 0.5877777283814362
730 1.476425149798413 5.472040054297133 -8.776042106834183
592 -0.71732739803787 1.3369577929891365 -8.622745099973317
596 2.4157235138254576 -4.8495308319903465 2.8106244392245223
734 2.2152989778791667 4.067256341035671 3.9971512693018876
600 4.460865709298773 -0.547927732656041 -4.808998527823707
738 -2.931586773488131 -0.6419083752670457 -5.590884401589875
741 4.5689119118034816 0.24844600917038512 10.885027009380144
580 -4.92854476416359 -2.243352437029758 5.259465457526561
742 -1.4413561383597344 4.118299045955152 5.903328192590758
599 2.0273346035764384 2.504278740669333 6.9912011314080615
721 1.9703990444678166 -3.912772846892852 2.311223524739763
603 8.97512559128603 0.16941891189762345 10.327773534403104
746 -5.542052160034216 -7.997095630661897 -5.046770197923226
749 2.8002132228493153 -10.514098830956831 -3.6784364643610306
607 -8.28772474071223 -0.4066489945842852 -11.889775595732209
608 -1.011315945919275 -1.1629383298757399 5.735008851515541
750 0.12282983886965815 -1.905187042489771 -2.918197682059289
611 -2.4839773968083856 -3.5651992932114944 7.258413452116899
612 6.451413275919158 0.7135091675912454 6.150230763382736
753 0.551005887587058 -0.8218608897954727 -1.1426227913137708
754 0.860056503558935 7.981825336310743 1.1120805245968182
616 -1.532280637339324 -11.179534523492787 -4.99459329246162
757 -1.0585670097242508 15.342767586471366 -6.290611155598429
615 3.0036289572513484 -2.442448378905746 9.476312623147779
758 -2.08643600786438 -7.728037279619947 -5.257457791303282
620 8.442941586096318 11.091959578333201 -2.02316718050688
761 3.908777445342643 -8.57346637985822 2.806321887938952
619 4.692393511441438 1.073628907565446 2.440025246156821
624 -7.1584579247401035 -7.7421842218827095 9.481636731916137
762 -2.4075887768775903 -2.224363779353592 6.6662849211980815
765 11.347569195059195 3.7227210729250224 8.046549655874117
745 4.105226571332804 -0.1600107903650887 -0.802374157483202
604 3.2395776889463677 2.619013384818826 5.6553932930744635
623 -4.704167564697408 8.383045415403059 -7.451128066677122
766 3.291249081961585 2.209785176255196 5.140623669964411
627 -1.1386215415760559 7.423577744328272 2.383662837090367
770 9.059476546579251 -4.376031365404122 -2.9258233571083827
631 4.766553429030222 -8.276652503774448 -11.978073426154353
632 -10.62913743113705 -0.4324878500143553 -1.936735617689339
773 -6.327166285888443 -8.380119332424217 1.9624965559329133
774 6.967728516755812 1.6207885623987217 6.3626003064303776
636 -5.978105200229851 -8.864372617184326 8.935966039426278
777 1.265605033291438 1.6053963058546354 -4.023302663843999
635 0.03820959584694582 -10.018611321869551 0.4574777305334896
778 6.8719891917203055 -3.089487234042109 3.7154593654689867
781 4.0463058473061375 -9.661378531405969 -0.3470680418196782
640 7.468429775259295 4.868087568772327 -9.52938877308263
782 4.808968650654846 9.597964625836902 0.4020182615351088
639 5.428947826742994 -2.3395701704399214 3.332875620320726
644 -3.864222812680901 -0.22592020236109578 6.527724452604336
785 3.2575857710460023 -10.135697834055698 -1.0723596277948735
643 -1.0794561410821246 -3.245743290208595 -4.937341133308172
648 -8.969862176812955 0.7607685198855823 -2.307400976554011
786 5.618546913496068 0.6178824917718243 3.1655637703507526
789 -11.423637866023594 5.4998119577347655 -10.327524061287809
628 -3.926339180600035 -2.964310101142909 2.138844419416434
769 0.1590820836405645 4.4274579136478405 -4.588864526018606
647 2.792423129135569 3.2680639169244174 -1.596951970859735
790 -1.4074362966815788 -0.8064826608323385 3.710773523458017
651 4.369074546608872 7.757701647507133 -0.955306164384653
655 1.229601067765684 -6.550758861257019 -3.9735043816678712
797 0.9911657880039344 -6.314885784955746 4.505937722160802
659 -9.03409347856202 2.4568232698997456 -8.943403296390994
801 4.3061575056059835 1.951032566088703 -3.2071740707172234
660 -3.2552630006353658 -7.369460889447115 -6.697827188497479
805 -0.39008771637300216 -4.587851675649832 0.4549741229524521
663 10.875848646851226 6.1780498506108295 12.426318285392789
809 -4.589205084124343 -2.9592657364195607 2.1271522762891584
668 10.412356218437457 4.000800258068057 1.3984454494883019
667 -3.3465682393150806 -2.1170075508380326 1.5033798677443015
813 10.96711576501127 1.7355349750828095 -2.1374939096693564
793 2.8563474319267126 -5.0464708315235685 2.205038677591048
671 -4.984482077844674 -3.556380460094769 0.08021877887178881
794 4.242579123981615 7.5388062015055155 9.28675868981675
675 -1.466639373281772 8.428167680226109 1.3233478418127524
656 -6.365409158821384 -1.3596742399237436 1.9376949641800787
679 -5.819294584488676 3.4636520692947337 0.6710653324245169
798 3.0228309716865915 -10.522265696010859 -5.5138540469868635
821 -6.552141175119585 5.446520601956652 8.080036194917783
825 -5.515352225903026 1.66863607072929 1.5571970210783335
683 -8.46411998163751 -1.4842641402199102 9.417281264406581
802 0.728388779395423 3.4268597599722 6.8669001288561935
829 12.78906709267125 -4.213749930332398 4.391154152260371
664 5.4278378496023745 2.2933311915900036 1.2476696808064125
806 1.5589112943531258 2.9233255006995984 11.648921481843525
833 2.5324403204061148 4.511033869178563 -3.652154209057321
687 8.787777726555158 -7.981385236545294 5.050898245558631
672 -5.660439632530242 2.114841390653507 1.5183973974270428
810 2.226080643961919 -1.531593491381055 -7.170278216305155
837 7.385856550388019 0.3954213241560513 1.4745298587944218
691 -1.7191951588981467 -5.693214534477044 3.024164736895148
814 1.5398177822465435 5.853115551681076 -4.803605645260454
652 -3.673407729253258 -1.9261365920216038 -7.062682143093578
817 2.857877399995768 7.316559599341395 -3.1816397587080965
695 -10.18791904839163 2.9510406383987453 -3.428491563820477
699 3.3856408455578433 6.093509680866133 8.566449025547207
818 -1.5336222926012508 -2.770079234740641 -0.11378435105240917
845 -0.20943068549408447 -6.002723934985666 -12.377582500170162
680 0.3959665638844106 -6.131229522765511 1.9256128218260915
703 -1.8210600722329802 0.9383069852128607 4.013192965429448
822 -3.132924912780643 1.098497485389706 5.306578098677249
849 -1.4266988183962364 -3.333588715276939 -3.723649574113974
684 5.109278515550114 1.1191700993058622 2.9581069226929504
707 -1.2604851016805882 6.046706604797121 2.211142777493513
826 -2.886036030414526 5.0907930396841845 -2.9216021232609535
853 0.433439512041774 6.565087622498024 -7.949850861548547
688 -0.457058191630878 10.781382376035735 -2.4846793441721577
857 -2.3838325335901116 -4.09397438601117 -4.927002534777506
830 -2.427643850180942 -1.3007796083256231 2.078465096846669
692 1.666588364444702 -1.4758305969576355 7.4194568576957165
711 -0.21008129544071452 -8.975400962530928 -4.732755077395341
861 4.381860781989678 -2.6932307813912346 -3.5105999455663377
834 -5.218863842553497 -3.5527770164081542 10.084995937252526
696 10.523753693113578 -2.6902617793101835 6.087412945840893
715 -4.766029820824539 2.4606803752453086 2.110342755316872
841 2.8770109818328877 8.048250739847214 0.7011318196269095
676 -3.514423870351877 -2.213018417271792 -1.933093594095302
838 1.9915041104966755 -2.9502792535645965 1.8805395763227861
719 -4.163031183642596 8.997803821597008 3.795277662077446
842 2.6862253931766826 3.116137453299799 4.6686791330578545
579 -1.6552458352938015 5.805834036300308 6.11262206297326
725 -1.806940676807938 -6.429096649537866 3.1040127003023406
846 0.24707705313383976 1.6893921749464118 2.624952717070894
704 0.1279210219259931 -6.415990804143542 0.290286756833129
729 -1.6596611720059509 10.004335704088287 10.645931025212759
587 -6.3853368397234025 2.9594267688335103 8.292521137119232
708 -9.710013933406337 3.9917124914881197 -3.9058016665114104
850 -0.8659707702005707 5.825066975443904 -11.027453920017567
733 -4.372156473535761 -0.042801940829490806 1.9176632651864265
712 -5.888901995966826 4.116484246623803 -0.9017417977196063
737 -4.624450794781234 4.020460700364151 -0.07960871584216198
591 6.860247048330567 -11.302593009667564 -6.092680640511948
854 -2.027977579171799 -4.862601375216616 0.5269745893633888
716 10.758425512105465 1.4449195871481388 -0.5275274090356116
595 -3.0825161313905722 -10.676468883758993 -7.547958109028981
858 -0.7606278903580768 -0.046648336409667736 -2.057586539723769
720 0.6128502388007911 2.43655222750647 3.398027292461084
700 5.566624778800149 -2.189864956424819 2.5323924603191386
862 1.480777822351177 1.4975266497695485 -1.8475824100828395
728 -5.842877852164 -3.69741463502701 3.391333531771124
835 0.2640087057851301 5.192900262830737 0.9753915586023604
731 -1.4259014084943713 -3.047662464268905 0.5914033204215764
732 -0.5320666496925504 -8.747174146879301 9.184951012319447
824 5.83650477952068 -0.5709869686085253 14.778671044446407
736 2.949837090838648 -0.7212082255577669 2.417223056562798
812 3.651106620039767 -3.143980184294966 10.318179567895275
740 1.2209350373998333 -0.2027032104807248 -3.299423493801223
744 0.4353248687116496 -1.8174453123140273 1.443571596475022
724 -6.492669877707904 2.972268045469886 -3.9472695009964243
816 -1.4450093817248753 2.311849099405419 -2.1504079758257637
747 -7.554082092790992 -3.345196657547154 -0.0908373367335807
751 -5.525205562163383 -3.2252820432500116 5.56457192810301
752 -1.7203232297282054 -1.2244528429216277 -5.564597352135838
852 -4.674751852246995 7.01740503628662 -2.037005969477896
831 0.5150020603290876 -1.7306366953147305 5.295399385949558
755 -0.1024538396803934 -3.122613963865643 7.883098491102033
756 -0.3609858302737572 -0.2574095233443689 10.712855401455764
859 5.129923909425088 2.228059679842329 2.513196432023288
828 2.0813401287189497 5.6479066498561386 -0.2314943016968675
807 -2.8687668918335283 8.75222821241833 3.487980414479209
760 -3.206327329767898 5.70332899703713 0.4215846813955909
827 -3.385169471486465 10.208509675367702 -5.39628051971808
759 1.1312058007684265 10.245215800424798 -7.893217466413011
764 0.5013423750483467 -1.8398926221265204 -4.154180966034039
843 7.455186748066058 2.316892091653091 -6.745329004002553
763 -6.70270758541571 12.406736356348736 10.329110904817833
768 -1.7733355843835663 -8.515407483359859 -6.062280351134783
840 -1.747594444710193 6.980029836548875 1.3781680816012032
832 2.7121438261398967 2.228803920569815 3.8529468869517363
748 -3.371336406788087 -13.121103589780338 -4.922949537610028
767 1.9673801757849518 1.7683874387138554 -2.5009640564526916
727 -3.3442257086886364 1.7074016849881117 -4.7711319602762785
796 -8.215951778548385 -8.041137637889236 -4.812338644660313
771 -2.176281234218219 6.187640726674764 3.5631213586604664
775 -0.6783212414757599 -2.0273597109997556 5.251857156179546
776 -11.716235911695914 -2.6552702388745097 8.767662957788843
779 7.3490744434784565 2.1202437621056025 -0.5058543658504729
780 -0.4241966650581611 -5.0518125429040355 4.149032620538134
848 0.7676854137066738 1.5080484217398538 3.9730904178276196
851 -4.970990737218548 -6.053852086146697 9.292995608930388
783 -8.481157506705228 12.539372689277696 1.5158767415807626
788 1.953237486352798 -3.014856312548128 -5.695571644625463
804 -12.584946559790794 1.6702305522805774 0.4024821185953632
787 6.456990303682034 -0.6725858115109369 -0.40614537136400586
792 7.11166299445343 -3.7620984084291824 12.226056012861738
772 -2.0063421637075525 0.9499333992181092 -3.0417931701767578
791 -0.6823517075765153 -6.378297951652193 -7.342080847652093
723 -0.317332483342246 -0.968116727252783 1.8401817024494542
795 -11.305502618157664 -6.209845430521389 -5.321469173518236
799 6.326729366643206 2.2671268238549374 0.9095271573441535
820 -5.187771727348389 -3.973019216527803 1.3123500040929676
803 -7.828107451147608 -4.5639782799985 5.912867107202409
784 0.9546444515330785 2.2322933175640243 -3.8658192911388025
839 1.3637078805183656 4.428780447503643 -0.22315668968303795
93 3.828073932837884 -7.99302901001169 3.113314733674455
65 -15.052336299726123 -1.120066993908412 -1.2756184413272083
42 0.4563582825168792 -3.2053114208587816 -5.574153276133492
125 -6.754729549897908 -2.090079040412091 -6.958056591633649
137 -3.6804801563979823 -9.624426979493538 5.643863580856845
970 5.3345481711345535 2.803367712597839 -2.4948875328987903
974 -7.474619989635459 3.317746258424961 4.151771629040811
29 -3.4199251161141238 -0.6039961441660373 -0.830696603577385
973 10.39328227682025 -1.1747193888364797 5.876125916735653
69 -11.428952232960366 -4.734402331199787 -6.421687194315753
46 -1.8754542572870971 -2.9803375505874192 -5.324671898250293
898 -1.733865927086912 -0.7658654520569973 9.603931852982132
966 -6.149023626800568 5.008431449286997 0.0651318454852703
1002 0.47640033149741495 -6.288895416191019 9.389558164748623
138 -4.464151290423456 5.122889620964297 -7.433470682023498
949 -4.572625436662245 3.2387264292681945 4.647294123243899
918 -11.931077116145163 -7.307097966663733 2.4958192345608166
882 2.3324680183629596 2.6552214030299646 6.67163990187857
70 -1.8738913131254296 1.9107490392097553 1.1501716701492293
30 1.975870872450669 10.894325740390956 -2.246611012689298
121 4.212866153843912 6.367075911453971 3.033348356511717
869 -6.687055627046227 -0.9706938768594949 4.869481411442701
905 0.27267562857760724 -2.868523074974585 -2.1064562392744275
74 -8.5793883843098 -1.1034678922598102 -2.7762859732430623
910 3.517914496082034 -8.748616495894996 1.3746373650874704
982 -5.776035379500583 -5.393141258718077 0.4530314818334981
950 -5.120731960421357 5.486950329539967 6.092132384261508
1005 3.258710218261337 -2.966656615563986 6.721418271265821
878 -6.11400136884937 1.7044016952319814 -1.8619627334029396
865 3.0830170427814694 -2.2040899772862725 2.221915769164434
866 -3.5543763091032763 -4.923969919166087 4.564773466604313
942 1.3529480471280002 1.7820416820358043 0.36458384142565387
933 3.2562192179894645 -9.09327507246747 5.935475145956797
969 1.3281401538868565 4.59149116577302 -13.376925778636545
977 2.7675043893374323 1.994035080138245 -0.5831059046824533
1006 -2.2097182989922026 -4.927872032445787 -1.3222106337366724
877 15.454927646440055 5.3517073361904846 10.061069701335938
989 -0.3349970380150112 -11.873034397037339 2.260695925634752
897 7.244410109926584 -0.8776343576841039 2.61084876055982
978 -1.0833661851595096 7.84135625815315 4.909268984283545
873 -3.601069912289602 11.009515874170374 0.3862440948953089
985 2.905411595200465 -2.3534098390781684 5.533924886816379
945 4.025656434817878 2.6516123179497963 -4.674589802200249
881 5.545318146326683 3.464131193348462 -2.841756092913855
921 3.1245887096602116 -0.8770467921214535 -1.9928665469231264
930 -0.6941347063300516 10.115345521882116 -0.7477183364960747
934 -1.5335239428843985 -1.9512674215598225 -8.18054003536162
953 2.2359875895575905 4.529525430532391 -7.167208251068718
981 2.105300607005778 -4.581690631178637 -0.23034045758153016
926 -6.1807971286431584 -3.3889543857627826 -1.7081802236386525
990 11.489080673635469 11.444302538494558 -14.116884546902702
946 1.939458300813304 3.493804318943003 -9.168821194617006
938 -5.392413788880079 0.9069957209632641 2.709598318696493
77 -3.8268525234391326 4.203906105601641 9.877899485206555
62 13.979890233905778 0.43648049973148967 8.83633620612326
101 -7.004603861242958 3.1007695786520886 -3.6021930012592343
45 1.0898618023719544 1.408331788105147 16.47425836000231
50 0.21089555899327134 0.8494629393257502 7.811560995773304
66 -6.136295119623385 11.414844667852716 7.870273289485441
2 4.461904659118716 11.627921480966522 13.087442671524034
114 -1.8458990785871667 10.032760021303837 1.6325805312119541
994 -4.840261878592898 0.49808935191845816 -6.241826404068114
954 -4.643548894323373 0.19559720237705866 5.647669344124094
872 -1.4798806969835538 4.835747774722026 -1.8615468912948583
876 4.888830408207904 3.6301434792458305 11.125818936552962
880 1.0057658456423504 2.3220989519097994 4.137966926086479
884 5.411837727678257 -12.754072409067156 -2.5398932778568435
1607 -12.450229826965584 -4.690548600593837 -3.2595510494838265
888 -9.90834343152783 -1.0836717801702775 5.05463429416126
883 -1.2811879844798622 -3.1574868493157258 -4.380761169047563
1603 -0.15764440849055036 -3.2726421910072494 -0.06284831141915098
868 5.292118054198777 1.2718558916113563 -5.063047956065883
887 5.639705918318724 3.4279086872279954 -4.7768141550384495
891 -1.1853545662921898 2.948332177890568 -0.5006810039204354
1728 1.592452412604908 -1.1817818797278816 10.902278363045482
895 -1.1524439060887244 3.3514245149750077 3.4552877472001167
896 8.489192899573313 0.08180454245797757 4.752860167916651
899 -4.861751436159557 -4.202078101334955 1.7495823656573444
900 -3.563370750971703 8.995396207041022 -3.9568610746008632
904 -1.326473000071965 0.42276128244861594 0.26928116387378837
903 5.23733821839556 -1.8578773139908162 6.355735465037441
908 7.1527848925975865 6.194105644048174 -7.517103184435062
907 -5.231630958904932 -6.029890534107131 -9.269753255776882
912 -2.0234175601443263 13.350226680663626 9.077684883200378
892 0.165988889197948 -3.1230775158560657 -3.69952107897403
911 7.566008297304541 4.7047883727553295 -2.643405909386299
915 -4.164080175768779 9.301388500495353 -6.124931459558056
874 -5.427277482375856 -8.06450230956345 -8.845494648155558
919 2.4901206714016944 1.2224787729833952 -1.195049350771985
889 2.024541077181642 -2.9557294439277038 4.845770201649028
923 1.280003453447419 0.4237245841638844 0.9928753916332819
924 8.195916827351095 5.814241175284323 -1.247023685744781
958 0.8129099976387953 -0.6137018749287328 -0.9653744768450364
928 -1.4566993878330228 -4.932296256589363 0.10785382598300558
927 -4.368428924089392 -0.06571600362087854 2.6591528504277413
932 5.8026872796850455 3.717230313244951 -0.5258402333199071
906 0.4038855073586212 5.03482171783717 -0.28790020047508486
1599 3.242143113024595 -7.231295863061545 0.7205782352347715
931 2.157108575926923 7.511251191729578 1.9816811756733768
936 3.827550192168605 0.18236860132978094 -4.812481184669623
1724 -0.08632796141674086 3.4789691842480055 2.6608682356295263
935 1.9854237257266314 -12.730812757245138 -0.5041199730655107
913 1.0583925867281991 6.243349831123903 -1.0641664048591097
939 -5.698159628408245 2.6208992900304766 5.841763509825742
998 -10.191056851664765 -4.253857423605223 -12.5343722122879
920 13.192045391170026 8.922770045609653 -9.07199927589508
943 4.542966826899728 -5.759666516621193 7.925578461678939
937 1.8994014136648745 -2.174378777823817 -2.316558823862634
947 -3.366115377777967 4.72191498653706 -4.585703256331699
951 2.7295466795984518 5.863763466691367 -1.5615307749468281
1720 -7.5807182716570685 0.6776074920141358 1.1356302283916848
955 2.8204472593934438 3.7317258167514282 -0.394641852746217
916 -2.0933487341916326 7.425496529463819 4.730488628969923
959 3.6596315481776007 -5.55307192596569 6.515721069430303
1762 1.146150372650691 -0.17919598298915435 6.051943284174087
963 -3.2948849066879418 0.231386814524203 -6.837163518235843
944 0.8713493985177395 -6.310694183224465 -10.961543916554353
967 -5.106074436993986 1.1767149669027757 5.278612008931992
948 12.147762287441024 -6.1281780499146175 7.7264000505618595
971 5.484617656739929 -2.2183804923125185 6.100196460430377
929 8.625445466387648 4.780407268479604 0.44420488698986516
952 -7.778751645536176 -8.533819021321634 -2.8528430261717097
956 0.7417318834821254 1.3435920427774575 2.4617636728896333
975 2.043246796949376 1.3647444956534989 5.527769171142711
960 -7.8383507165776045 -3.187859127169987 -9.309927287831448
979 -7.519849286236937 -4.303454017704992 0.610252280258022
890 4.481470423052754 -5.076339132161461 1.3555687426865246
894 -4.446503488982409 -1.8153352406963315 -7.192982698235679
940 3.693307262951294 -3.891293483959402 -3.0083974884092792
983 -7.627941058899062 -10.840299126124812 -3.9252325650690354
917 10.47286743944023 -4.430057326947623 4.539063019085878
987 4.991966279477165 -5.661186132106233 4.0214747649961735
914 -0.6864974594991652 1.1448212017765322 -4.441416579714238
968 7.045652323661479 -2.9819677967349336 -9.498760530103622
991 -0.1392445404024571 -3.894095603565996 0.08235815987481479
972 -2.549051874571561 1.5156709849897858 -6.368860193581652
995 3.1918905623045495 -4.370941574979433 3.9189975355743427
1716 2.824914918788617 -8.879744802554054 7.045733627067059
976 -1.1954866980257413 5.421917807776673 4.583057264229299
980 10.1309990628971 -0.567233556608449 14.717321109744397
999 -3.7825330636791565 -0.8836233324005773 -0.8892766374511214
984 -2.514038291517282 1.1366605527352542 3.7740194653685073
1003 -1.410782478666788 3.4497593060304155 -0.7948101495283955
1712 -2.4483169602064474 -1.6907080499800595 -3.1199612732403543
964 -1.095825009358028 0.6483330500883734 1.0577727865769637
1007 -3.274942752281339 4.943439203559768 -11.426181684139525
867 -14.422992133239774 -3.639762739793092 -0.9209610172252533
1846 -8.004929782213875 3.03479340354565 0.39092030100436964
871 3.8675632453039857 3.7188328288052324 4.138540724198868
992 2.8448402790508247 -0.8530433538012937 -3.257583810744416
961 -0.05007060471932039 -4.761407850611975 3.0697079327644365
1587 12.592336527619953 -4.157013307403312 3.060540798006528
875 2.879091357097199 16.383934767378094 0.9233306247518457
1001 -1.0026352420539066 1.6811895528583165 -1.2581752345901387
996 -2.1285701955926735 1.0968616661638462 0.7991069968293748
1000 3.142647094106576 14.627466808902916 -4.352358455169526
879 -0.7686294680586303 0.4945066881654011 -5.69491136332476
1004 0.85915520231938 -12.153682744678692 0.13791671646897455
1708 -4.176365361251147 1.9318326815295623 -1.2692098420550282
1727 -3.80152316783632 -4.11700938446394 -4.461639521650757
1008 -3.5465086401597405 -10.918635827126124 1.8693161014425488
988 0.34118383534340946 11.043947367418713 3.7707094458478867
1825 4.428808209017106 3.8942047049762474 1.6003785403452087
1010 1.9873700457400576 6.534483748598668 -7.622587237664781
1012 -1.038415517070796 6.854851003473498 5.7004760867814435
1014 -9.529973746378248 7.13640521319318 2.4408758796973014
1016 5.986753687829332 2.233954273869383 -6.189349568921808
1015 5.100290826970872 -0.4712623428242398 3.613936180686231
1020 -4.651294616477141 3.0522046025159524 8.606846361208532
1019 2.1115164441365026 -6.024086725007336 11.221193400247605
1018 4.29018570337525 7.250277770144222 -2.3258640276022753
1024 -3.261369077168392 -7.940443219734049 1.609880320816643
1022 -2.4225049748779144 7.097812083773015 7.0808967860610705
1028 -4.4461057646990065 -3.1875323583910067 2.2690714854327756
1023 10.275219221713932 10.951716478258112 -3.281477513000802
1026 -6.819489626637208 6.751474292376008 -6.3650258815457725
1032 -7.476367585702328 1.231278188505983 -3.2689866559593566
1027 -1.4882758375791667 5.514950697766376 6.469613478850564
1030 10.007613524466365 0.29896955622486765 -11.575474121548584
1031 8.699356472759474 -10.355545768431588 -12.462572553573235
1009 1.6893691510307176 -9.855916359551236 -7.426819377318425
1034 -3.3205068861516747 -5.0245903255609985 1.3742317179596766
1035 2.6316732230299498 8.043072477886573 3.669591603609888
1033 2.4903394553271485 3.9133942607757914 -3.745168409093255
1037 -7.080508274498371 5.864444013861139 -1.2230207485373945
1038 5.2840329494409914 -7.1460827502829245 -1.7315769003858308
1039 -10.995585924147914 -4.261648789314683 5.9100364220472885
1040 1.585261405150448 3.5172574675942787 0.9251324501194678
1042 -5.28846712782487 -6.268770463087112 -3.1833783095187047
1041 7.21946257045762 1.5061290036315704 -0.6691382289736315
1043 9.541107413010167 4.1655565750895285 5.641638391334605
1044 5.276721643182083 -4.93397246379895 -0.005417868651858962
1045 4.602793459196041 -7.996188111247807 4.979836851028595
1048 -0.690424086664036 0.526154660505507 -4.991052422362595
1047 -6.46729088715464 -1.8560505765679 -13.798232061975575
1046 3.4030237374680397 -3.958194546910413 -6.350060706532115
1049 -3.4816327307111563 7.524878741012468 -1.1451508405011244
1052 -1.4153707470338175 4.0100935488993565 -0.4013499431483418
1050 7.945529406533098 4.600378272276937 0.35740905027371056
1053 5.1355935392247805 -4.920372005587883 3.2670093781898775
1051 -8.068970966384663 6.848967555468596 1.5647054352262857
1056 -2.6270750402395953 4.677391394488215 5.046718621520822
1036 1.4472486674557472 7.80235058968924 -3.972260602272534
1054 8.945764761987506 1.0989769575768351 4.837610407915287
1055 7.440106561096324 16.12529704760388 7.4992591456809645
1059 -2.206637425182569 1.6087512008776748 -3.025963629567336
1060 -10.058528005809631 1.385408482203945 -3.0886675460266413
1061 8.154712740449156 1.3559174148949777 -1.4526105873022237
1062 9.350018258348113 -3.906041271693648 0.3830735112235937
1063 5.038510331730219 2.3289704755146956 -1.261939992678521
1064 -0.5382629495356464 -1.840120591318365 5.055851710510294
1065 -3.559972450665873 -1.21380057767494 -0.6289965956182825
1068 5.527759248193766 0.293171440318547 -13.101606217703202
1067 1.2363583057890484 4.635465836080559 -6.324408145606905
1069 -7.637127723773009 0.01978771861603132 -2.7522390021284275
1072 3.676353879131461 5.439662440966258 0.9231831024965373
1071 -0.10618296633169226 -3.533944304868201 -1.2387642379029635
1073 -1.2581791857159446 -1.8595485752583159 7.701785843228206
1076 3.9188280459889757 -3.602190377289001 5.5363335756413115
1070 -6.514055103095818 -0.8137778261592601 1.260788351786084
1074 -3.414100716528353 1.3457426144679092 -5.376606046266309
1077 0.5399022662652785 0.6130142399087217 2.7729525165628406
1075 -7.239072275051394 1.4081797875404234 1.2291452256021267
1080 1.021309014013185 -4.390514500494 1.8410687055578858
1057 -2.048156673065383 -6.081961274743549 -1.019175700264755
1078 -1.3540389882083375 -8.58008841137424 -6.281918189194362
1079 1.011227164049358 -8.913864956769189 0.4234122272943965
1058 1.9428409706118244 4.395449212925685 -3.772331961118956
1083 6.236085879421778 -19.47319672533497 1.6995407450461337
1085 10.75860752951549 4.432272305692377 5.33143520405431
1087 0.9460356323866885 -7.73343008834009 -4.975988565025293
1066 -6.092836616434689 3.3046357608073733 -1.8961055429330838
1089 0.016805621465862418 -4.090445839564317 3.401893914902243
1091 -0.9618600998728785 1.283741178601319 10.59061951788449
1093 -7.486943922399395 4.291125585339081 -6.6219157631838055
1095 -5.915053570175576 -9.738526578921292 5.337005530587886
1097 -6.047222585531235 -5.726217617465005 6.53615060115975
1100 8.228270688512675 -1.3658975469873322 -4.92498471536367
1101 6.113426360400038 2.386441172605311 0.11070290334463362
1099 8.719774652766779 7.864656732580453 -3.7398630994997912
1104 1.1808695883816809 -1.2297909961975508 6.336966860854631
1081 -5.080384274406087 -7.290905871933402 4.454074897941279
1103 -1.8721530707450442 5.034496789028375 8.034243270800001
1082 -10.805700652621857 -3.11230749138347 -1.0742232092198043
1107 -4.418942457652632 3.188697338761562 -3.9803076853425585
1084 -1.8487230726998256 -1.7010435496813643 3.1941601960044665
1086 15.831504053893655 -5.098137285722704 -5.700645754480161
1109 2.082662889645544 -5.084710081829964 -0.5900237384967082
1088 5.358913945414181 -0.7059537374791909 -5.743109354655698
1111 5.2626557383666075 -2.3230600530621155 5.186057652958077
1092 4.897807841387915 0.6828729195943423 7.881646919885367
1113 -2.068436813826346 2.44645120214214 3.387837604391334
1115 -5.582146443545143 1.5627928933526067 10.301407078462926
1090 6.520943052367597 -2.356130538095104 -4.951131568666871
1096 -4.888905109172814 4.25252974462977 4.05149022054544
1117 -0.3986238556127243 -5.3248822696587865 3.5332477719794717
1119 -1.69487607396764 -7.124230113096435 -5.031106098953191
1094 1.9428948081366892 -0.8189721734817298 8.381151766310516
1121 4.833181726766311 1.2072573042632284 -2.741489058537078
1125 -1.9447756574175925 -4.930061797400374 1.5076612828679676
1098 -1.2432183396204182 14.060109524297694 5.381120198874426
1123 -1.0124432273570254 4.141945436736087 -1.833490710513228
1105 -9.169621742339372 5.471580478486315 -16.288663241017368
1102 5.979133567463208 0.11534006222914657 -2.3790690428506442
1127 8.13160338429727 3.3633785441263497 -4.9673253496279735
1106 3.0797138412273335 9.790806908376192 -5.55688505713198
1131 1.6445963459668476 -8.389573366404125 -6.401256848212708
1110 -2.9601281930882375 13.905066403439717 -2.3159490090388126
1133 -7.2770112277454855 2.1530447283347036 -0.9990984840577808
1112 -2.2510846020328033 0.20146007128150317 -2.0884344273445214
1135 -1.7930905023483719 15.156731241961216 -8.282138776895792
1114 7.40082097155227 7.131970018397 8.21916713383632
1137 -1.231659725469592 2.563677516918211 -4.901064617200173
1116 6.525226393211813 6.440553678150421 -5.255860616784583
1139 -6.796119147791349 -14.89368728024249 -7.0620420644323065
1141 -1.5563567490531491 4.170672270846831 3.525222832918663
1120 2.396900505490612 -10.833158413292901 1.9629604234936022
1118 -4.0349673607116285 8.23257025125344 -0.24806192318202694
1143 11.589226045491333 -9.058311223972845 -8.33485307537207
1145 -7.0272523768565955 -2.563252492938627 -4.492034595284368
1124 6.298422653295666 -5.97934991204426 10.207070207891222
1122 3.054189388865295 0.15392374785166058 0.3700653896668042
1149 -0.1324877500160432 -0.38595588444718276 0.173780999050289
1128 -6.502934451114554 2.3140608721286813 -1.3818445092552447
1147 1.16148181924698 -10.531211084258521 1.0943682737665599
1129 2.422510101491568 4.16060831383476 -3.876199271363904
1108 1.18345791129916 -6.644740185582348 2.0052691749455502
1126 2.1740377459452525 -0.1403247133361624 -4.4894066994640704
1151 -11.51751540201545 -3.524184290724027 -3.9491252389421025
1011 2.697749077340155 -10.325558264518598 2.0467280650069695
1130 -5.615287530345328 3.9688259836484616 -8.9436946690815
1132 0.8045899536308025 2.0530988707192157 -5.5945961886234645
1013 4.583091156324254 13.520226602596592 8.409692807307541
1134 -7.025766986197073 1.3283898516438324 -4.4213859879475175
1136 -6.932976290866873 2.2812472257207004 12.59439412705769
1017 -1.3146180194067592 5.234933120312592 -4.016773239588334
1138 -2.3031894908983643 3.9673977643623917 -2.92457620467633
1140 -5.761355510307319 -1.5670512330708704 -0.8506657211473906
1021 10.207767153227707 -0.8368511368103443 -7.730290978866599
1144 -5.758518239381447 -3.5769589642687425 -2.048572507180084
1025 4.741090246313613 -1.47698293716454 3.1213345067835654
1142 -5.39002903223444 -7.5541879836514925 9.00401609434422
1148 -2.3638973277072397 -4.194937379265245 4.26627698164566
1029 3.0920353999172274 4.2214946882056035 11.749799379707152
1146 -7.642995426417232 3.596890853569785 3.046600066031577
1152 -0.5149138002714846 -2.3419394894555476 13.401129850658968
1150 0.6341483288642585 11.187230060120584 1.444228854604691
1154 5.699202508682554 -9.50184804099624 4.445489673592853
1155 4.716285491866881 -7.437266910390635 -10.741804325325068
1158 -0.8603102831297229 -0.5274961627363207 -3.7315852236025133
1160 3.175366797704699 -2.2117786524557306 -8.552751161163645
1162 9.9384642786665 -8.094348601710797 -3.3052114388405833
1164 5.796658555309805 -9.197004671793302 2.0935164009359286
1161 -0.45760219112138845 -0.6950614709335305 -0.36315687728688206
1163 1.513382263326195 -1.5459755808845472 -4.852039134054048
1168 -5.828306931652596 -6.284087974502078 9.452063169902997
1165 3.84228097045235 4.967082611251305 14.548408397173095
1166 14.61645166810126 2.6343436056140086 -4.779268033123023
1172 8.66610819022744 -9.107322054132835 0.9111344540809309
1170 -2.6117955563240494 4.939492404866724 -3.0078821176947583
1171 0.27727713526476794 -3.905895029677273 6.679010725014779
1176 3.824397701161131 -3.424538955333567 -6.810659823284219
1174 -4.248167837439411 -1.8286173997673691 -4.240210792250702
1156 -7.167057558490458 0.39822255481326385 -4.034354905823889
1178 -10.165451998882503 -4.379857295698093 -1.2202848311833263
1179 6.874524729952189 3.705574205363091 -3.840397363900272
1181 -1.5262047525613853 9.989909062484916 7.158109915661109
1182 -9.542669045199327 5.369808937941604 4.266075839240834
1183 9.383066261628215 4.463091667672266 -1.1238267259189723
1184 10.94266101245212 -5.3325211916283175 3.7957750349146337
1185 -8.957190124807523 4.538402576686556 -4.535902332696739
1186 4.517965622678318 -1.65011930136333 -1.3856438549113088
1187 -7.257747823728176 -2.2987406118089577 7.446887523014956
1188 5.522589298077782 1.7510731639916148 7.142342784270991
1189 -7.682671729971119 -2.619149707245755 10.02523487037234
1192 6.572124837859735 -0.3237790221111684 -13.151560829032066
1190 4.19563557192838 -1.9955701299039823 -1.7892716293592201
1193 2.2919226341048278 1.816031514218892 0.7647194408863639
1191 3.8708896291465766 1.7707416758113423 -0.4518068735489386
1196 0.43673794806672495 1.9206053515518449 -4.039136878916263
1194 -5.99274771471043 2.8046702797202654 5.260387660204181
1197 0.5738852929347968 -6.898084384237877 -6.164066589451589
1195 -4.826286608843868 2.621414282010796 0.6338698180483427
1200 1.020328304416385 -6.2499465432945 -8.817993080418562
1180 8.827891181365777 -3.7236396419238997 0.10095172068234481
1177 -0.5398562524494933 -0.9602406029093513 -7.15789202987284
1198 1.4890545195735194 -0.48579372276986865 -7.232954491414758
1199 11.2799754343875 8.565805395570885 1.590298644041301
1202 -5.1049235433854365 -5.266785274882329 -0.04272382627054979
1201 0.5487821535797074 0.17841918237949092 1.218808492295274
1205 -11.557748208006213 -0.48097627268625787 -1.434116213913989
1206 5.599288552636682 10.585685890709275 -5.056820390409944
1207 -0.6526304502131204 4.685467493256698 1.3751881816746645
1208 -0.4399053994007099 7.747041158746049 6.100024814902337
1209 -1.7373229322232828 5.714088205082443 0.46677254980430527
1210 -4.029614319040071 -1.8989586723050875 2.608634543374873
1211 -1.6127030926303336 0.1504482442869737 2.8384164583019977
1212 -3.005070111376145 4.053731511823132 1.8319917612540808
1213 -5.6183698962793915 10.007146694770597 -3.0919213593895485
1216 1.9526628169143763 -1.9608403886959955 4.241755561625373
1215 -0.053636711798162776 1.3489609864393088 5.367290521599728
1217 0.21389495601417405 -4.167206114654748 3.9684007482748265
1214 9.306091614696612 -5.8173012285907735 6.824576346488637
1220 -6.968703890663432 2.969586210974469 -7.234110723926881
1218 -2.1405119392345706 4.516602650628821 -2.053814854993995
1221 -6.014816102895301 3.193638966699448 -7.337582248118797
1219 0.5976298916184367 -0.4498397918390183 -5.728554719902789
1224 -5.1483649423787545 3.357221856770674 -0.015444618863559481
1222 -7.5383846519253 -6.17280739368924 3.7230020542814857
1223 4.7641477610043115 -6.588102235452695 -0.7633940794595664
1227 -9.690268559046883 -2.1843811057633467 2.0109153783616294
1229 11.330917673907532 2.6424391780968866 -3.0638286791821012
1233 0.041958012531532446 -2.22727963246884 4.483975184642845
1235 -1.9581368921840963 5.827311711067109 -3.1503150677585072
1237 2.285224962669939 -16.725091309104663 -5.345185826750633
1239 2.3047832979769627 -1.3323809016335144 4.001778041950144
1241 -0.6937241652943938 -4.732098078771859 5.943786274554529
1245 6.729674710134891 -6.238650164230319 -7.03238095188432
1243 0.4927618299608273 2.0972873694322924 0.2719298191426637
1225 -6.296080678491057 -5.18619141351782 -6.443180183021192
1247 6.722814703127834 5.1608717143746565 1.7804590974100316
1226 -0.31506117287743723 -6.050982591795678 0.9484123488376737
1251 0.07365720880985772 -2.671780055812681 2.9387209531960394
1230 1.329669192345571 7.862801316624749 -9.920601856284376
1253 1.8784398464956311 3.61504064125285 -4.852200869548835
1255 -0.5020902200137828 -4.640630526981552 -2.8905004142430504
1234 9.711770264401482 5.461443098455016 -5.728275291277857
1257 3.030518739967066 -2.680673512821517 4.555856631742582
1236 1.2285072302669906 -2.4031102169759686 5.958604971058155
1259 9.860728456518874 -1.11450894247403 -1.3332925053925182
1261 0.21633533618890088 -0.30435067473067234 -5.589613714341434
1240 -8.223927500644459 7.35056841819268 0.8171236464431006
1263 -4.6032175641048445 0.10934068651681536 -2.750753231170209
1238 0.315361490420994 -3.900348750858694 -9.14698679161942
1265 -1.9919108161963248 -1.0145675217611507 12.161459854444564
1244 5.845114076416662 -6.429190192800254 6.601677363961452
1242 2.1953185171618084 6.059525829670024 7.613596719092005
1269 6.040138818696583 0.9367335757935167 -3.463244469227539
1267 1.3275623463586017 -11.171800804306967 0.8463434640479894
1248 7.403445536497294 -0.3210340952913562 2.78172057728552
1249 -0.01829416874746153 -4.769394828299647 2.8566956100714718
1246 3.962149760086108 6.126641691052586 -2.222386221557594
1271 3.1411682380098696 -0.3934607720236148 3.1935587288469858
1250 -6.013899594257875 1.2348653583923848 -7.0893817777122825
1275 -6.4225334811858374 -2.038545482228531 2.0115106431928624
1252 -4.4156812760977715 2.3586256416963707 0.8697694063119815
1254 -2.8688554794774936 -7.056729444264354 2.419125696128908
1277 -2.704667237913358 -2.9457719785438936 1.7556158339255632
1256 -7.479826581541887 -2.370884850971137 -2.2876427787615725
1279 8.542042598611557 -6.269519127083778 3.9708015819986513
1281 2.140983011945056 6.922671278365746 -0.3439273853089748
1260 0.5930990343651312 6.972902477529343 4.043113141972909
1258 -1.175599409320976 5.937427476939617 0.46238757673703446
1283 -2.8818653473474853 -0.8309448726551283 -3.5449535554781635
1285 4.227920077985479 5.2947759143890565 -0.6275918077494427
1264 7.4157980343368495 1.2862056162615252 -2.2429045040907725
1262 -2.4144229912905715 -15.499633067099492 4.346991405838336
1289 3.460912370613531 3.9039329229561353 1.745819250760886
1268 1.200424025970759 -3.777320173812568 -0.92053492234528
1287 -3.829740202976073 10.800502038474187 -11.778578503124082
1266 -5.465433581254211 -2.2203762474822373 -2.2379566106996918
1293 -1.4508196342386905 4.354685467649041 2.406057614008908
1272 -6.772326105491211 -1.435478760703714 -3.23858020973699
1291 -2.1971833963665053 7.078816728858087 -5.1710509444417045
1273 -6.7603063767387335 -3.667776031232575 -3.5597234646712272
1270 2.0766914772235445 -0.7097328342865956 10.982400075400344
1295 0.42696633635211007 -9.800911429697011 -2.0968780190575376
1274 -0.38215278275353365 2.3272239712422658 -7.505229776666308
1276 9.045180862256458 0.2289465387316679 7.979929797786909
1157 -8.539278586577488 2.660340117411525 4.980150690357145
1159 -4.3995590531874536 -0.5550208852751878 -3.8399069882922303
1278 -0.48081829083668853 5.316530906729742 -6.42273682907144
1280 2.0375016557579952 -8.387192580762022 -3.541026594105081
1282 -9.018285954568302 2.579876270506987 -3.4260128262661054
1284 -9.045185970294341 3.985594503715908 -0.03321022665598958
1288 8.905255203401014 -5.269937390762635 6.744261183049739
1169 1.7678094719729118 1.5225997970360912 1.5730432829704086
1167 -8.560399213012733 -10.225271283268265 4.03996098877444
1286 -15.59362975085544 -0.6425206325057861 3.767286942514274
1292 -3.81516384502367 2.901137901349719 6.394734596104226
1173 -6.9872790003777165 -4.131709068864586 9.103950553418622
1290 -3.1365178612058164 -2.8307463187878397 -1.7526532159385393
1296 -3.657844880179015 -3.0849382610993006 1.6963724665704591
1153 -13.105465681216904 2.8716865212593876 -2.917042045541335
1175 -1.8821130573735099 4.0255502030162305 4.496623108716648
1294 -4.885042816513139 8.894385342662515 7.687046754586247
1298 0.818704249367506 -1.9502006391848774 8.596773281454661
1297 -4.786130370778607 8.521262504648819 -8.2564551605541
1299 -1.292926745430108 3.318256820784399 2.857133674685854
1302 6.916210217394051 10.92143259460178 -1.2740146274785478
1301 -7.1862258281028994 3.8490365102182893 -3.70094403130272
1306 -7.550084724344409 1.6649805716629669 -0.7108822140863909
1312 9.253863991946439 9.031432651405293 1.192544965350581
1310 -1.0371715575353047 4.849318915690366 4.814493498638478
1314 7.7714505940259375 4.19577792355832 -5.290568762792056
1317 4.057226199170194 0.3586689624037378 5.343332483381046
1318 0.9665185107059661 -2.642316988532498 -11.350083578684222
1322 0.0932279221556657 -2.289645126120796 4.341834412118386
1321 -7.0017814400543665 -8.588564324327956 -8.343901812033506
1325 3.614324278042303 7.394303435975924 5.926700988933134
1326 -4.962952114214742 -0.09577365705937257 -2.4651208049188194
1329 -9.70401778689736 -8.087681617603005 3.599453743888015
1330 -3.445073367263373 1.2599802311697452 -1.712366487510348
1333 -4.990444099168886 5.189873671512538 -5.156319464525628
1334 0.6663576764823423 -0.9835865585900596 3.1827697388578424
1337 7.262575726385523 4.769688724923712 4.633183363979385
1338 -6.087862559847751 5.171588227849437 4.344320203085872
1341 -0.4361373461174227 12.030913525610467 -10.93565075838941
1342 2.7154448159913787 -6.2779899434828295 -0.38044905394739614
1203 3.0731032543753143 4.745726230798349 -0.936774135541231
1346 -1.037326079975289 -1.3720024261513077 1.1159245592971638
1349 8.691993938346968 -2.473143402215594 -3.9018127168594336
1350 11.698861938560457 -2.439295988635665 3.7969431137828735
1353 6.62189680382188 3.2661211039109115 7.122162253589345
1354 8.531691334842955 -5.021803191919848 0.1738262516169793
1357 -8.536353688168433 -5.065928285989552 -0.023806192746196476
1361 3.3450658841588714 5.42790824780138 -10.051658488077772
1358 2.9562395440302742 -3.4096288385020497 3.4524206909295048
1362 -2.0792438928866175 -2.103599750310858 10.134792662109023
1365 3.4997083747042472 -3.7168097309468857 8.990196243052054
1204 -0.02712464440571259 -0.8326284715667244 -2.6332614467218587
1345 7.038970724085826 -7.3649981303168515 9.74261728900287
1366 -1.9260834132199018 6.153880308082512 12.715140825935311
1231 -0.2514336706116465 -3.682034045641961 -1.1450969839650225
1373 1.282257012024031 3.8710128176120637 4.920086028356087
1377 -3.56951036679988 -10.734427419078198 0.800027701275896
1381 -0.0028701952696333194 3.521123184084025 4.205984273903145
1385 -1.3805298537852386 -4.479493178715593 -7.3492401345315495
1389 3.2802881461678153 -2.6615958443769965 10.882557053875935
1386 -14.018134889263347 0.6022274346629738 1.573157769887699
1387 -1.489779164330477 -3.1621118192368938 -0.431457333295046
1369 1.859330832221237 0.8392009568709581 -1.5544076609593533
1228 -1.5074631512731624 6.747237899276523 -3.1462057926488223
1370 11.941043062995325 0.0405486687700282 0.1724805250578355
1232 -9.615692561619356 -5.6754931620313895 0.3457160379014573
1374 -6.293562596519847 8.85154369240607 0.8852003212181463
1397 -1.5913408526969437 -4.114251113996066 -3.019164886297467
1401 2.267541237033604 9.892913579774564 -1.714121779652954
1378 5.215007478404213 -6.777760318070631 -6.302023836937211
1405 -0.008178197711374987 1.0201091703323482 9.263721099382316
1384 2.283626667550847 4.513338438818288 -2.7200433339302084
1382 -2.866144145589472 -3.3697918392974304 -2.228742924141903
1409 1.4944641770046347 -4.66624190541924 7.260251913254219
1407 -6.745132112161317 -6.445275536495513 3.543258652301555
1413 -18.552199939846563 2.1777974945437837 -12.926579735128911
1393 -5.258162776393793 0.2730958531732862 -4.721218023465373
1390 9.335241684528759 -9.794746485921479 1.0145879202184345
1394 -1.1968608324535197 -5.2874552887862025 2.2713677612772196
1398 -0.7713089737191309 -8.919428865523841 14.468171953752272
1421 -6.933252121214294 -4.282590041729974 -0.3821655225007521
1425 0.9905012096642166 -3.0470148815744573 5.757976257762752
1402 5.0802365541885335 -3.604067012280158 -3.213448054610452
1429 -2.9656377399410436 1.3511349852346606 -8.833177287759671
1406 0.1235787218731919 -1.1209577741033525 -3.001905016972544
1433 0.8623368259273436 8.923816276809543 -2.182654567589902
1410 -8.657089135703245 8.401575225607981 -1.7662507180512794
1437 -6.679362094082302 2.1275739275921506 6.779068748910257
1417 0.01627931219842316 -2.51235443397753 -2.5324132504668784
1414 -0.7253812651473693 -7.103427778151794 2.358179922465051
1418 -1.3017188657397814 2.940040315043681 -2.7574148193668915
1420 -2.608738209473435 -1.3919824727055108 -2.7854567102919
1422 2.5382180905882734 -2.2514257022332926 4.384028738043424
1305 3.5764431753900077 5.473379103575597 -6.772993859387581
1426 -3.218595619141053 7.278835694328002 2.4674259934033467
1309 -2.5626807822992563 1.2451259307674838 8.898440175102124
1313 -1.986267706829712 -1.6870817856156204 -2.0279907831600092
1430 6.77746503683997 0.003179524818324627 -4.920834677603137
1434 1.5836522739004557 -1.4750531873386858 -5.327652750437287
1440 8.554336039846358 5.127273529125912 -10.731503816036048
1438 1.791475155625246 4.437598591245947 -3.273305318813864
1442 -1.3298160060711295 -7.9196532498550285 -5.2782821404563265
1304 -4.401192338135505 6.077150054156341 8.312848372664606
1446 -1.2283629112429821 -4.225785515961194 -3.713433389315009
1445 0.6186752143808287 -7.337406878254752 -3.24058751062317
1308 -1.6612217632235307 -4.0846106860044795 -3.392815952271385
1450 0.3158912281405075 -2.1209813666327557 -4.182600069126746
1307 -10.333015820520929 11.039019999802198 -1.1456001375899114
1449 5.732771818281428 0.30129452646178906 5.529473835306667
1453 -4.051414135525468 -0.8905978883336637 7.336182734888465
1454 -3.694334929506372 -3.4369789275302844 4.5872574962680375
1316 4.2102505713601275 -7.140493205846408 3.876270497320176
1311 -11.85101087729787 1.4250852386244985 -0.5553273581206631
1458 5.887417820941981 -3.676574756243655 6.628676160909701
1320 -3.3962862469724637 -1.2251689665695855 -5.356600613166627
1461 0.9357720150093894 -5.121611427955627 -7.476965115532478
1300 -3.8021822830501093 -15.053464760164628 -4.389702153186752
1462 -7.640985061754458 -12.362234905955257 -8.279461559982263
1441 4.90560487909397 -7.0261351877258695 -0.7776982753781497
1323 -10.143714031839934 5.608349212810535 10.531735546432527
1466 -3.193931823256193 4.772199672624608 3.973725959908646
1324 -2.0367923608885836 -16.410565323463107 -2.6820647537401547
1465 -2.414520006640074 -3.7229741254949045 1.5871542483532517
1327 5.703390387685732 4.826125026297018 5.1537097011772905
1328 -9.164831208775857 3.7013869700819613 -7.7309482332969335
1469 -2.448627003962152 5.063519717243005 8.214507377166656
1470 -8.719442157266355 8.535006493802834 3.5441746092501973
1331 5.016051084698394 1.3455318776334328 0.18676720951800602
1332 -14.227717018915778 -10.13428720409446 -3.4566945776803886
1473 -4.446391005183533 -6.494326683064719 0.3208926294352274
1474 -3.811664239105736 -5.204288376220726 -7.869466212158082
1336 1.579246096334371 -6.245002540623623 6.462014909926384
1477 0.06096305484428512 -0.15973288859912574 4.732997882657831
1335 -1.3017176525868723 -3.089914354782774 -5.923854970039919
1478 3.3115580590946814 -3.0604833102073514 -0.06104378143309111
1340 0.5221502147209238 8.645026232088801 -6.056577184138846
1481 -5.520065202120497 -2.2259646310677716 0.5424576191254946
1339 7.244729868932351 -0.06306162301732515 3.8737192501505473
1482 -2.7565441590507485 -2.590719827010812 0.558981036982394
1344 -1.2325525217051767 1.5380287295664843 9.672417594717738
1485 8.864175149223458 2.3338528807547276 -8.311940188112905
1343 0.6430188460914612 3.0496607082153613 0.9025096021390292
1486 3.6735563966903793 0.7929833178498079 4.408530146572919
1347 5.382794852483335 5.423576155839571 -12.463759675659444
1489 -5.0463423383951875 1.930927013102951 2.8498218227062564
1352 -13.782551277606187 -0.4407458453036872 2.125267446644947
1351 3.8437795193052797 9.252705778617873 2.9804601807342372
1493 12.861231803801784 -2.692684006213359 4.313555802890743
1494 0.3811240505542171 4.128058634434075 9.460969456943017
1356 -3.891240808552722 -1.5865606522988374 0.13322948397462014
1355 7.248699553025514 -11.284962442765973 -0.7725429524320376
1497 0.9673508997018153 -6.223580489705973 3.2901519779212776
1498 7.584677004669117 -4.485598793507875 -4.8573842212979
1501 3.935140353632252 2.5385256206813365 1.5091951622396234
1360 -1.4455285806383247 5.359463256724418 4.664924007449855
1359 -2.2672255575286604 7.63810789722918 -2.912023862800033
1505 3.728990668000449 -0.06853789323112316 4.955318719914307
1502 4.0631550756931505 -5.017794703183588 6.083358416043914
1364 2.8100712339289013 -3.66883768943077 1.7542405640105223
1363 0.8268976510447994 -4.006653369065956 10.56904798401906
1368 6.426411738519895 -7.844798131124553 -2.072669159009789
1509 0.31477724217898906 -3.2626369545540697 2.906773609486696
1506 -7.940327289834548 -7.002808066396396 -1.6534905149221468
1367 2.948032332690992 4.153083028227591 -1.9208420726642212
1510 2.26165175925181 1.0110010834265148 4.503570126854996
1490 1.2666101483185923 4.447736123735233 2.153336279319716
1371 -7.262669660832553 -7.094380513714863 1.3329790631775824
1513 0.7985595302892912 -7.036669513869728 -4.399641214723741
1375 5.456598904406024 -3.2690153084756437 -3.334913402629214
1517 2.2669720328653513 -3.1064594118252042 -4.964488304295793
1379 -4.4931671826221375 -3.0089983404009706 -0.5307147267574799
1521 -0.7190009296748431 7.59740314773486 -4.142255735598149
1525 -2.1454848306291896 3.611860216068799 -4.56117099414353
1383 5.737377627256292 -3.137986747192816 -4.696830776484662
1529 6.113345710374644 9.981644052770292 2.758910155976103
1533 -0.934244778751482 7.716916381655416 -1.16566048458596
1348 -4.235319741090275 1.2917599652875396 -10.508787046715382
1391 1.8019846211247583 2.9062904644064522 3.9692243510054226
1534 -0.1762931855342221 7.439730469596762 3.489336659289961
1514 -3.1793615102685315 -6.244463171677558 4.528296637068684
1395 -5.9019160395433214 3.6671847235554904 2.4335340404182384
1372 -9.654393017685578 -1.0398474319317224 -2.088683547930871
1518 -2.2681630958089674 1.8702491965187023 5.109926488330504
1376 6.24097073787202 -7.685642825036551 -1.7000479958322001
1399 9.978803884561827 8.333056433162282 1.681814087402612
1541 11.776223646054452 -0.7101528890041955 6.7620302562480825
1403 2.999044886146688 2.5962884118232044 5.976296154901372
1380 -6.568132926213573 -6.0781802870034145 -5.798417017101051
1545 -7.795935922056598 -0.14855687604525047 -5.130714373360599
1522 0.7642327298740085 -0.5360380013948134 -13.911532901248703
1549 -2.2898983506345587 -4.711912711447012 5.423267314159801
1526 4.8948793332356555 1.0503198269129566 -6.156596919173501
1388 9.021901802105795 -6.2802225692449385 6.598538975442796
1553 -5.06316363619333 11.464082169049883 -11.715530249776764
1530 1.621442899942563 -8.855564994503151 5.745676986436886
1392 -7.623271605380262 -7.65446084411165 -8.362092371949776
1411 1.4822532383375697 -6.605576108591761 -0.2021396865119684
1557 4.023300807026401 -1.955865148891638 -1.9645697104859767
1537 -5.1594429331163285 5.853688129851228 1.6746933877773917
1415 -7.689434379996173 4.811382340004637 -4.365586578836284
1419 -5.270326753567911 -3.087884722240725 2.827926916069389
1538 -0.5579604482261404 -5.701520141250712 -1.0547168445281725
1396 3.119386404270948 1.3133132757666028 -0.813158143958759
1561 -1.4673060240639828 0.05616210060326776 -1.2811595895289856
1400 2.688627080832313 -8.6124646230821 -1.625749104854449
1542 -2.591880662197828 -0.21322248944880604 0.2527346792712533
1423 6.775450719837095 -0.8202594342558168 4.64175062457408
1565 -4.16142695963786 -4.890211323772486 2.9761249330583572
1404 3.508742615832 -0.6185032340396546 -2.5756152233284473
1546 -9.514216256472245 2.106864269732176 -8.815487180130807
1569 0.6095846797148132 -13.882869292931561 -7.157776045395207
1427 12.99713689044477 -2.465353201781825 -3.1603252624517886
1408 -2.5283943642343116 -11.157462488284363 0.8618126654309762
1573 -0.12414861661754868 0.3682236593281836 0.7053077636707014
1550 7.373018146632019 -9.769024251920808 -3.999691181733251
1412 -1.9001468488403674 10.121331617477049 3.6442677731391093
1431 -9.435361697210357 -4.010686080232881 2.1226010506460495
1577 -5.037217830343425 2.2981736360904135 1.087860725084191
1435 -4.74121193051391 -4.155261494849793 -4.378193292907726
1554 13.719809876179715 -3.5349713445346285 -2.909931856127253
1416 -2.268847520977091 -5.505380547138796 3.436112015810517
1581 -1.8787245648741613 -1.921020899685072 0.14228285398083254
1439 6.443471473533979 -11.251599084213678 1.0169537626989475
1558 -7.156883881054961 2.336734161716237 -3.1370907813996394
1562 -4.316753168944565 3.164701664239215 -3.680741116950267
1303 3.5958203824279384 -4.416159935238479 -3.539317745049923
1424 -0.19283897964129504 -3.3663235520448915 -2.2190955164890185
1566 3.6220332698537074 0.27955620810131804 0.9358823233621286
1428 4.543719906698473 -3.8724142506374837 -7.161803936654526
1570 4.700326658318911 8.743528934879246 -2.498740576371594
1432 -5.7240246606173315 -4.620290305969976 2.5171712430095416
1457 3.3591049412926073 7.14549648718132 3.8498207843025116
1436 0.9507767726847899 6.192343265650763 -4.039133563923178
1574 1.016768206503473 -5.820850871213376 3.736773082540008
1315 16.24905837133754 2.9637477373850905 -2.4382042853017314
1578 1.0121120180675212 5.384494013993109 5.0062356191131645
1319 0.3242836921103329 5.38253428274815 -4.106087419261117
1582 -1.5868365865585192 2.5121038474920354 2.8441830302162825
1586 -0.9910399353621433 -2.876381340141934 -6.215904094454025
1443 -3.34625005364195 -1.5581315298566436 2.872476803436155
1444 -0.09122259852959286 -0.7549982814520158 2.896656318022501
1448 5.115406766852816 2.371277809018089 -2.6955127870369124
1590 2.1489352433283835 3.3677464458690083 2.0648093288792855
1447 6.624723370276516 5.37531842315517 -3.89806202753147
1452 1.1476171567493536 6.201820645363719 -7.967119198568789
1451 -9.376893271888935 -4.562628560596395 -6.146423326827815
1593 6.0114578930112765 -8.261658248970678 -2.0846515029948343
1594 0.714065564918073 2.7472665117050563 0.5178252598761359
1456 -3.2371382802553814 2.333813500863046 4.063122374052211
1598 -8.36982369816401 -10.343462048745792 3.189398206462075
1460 0.9136271614569297 -6.1059051221261775 6.813064691401809
1602 -3.5420279331103584 7.269650203027359 -1.7393220276301944
1464 1.0304529975795453 2.916392505965085 -0.40618143496778897
1606 5.2171464314461575 7.89430625584772 15.682560229286866
1463 4.450061143407877 -1.99734718857266 3.890298829295889
1467 9.443561362822509 -6.092151919878721 4.562259056927079
1610 0.29300461886924545 4.597097314207415 12.024190713575813
1468 6.726599332707395 5.8584114233688664 -3.6957313602602015
1609 5.461864270031253 1.4113252945755532 -12.279871959294512
1471 -0.32139067795950577 7.089804266768958 -2.576393462000876
1472 3.2997063281385923 -3.564501641500488 -1.5611448499752942
1613 1.5017803335760342 8.27278940745607 0.17163597743347514
1614 -0.754600924102973 -1.2327175357676474 -2.0873738217102
1475 3.382528954219443 5.822659853572095 -1.7620763762548457
1476 -1.543646343339926 1.5965080752194643 -8.523602585782417
1617 -8.061677701805703 -9.564392949678233 5.475324944659309
1618 -5.575801632717719 1.3882448364987823 6.209580782536938
1480 0.8130780443971786 -3.075084303880713 5.451073342827882
1621 3.248861556686502 7.251082593446728 4.482773873032213
1479 6.129937316756232 -0.9204066663116452 -0.8299521397547011
1622 4.675091941330601 2.0540815031993307 -9.094495990625168
1484 6.014990008568961 4.8470313031537815 1.4299885119784301
1625 -7.829546606709486 11.13573240126141 1.9499638155033139
1483 -0.06485584511610262 -3.3733167226839904 9.595703611160332
1626 10.729348749739039 1.7717170004153076 1.0214825241346825
1488 6.580310409754052 0.18398927153234115 6.6650584058948
1629 2.2361725369783887 -3.1101423849832637 1.8305074938232708
1487 -0.8935826165604649 2.8326420147897946 -8.59323968167748
1630 -5.612167566006764 -1.9078761360700378 4.176400316144596
1491 0.5841738400444785 1.3777305395051318 -7.30518146214769
1634 -8.644007366919599 -4.8687564335510185 3.6762383151030353
1492 2.711023000120093 4.47773061755629 -2.6465967478192316
1495 6.975786240175541 0.8623439555380006 -12.915797537212862
1496 -2.7209198304076887 1.6264058122753189 -7.869811593892131
1637 -2.267084629791071 5.7960777930693865 0.03738335520415209
1638 -3.847732728355262 2.0617459818718484 6.916938166315582
1499 -4.39600011031903 -0.1448963075669544 -7.13032911339328
1641 -1.157255597329135 -5.735779930034551 2.0381180551908664
1500 -1.716659116062379 -2.463698335921844 0.6580650524817862
1645 5.604788711981606 11.37807250699541 2.1190112611338523
1503 3.964286053165951 0.6925952258127865 3.06390226248353
1646 5.749620739746319 1.6004290130494963 7.886346307339393
1508 -5.311893199962035 5.432531959749696 -2.873754658979622
1649 1.2759438056626025 -6.664277567507121 6.073978207793923
1507 -2.474477176374341 -4.7985227898314 7.402428624766892
1653 2.1983335159034323 1.9863351297624912 -13.949589004206882
1512 5.432252919788792 -12.438805064731342 -7.951816141068397
1650 -4.662188167548721 -4.134467531313082 9.814408421998122
1633 -3.5735261874208795 5.078766666491333 -2.1367448031294423
1511 6.621911370838626 6.256444087806748 1.6954229346566672
1654 1.3897805042289761 -5.973426038571093 5.439734999964805
1515 5.288145823669206 6.865689857286774 3.211969425621797
1657 2.5732127993433784 -5.572081096788358 4.939008320458181
1519 0.23614820925055294 7.507762222391265 6.464809109880092
1661 -1.6301437026509027 0.03656668861056231 11.494691106389768
1642 -1.1844544471630776 9.320596109057952 4.044379022892446
1523 0.533035957123632 -3.0989963402948963 0.849260583019717
1665 -0.23371322374232809 0.23618722125547084 -0.3404495752406712
1504 -9.300466304296112 -1.2304502450686525 -3.7333164635273675
1669 4.703243356098029 2.3060595993055246 -3.9136437540585383
1527 -3.1872677977758093 -1.134398932350332 -3.858242786689754
1673 -3.7580977336242913 5.3501089176288215 4.52870133231451
1531 -0.5334882385535868 4.790485840300498 1.718739923396719
1677 -2.33573242550411 -0.9755989034503495 -6.168509317030371
1535 3.419814328226716 10.620450326790529 -6.351052217778174
1658 -0.24253865103001412 -8.67010003689388 4.049062044569708
1539 -2.1960510328102854 -5.022282225736692 -7.704017127391768
1516 6.9710353906230775 -1.2613501423501687 2.748661591417243
1681 8.15513053687825 0.6594579861888711 -3.9276447619966586
1520 -4.961525742475423 0.9313270534808866 4.561241759220741
1662 -10.868452284645661 6.253415630686334 9.52620348324749
1543 1.228427407337702 5.127168779299587 -2.8865724871721166
1685 1.924568021298413 1.7209509994648666 0.16267783560030735
1666 -9.445775710559978 4.242327743789108 -8.599395307702999
1524 -2.2041916607094483 -2.1017405833487435 -0.8979658185298245
1547 1.0702095918959207 3.325927941035419 6.691455909277222
1689 1.9298802308485448 7.092193561231473 -3.834928884823831
1528 1.7287809136933112 -5.365937958187028 2.505146338160773
1693 1.31068894995453 -12.427391402847775 -2.117135864893739
1670 -1.4578164278812697 -0.37073317618109913 -3.0709218348798477
1551 8.185634026291666 1.7805591006734647 4.19778253766847
1532 4.735902026596869 -6.519658646264305 4.118339692358514
1697 1.341346987028298 1.0489087363451255 0.3546474211359114
1536 -0.46448274943207624 -4.192543390385778 -4.693916353757298
1674 -0.9318826378705427 -3.881267827746279 -8.476997977673117
1555 8.070941800856646 -7.568839549064475 2.227025364314627
1701 -1.4295353407978844 -5.964771114345045 -2.3692811040848953
1678 -1.7062764400274288 -3.899236735043241 -0.5509130154605962
1559 8.544896962802623 -0.25175604147189584 -10.506528435970488
1682 -5.752113404208583 -5.1091948541942545 5.108927733641324
1563 4.46507611201909 3.232106304971539 5.449410240851872
1705 -1.7915858087555943 5.615021828469314 0.07521787031429138
1544 -0.8904274825182728 10.836952082631239 -8.431545659474057
1686 -5.794199929501382 7.820344353861079 2.3944576330738716
1567 -1.1223352710263317 -4.312638453351028 -2.2094906171030924
1709 -2.495026462035158 -3.7183642583631005 2.8966408755358044
1548 -7.310855319914195 2.0274213917402695 -3.0593525523729466
1571 5.500130883981597 10.129774503754591 -2.5739708031116497
1713 -2.278263037662382 -1.6082688771236662 1.1560221390209742
1690 -1.0387704091612109 -3.9020337502863334 17.01441360058839
1552 -9.642908261221068 1.5192216928750297 1.5995418659736593
1717 -1.2023708568903777 -4.7186854044703885 11.366937662597959
1694 15.163704696521892 -1.1980134699642284 0.29309035308129777
1575 7.848500514453501 1.2617289463796686 -1.1782782721351908
1556 1.9740386737345772 -7.516717802900184 8.750223762242879
1721 -0.6265192648059151 -0.8905402118846797 -5.336178547484138
1698 8.684900977761874 -1.731088681018115 0.508797214011944
1560 0.9301004616068298 3.704142594650529 13.956713289671445
1579 2.709549868561678 1.4569344231447532 6.978540166163575
1725 4.415172078264336 4.311748995236907 2.7890019637557515
1540 -5.035035891953523 -9.94248379962384 -0.631331251083348
1702 4.060268914590954 2.278938112699357 1.338845813313498
1583 -1.7563642513954176 0.5408578000248359 6.2755358800149805
1585 6.449352385561681 1.9999393457762156 9.274496975367601
1706 -10.137809598628367 -2.2832261620264624 -7.464581489745336
1589 0.4303533553638979 -9.076759201965594 -5.477264112712096
1568 -1.062501445495122 4.357457796757509 -4.4447485700275156
1710 1.9539425938878605 1.8100741305829389 9.82122450317215
1572 3.1262029812234546 -5.980949791606084 -4.364563122093816
1714 -6.39286050363174 -1.2183827491420387 -8.086413509283117
1597 10.44216824603412 0.05182564525263596 1.8716189952178535
1576 9.035243574634267 -2.167276567045561 -9.616708614969232
1455 -6.182876176911333 -9.79044703546907 3.460404749965647
1601 -4.4893579830001284 -2.388102467533186 2.2160811483197307
1718 5.099364946567835 -2.06545834794398 -1.7614410220169745
1580 0.35303001472906465 -4.602585809518018 8.1382936303465
1605 1.3248293937104458 -4.086167825542503 -5.649447505358844
1459 4.990681471460163 2.2304790753107637 6.308628495707862
1722 4.237857854073474 5.127740700944224 0.5323290911536067
1584 -2.111861652825471 7.104543944289208 -4.784449899140213
1564 4.28409675988919 3.982294681842986 -0.3898611984740263
1726 17.830618994147347 -8.439209886908685 -3.2666072216358786
1588 -5.711861859589322 -0.276954398973376 3.3892644753573236
1591 0.5371972256413515 2.179824702541075 3.0236105757832075
1592 0.7237375479743374 6.621362182007125 2.6142313755900974
997 -0.4151326158762889 5.497124470464807 -0.17491490599765067
1595 -10.027622791185088 -3.4744500378912493 0.22179020739645888
1596 10.040083163385791 -3.6572690205771154 0.6019688389686838
993 6.927275010246271 1.146667205091135 -2.7566732564006724
1600 0.9126286177276581 -6.406193803005286 -2.0573792846879315
1798 -3.606975542731451 -4.138460196719281 -4.79985782585363
1604 -0.8364721499255123 -4.065932788059375 1.5569467712905865
922 -10.668981949624362 -0.901370446440211 1.7605143247438757
1608 -0.4267474767130707 6.866393936282466 -4.746963629065422
1684 7.7954801206087545 7.860147875592091 1.6385895586153358
1676 -5.884595257050607 4.369727354612596 -2.905712119183826
1611 -3.8336283719781212 5.4103871417453435 1.5563224080688274
1612 3.221297857288861 4.0638355012772776 -9.333072030143407
1834 8.906676191412176 -0.5590882732679584 5.243055270218846
1704 5.684513189081063 7.03189292499372 -7.200153908100055
1615 10.73277440002596 14.33134721966346 -1.1026768758234013
1616 7.086228673189877 -14.65689044862161 -4.620067071637404
1695 0.25422699171234003 7.982069042983522 0.523947996563626
1620 -1.9759322700559643 5.843021735058104 -7.687587167415439
1619 0.9628430170681207 -4.45703270273425 -6.413953733942876
1672 -6.993700441937054 2.941176830934665 -2.336046223431729
1624 -6.343661334681819 6.001541314447754 2.5283383212638593
1623 9.64597483928384 -2.9856040602393126 3.239067318205268
909 5.346653258184666 -3.497902771724084 -7.408006446284414
1668 4.718489577662802 5.254986222987974 -5.457590300631832
1628 -6.818799262625493 2.0291746455016835 4.868221704703852
1632 8.598828044843742 3.5659838943069326 14.374397664677069
1627 -0.4328551777544528 -0.28846973894356015 0.96584587454467
870 6.076589709099536 -4.272024853180228 -7.549146606619201
1631 -2.100309352098532 -4.033993439901911 1.0782306975169391
893 -3.06033256200069 -7.670014395806473 -6.738103932120741
1635 2.2409312870775056 -3.6235162777028824 -1.4494460888529797
1636 -4.271231575747182 -4.195846262716026 -6.7584458236970555
941 6.011623523947138 -3.8703215888304343 -6.211675704862773
1639 2.318456727335908 0.2661034370405507 3.2467607533557907
1640 -6.206799018307036 -2.2881891713387597 -0.759336024731584
1789 -0.45536459783788563 0.1610412175249969 -4.04785107537528
1707 2.2958850184570654 1.3872322886127062 -8.04447415697973
1644 7.001085457630762 1.213871802250344 -4.553849190940766
1643 3.0337100447925316 1.0911347385347399 11.046173379392918
1648 3.2168623162353565 0.9709269686875324 -3.1608727838618904
1647 1.8400859292770682 2.029654097352607 -4.180258823145464
1652 -5.4783032686733995 1.3686427755788477 -0.16308415399105414
1715 1.315540433997992 0.555479117482831 -0.23221232899906322
1797 1.6503523200711983 -5.007349522151553 1.9870359511038904
1651 -1.0604653259540147 1.5271651624848976 5.727023872986467
1656 -3.23321431949115 5.043595374792859 -0.11563195387745763
1696 -0.1685534798570541 1.645439579626115 1.4296675090515423
1765 1.7859516737352135 -5.447478701320262 1.0405707132166517
1692 4.18031891664839 11.376057356186918 -2.8941938733251917
1655 4.500497322329998 3.3754104086539867 -2.606424335839397
1659 -7.6488714575836685 -1.7106356841397814 0.6381645389875195
1703 3.888160180730016 -8.061728075659351 5.859220605767292
1663 5.559084762263689 3.251817918266124 -2.4566095659328537
1667 -5.524160174147893 -12.272883510733466 2.6382537520450624
1699 6.776516688152237 -3.293560597841326 -7.622335464281917
1723 0.20157807454907078 7.574972128612704 -10.83200681728824
1688 11.387916513847564 -9.33610896211061 -3.9566320852806833
1671 -2.1826855717053686 3.2343867230304086 10.481992365328756
1680 1.2168281592253611 -5.120382372422473 8.405861987526189
1675 -0.30817141931613123 -1.5316880861599962 4.918464526934051
1679 -4.792762737514331 -2.607198644500984 3.783083851491159
1660 -5.218795266453972 7.47737440830955 2.9563992695981804
1683 3.6784234292200555 -3.9758202479405482 1.7151290952605012
1700 -3.824250822519704 -11.959022332042666 -1.0807300102972093
1711 1.2847187792087924 -3.0743690272677364 -12.867716863875167
1664 -2.8274408990004405 -1.2930345054295893 1.2924872712258495
1687 5.24354667263179 -7.211136977931132 1.3833832606926488
1817 -3.5917190328768274 -0.9421980015863184 6.561401135237115
1719 3.0739040767442507 -4.803045750277983 -5.5352677841823965
1691 8.3819050862526 -4.673602624680741 -4.062681947691203
1869 -0.19442274212569188 -6.981658333839262 1.4282304730310955
1802 -5.965244768054725 0.6112462554980631 -0.5691816988550938
1821 8.192473296558656 -0.8681557263657853 8.83821438743282
1766 -3.832162534242532 -6.38687539327447 7.657765863355661
1786 3.5867367990013785 0.47645752122896357 0.7570050609400469
1822 8.811577663722794 -0.3692519396813301 0.030575360099360533
1734 1.7913637087743448 -0.3000647962977543 -0.8518064765091483
1826 6.021804520129143 -4.5288728992558 2.292708228770998
1805 1.4833287833102498 -2.2737226248927636 1.670721057128761
1845 -3.3806068181806013 -2.1013132325034083 -1.9013337885301986
1829 2.056880668215439 -8.197770882647905 -5.939745816865593
1746 10.292565576677921 3.9798950720378454 4.513632702029598
1758 2.633115569174341 -5.260177608009753 5.128617585491209
1801 3.126133101663976 4.063492771725477 0.3754576435247552
1773 -0.4347023510386885 7.01907787796704 6.7819743269870845
1737 -1.0695150555777835 -2.428495231860169 -4.31552326026792
1849 6.240556213818818 -5.8158640557442025 0.5511892474765591
1813 4.69763569175047 -3.0986253396360532 4.11881378945013
1782 3.032936079524186 3.7620949283064964 -2.263312691020148
1841 -4.446266926281926 -0.10872867946581873 1.2196487910363416
1742 5.216974150600222 0.19525259132229883 -5.639636297305552
1741 -5.226877358747486 -2.2601228412381476 -13.952595136466613
1778 -4.59629065433755 -7.767964736054723 -6.924790299338988
1750 5.627827571494318 8.801831131047809 -5.538449826687878
1729 -7.507553983557536 -0.2620513809542694 -2.247640109832601
1774 -8.486785476312551 11.032437175998794 -2.519312862486784
1853 0.43834315655876205 6.741935305746946 1.2158538086601445
1793 0.267155743693193 -8.873251904817982 -14.593016758140621
1785 8.0491051692497 -10.123904364577522 -5.1724104896133465
901 3.021285500934392 -0.3095071413208138 -5.414974957651636
885 -4.740417601845229 0.37637853124746967 10.745373651529974
925 1.312846941109157 10.748763839725939 0.3938650109024732
902 0.4220811154806616 0.06752059943807413 6.472169359545197
886 18.37052987983746 8.657413472619446 4.117048907941696
965 4.157558239262508 0.40506813830180927 10.466098765331402
957 3.2449861417440657 -12.607075820909563 9.743572647177547
962 -2.956186781526331 5.865223130298519 7.634467635416474
1770 -4.909703058513699 9.136092643691944 -5.5806634301868305
1732 -1.4276976903894993 0.45866707660882605 -6.376638523754165
1745 -2.5298444560628104 -0.8759332423953067 -2.9870244202535736
1736 -8.526811187900538 2.5645260249260264 1.328696261769702
1735 -1.5475253532497428 3.8626935035919336 -0.0071409366626744766
1769 8.210113128281805 -6.120219171883827 -1.5361364349466102
1740 5.978188181005729 3.7376466695643105 9.53040902275822
1739 2.6632190151929294 -4.96279004872344 -5.404875511766896
1744 -7.2092764349341225 5.296713785792014 -4.21658848663122
1748 -11.060460208955334 0.9765215109082114 1.003187587116696
1752 1.7643675977869737 -7.934603675711096 6.686688301179607
1747 -1.8380758925442895 9.386425304918953 -10.479550650884224
1751 2.326057194203285 -4.463454509664129 0.6414753922790238
1733 -2.117955212462828 -3.820523524141905 -4.3851857362079265
1755 -4.597024834650711 -4.714889747628276 -4.481659616873484
1790 5.11106537593049 10.351375280793816 -1.9390475544386532
1759 0.08031934966187514 3.0226047004335417 1.2291020159683799
1760 1.0621885559878625 2.5395492011021514 2.247053494168677
1858 6.58400474058354 1.9064001709167042 -3.3902956872720256
1763 -3.042486731889136 -4.141138787559093 9.948111405491444
1764 -14.25722288963986 5.468943510017895 2.7432181325437726
1768 -11.715702816275424 -3.150285205299628 1.5776516130495593
1767 0.28310293525570895 1.0719283489898597 -0.2852110507464927
1772 11.016679472961465 -1.384444984685909 5.9493172373135
1794 -9.173180577306645 7.329706691851067 -1.9472967467452256
1771 4.72114223275688 -2.0707132126493937 -3.897107347363948
1776 -0.08828935961820165 3.713095876397238 4.173635984950801
2572 -6.085104574937643 7.059893958210277 4.983964967840252
1756 -4.284214257136875 -0.09770713393071842 -8.118287140163504
1775 0.8735269990543768 1.8846754254143863 -11.093332009394965
1918 3.441725064462346 -2.926945916266915 0.6032622431047231
1779 1.7078673723927176 -2.639609328141065 4.402446964049884
1865 -1.7308151442924085 2.750192630725824 0.9524220024835486
1783 0.2831324886112683 -0.6866882475387883 3.7398114626059336
1784 -10.809482867377948 4.203683501627448 -3.8679851331538138
1787 7.1575494446939265 -9.915272393641184 -2.2805818038086096
1788 -7.385196764087123 -3.313489641072308 5.2192644653044855
2592 6.123744685289341 9.468458445705496 -11.432638986517118
2588 -4.692336121392926 -0.8004590773548693 11.792198466608223
2463 -1.4917839643149031 2.416471918967446 0.26384270237766055
1792 11.350714520920253 1.437736088488075 -5.254364063970105
1791 1.7720183407145493 7.028630628400465 7.621494101393563
1796 1.5027384209165426 4.0553377347025545 -4.548920130720219
1795 -1.5649931611649899 2.854648312070878 -2.1617499670566214
1800 -8.673558963208043 -7.724808969869182 -7.9767376468999265
1780 -2.5843877650198572 -3.067807331827242 -9.628271154923379
1799 3.734931056015849 -0.869082159455276 -4.914610194631677
1803 8.901342444077216 -10.531143037385984 0.3561281147048723
1807 -0.3385341252807533 -0.4556839959697413 5.572807463772263
1730 5.65279801869542 7.962794497931442 0.35297987806229736
1811 11.718197572349082 0.2617340954516438 -9.602258885899824
1842 -10.63203770113693 0.9927302995453362 -1.8269296709455611
1815 2.9196962184645274 2.312412784394068 -11.417491413751314
2584 -0.4997534260477529 -5.146360987218467 1.3121053633396083
1819 -4.463261177085383 5.447088053593331 5.425645517573824
1754 1.6127358589688852 -3.0519126180289584 -1.446402353564724
1823 -0.20874281600348243 -8.613232126822663 2.1715350179738904
1827 -1.0539361680008874 -2.800290942922959 0.921879127633358
1804 1.3890394494425753 -2.9919426437191787 6.533171653457195
1808 -1.359996725290632 -12.425042979756318 -1.895678239008233
1831 2.3344645827615293 -5.571262634825342 3.039649031357645
1812 -0.5382244512079045 -2.6132868912289213 4.727453543407041
1835 -14.17102972149318 3.8292365894478597 7.901703579165283
1830 4.874598676335617 0.3965668029850694 0.4430308947223413
1816 -6.945361488324313 -2.523969391753164 -3.4560003860609267
1781 -5.167466433957587 1.7481597808685856 -6.950191128678523
1820 -2.1162782116459073 -2.770549412710367 -4.8024182436569625
1839 0.1722939489220852 -3.7473336183114747 1.2132533989400143
1777 3.4378368550248406 -0.6492643081148829 0.17566099760723614
2580 8.517569782373743 2.9854850346142596 1.0038693380521544
1824 -2.8307492147290367 3.60703303888094 3.9072359435177866
1843 -5.0719646796233535 -4.911759070430299 2.4137015101264945
1847 2.541928341193013 -1.6683416792757497 -5.670199648168444
2576 -1.2460432443510818 1.7299223803200918 3.9737414926399315
1851 -2.059209952710706 -3.5302761620060807 8.589163581626334
1828 -1.476357908291315 -2.038117637889906 -1.3790525463504353
1749 0.24966096978397806 -8.032219362201497 -4.449732902542581
1832 -5.768051406690997 -5.5378973418719575 3.0184001985815634
1855 1.4460286963213835 10.621362131619067 3.8669413021408525
1753 -4.404738302461274 6.482444879536884 -5.063722459348155
1836 -1.1836437280721055 -4.49997701404031 6.658777698758113
2451 3.465091594644849 -2.9427420793676067 -4.520185165171551
1859 -0.031165951077100552 -6.943236295156938 6.07970066224678
1840 7.817666753289105 -3.6143700100261613 7.847144062844842
1844 3.3994681682583017 -2.351819181394979 -3.1027564657918165
1863 6.115529598521718 2.661029484770385 8.105770058964408
2729 6.382666182414618 -7.871686673561312 3.2935065545746736
1848 -3.20216332040624 3.142499503786791 0.08846801637401859
1867 -5.208603754471788 -3.314640122642668 -3.757443494366234
1871 -7.16795862118368 3.7595232249873254 0.2758364920360069
1809 -4.521968383042448 1.290793067789648 -6.72890153483379
1731 10.607987177619354 6.731041731150801 -8.19137964883297
1866 -2.2052848870310067 -0.6351056105489331 -5.973997159125808
2591 4.819922802342422 -7.957365239328665 -2.0486716652443877
1856 -0.8438489591528481 13.40632144184228 1.7173747597400513
1860 -1.462121000328483 5.738372583808223 4.791517244602535
1864 -3.032120453711894 2.274953930046946 6.730647199085193
1743 -1.7466447143429924 2.1765316636804064 -12.147122257488316
2706 -7.810683994284223 -1.5215989877156184 5.878107907995488
1868 4.368315200354724 12.101538538978424 3.2089604385267534
1872 -5.196989936021045 -0.3162499708332066 -9.906830381189478
1806 -6.1637132811485085 5.936669187918754 0.733445165345605
1870 -4.709501470025374 0.6984582781749799 2.6075436349670946
1852 16.765284901012762 -0.5553508499284305 -3.0628212729693955
1874 4.288180679239423 6.688189162051096 3.7421625271767582
1876 9.765434353654664 -8.446864245558567 15.127890960884
1878 -7.132704294155263 -1.708060507208373 -7.242514181830293
1880 0.5088809172712709 -1.4095528874687264 3.747492276611019
1877 -15.14245170574875 9.172427113347624 5.068235406130021
1882 -0.2906664228115711 2.6444133017566087 8.867601257773952
1884 3.967597686092523 5.083975000211119 -7.190717490503617
1881 0.6663836780160809 -9.690956444375665 4.965527796770055
1888 8.285950493685691 -4.458417977183508 3.3233289886974813
1886 -4.169831905107373 -2.977498191762197 -4.238500913074337
1885 -11.769155106863732 3.3495173398478144 1.286074290971496
1889 2.7582179195711483 1.8029217793904426 4.509111921073844
1892 7.028568692736184 2.5725435403707673 -4.60993674350132
1890 -5.068973431277697 6.6601456974139985 0.2033388032101139
1896 1.8138398848513253 -8.663399374384824 -8.916028395707102
1891 -2.296680017404047 3.8058017820479 0.521929481674267
1893 -6.409427117891193 -3.6511691535577353 -3.344254642626286
1873 3.0177560319673384 -3.065058799311643 0.6262983286432893
1894 1.4564838042082158 -4.741965195009996 -0.34685363166658706
1898 1.6534490425807173 0.9693516514014281 3.8274279502126505
1899 2.6176617219235583 3.518579584028757 -2.210761295646249
1897 -3.7789658532683323 7.033441838646186 -6.972415029359446
1900 5.005181517924043 -0.705247223347089 8.769035682085846
1901 1.6691819814522277 3.0768287578951377 3.2005286020538386
1902 -1.44666868475505 -7.080569792806413 -0.22637405899635787
1903 0.8947618263911064 2.9930726976302466 5.829766903653137
1904 -4.723127006297237 3.393910807144385 -6.002861315235436
1905 -1.2787918109430803 3.6549546641665573 3.5002632564883607
1906 3.3715967536193707 -3.0566009701829735 0.9658948098282252
1907 -1.4429661560927565 2.3317317214321567 -2.346871792352504
1908 7.186901216029074 -2.5310124233735043 6.492791475422199
1909 -9.722322104154765 -2.47809009111777 3.595661594375699
1912 3.1915293731918863 3.9428302305779317 7.565006368356518
1911 -0.3182862007086073 -0.5702724627655624 -2.659578113916082
1910 0.838565981410756 -6.025180440298169 1.7099874183773434
1913 -5.125004158676761 -4.802522008051912 4.7648684379750295
1916 -7.234036934722192 4.976741868152074 3.0424987528742915
1914 -0.9090351931724412 1.880952357842126 4.0177452292600515
1915 4.602488088281469 4.272911033375417 2.177133549561021
1917 -2.0557289355117696 3.9704237080359235 -8.56968742128457
1920 1.9778514186948137 0.9833837612731593 -0.30233036546084735
1919 8.543757771452196 -7.113583253965724 -10.122471772117441
1922 0.7252761117431873 -5.630138973225195 -3.9297043688474944
1923 5.90605008990487 -2.082430103634638 15.320012679603789
1924 0.4800735519537601 -3.1712674207537277 -4.191152517631363
1925 2.672702891286918 -4.257571989843676 -4.269655461871365
1927 -2.4978546764983096 -2.185960621631093 2.4504052716796045
1926 -3.3228240325419085 -2.5266335947460377 -7.7184762474621325
1928 -3.775369185968128 -4.938721505594326 -4.936690346762349
1929 1.968144522370053 -0.3657135844450481 4.876440536556429
1930 1.3051794622270176 -7.822120596858916 -5.01090678360726
1931 -1.9914594512905555 4.936756924195813 -1.0505797673546167
1932 4.471289327240442 2.5662907879361696 0.08595561481481061
1933 0.03533736187640875 1.202681315241121 5.77586106260249
1936 3.01968431017296 -4.710102482096261 -4.8736100165613765
1934 6.727194256324374 -4.040194976720686 0.11463750137278553
1935 1.1882188173839396 -2.624847602340652 -0.862496969070308
1937 -2.315639667133648 -1.1047993989611846 -2.790995230242273
1940 -0.8553054843287767 4.0963253730502815 5.065831624970644
1938 6.746408132341481 -1.6671958284064075 15.519099928173977
1939 18.813562519164055 -5.431488605721141 4.439434728831938
1941 4.100627258629831 11.419255554498832 12.800619043844744
1944 3.2303571374882085 2.6477836359757045 -4.211581008393534
1921 -3.640026784887327 -1.1180445279346436 -6.805090037066968
1943 7.271979282017577 -4.101616493435982 -3.77077951161234
1942 6.385281892693972 11.315519989911566 -7.371348064671964
1947 4.866730327915121 -7.032921285324265 -0.2164746835450034
1945 0.8273061933613453 0.17044606323387854 8.165749461329407
1949 -1.1885093520595613 -0.08834726773151608 6.210803029260827
1951 -2.5414085207941732 0.8549927020477942 6.567037663483274
1953 -0.7525616472640432 -1.8240359367138694 1.3413560743600055
1955 1.8868002921544316 0.18459416853652902 -0.7483185464490848
1954 6.084557976904864 6.97633465842515 -5.890708633757835
1957 3.317932821067505 4.76286835540831 0.18485965472872834
1959 -8.577463018519124 -2.8598169934477893 9.133517027074777
1961 -2.3590884120245863 -3.5222148195309506 0.7196155454213939
1963 3.939138925501183 1.9158227554864466 2.79593234763997
1965 -1.639602309159759 -6.6650470964034065 -3.923285225527469
1968 1.5609927771613252 -1.6270894940411245 1.803631929482634
1967 2.791315891670826 -5.624392760544522 -0.8829077931193223
1966 -5.05583919223034 8.11680246393323 6.18675896758422
1948 -0.3993559248465431 -0.44780797235661973 6.879046867921676
1946 -4.840036589384175 1.6946459241271903 0.993341395233048
1971 -6.301967924672725 10.086669969807746 1.6724656813243375
1969 4.136787939284065 4.747341063841971 2.031073320206475
1952 8.54139128589639 4.916449889684945 5.87399176761384
1950 -3.438332125365024 -6.80963300108942 -1.869048495472952
1973 -6.52442835070728 9.585532588997552 -10.959676981542211
1975 -5.306369262435842 5.9611262237192575 -2.1250109622799926
1956 -0.8958939154126035 -11.51173115816775 2.3835476950455816
1977 -4.467123565478394 -7.045704740893496 -1.5027539940989503
1979 -0.11263203240680757 -3.8738568299304177 0.32449161287819583
1960 -0.443386963218309 3.3133120365676634 0.776369612492999
1981 6.011170509189383 6.924202636036051 -4.0795564865683716
1958 1.825274486707439 0.6466136384720571 -1.8883544436533273
1983 6.715815860956964 10.971207524743793 3.3929181650005233
1964 -1.0237787567254808 10.975046743685395 -9.637161846445075
1985 1.6095864003334852 -3.887515271804709 1.264432987764419
1962 -4.844668922695948 6.405565795370464 3.3753928606966945
1987 4.787433086208367 1.870859761335086 -7.891907182731673
1989 0.6390020023799122 0.7816290031913833 -1.7368149757617604
1991 10.723526782708744 -11.337208693491949 1.4183691648227967
1970 5.967206043265 4.44492734261918 -5.148984530949851
1995 3.9244393662661206 -6.360712375201688 -4.998764419530961
1972 12.029499823470235 9.553075860197803 7.160176903658324
1974 -4.302663374285453 2.637983911066053 10.066136599851234
1976 -2.3612602974009693 -1.1791622337992513 4.9336287860751575
1997 5.546867423164174 -0.8906736830143012 8.938960234950043
1999 0.6556689054388567 -1.6339764882498977 -3.0043370204565343
1978 -7.480178770830507 -1.291642045774462 -8.147938864382914
1980 -0.7325426023212706 -0.7238372325141659 0.8556026111204856
2001 -1.177588173930046 -0.4194552625686456 -2.7980329815822924
2003 9.64114400180025 0.15615506762734557 3.5058385969196095
1984 -0.4887597370898132 1.2351343567685211 -1.9658339134596177
2005 1.6067260412156816 -0.24461029154439728 -6.009339346869222
1982 2.4908527779557628 -8.48718335013258 6.0148056297871975
1988 0.789425448841281 -7.306763396273114 -12.34379671989954
2007 -8.282259407508622 -1.1377321574303123 -1.683949405231393
2009 1.9421910169308163 10.496909521988224 4.285155863381837
1986 3.6262969033003674 3.8812434943863545 -2.029035175577636
1992 1.7586190609974541 4.037947543623372 9.29835264924872
2011 7.487432012528705 10.403827191300975 -12.34064444937346
2013 -8.532400499839204 2.6660583349692053 2.5602329647237445
1993 -8.01513536238867 0.8987333696240448 1.722021316593619
1990 -5.8778122632051 3.532907562363918 8.049644879582516
2015 0.5992147010863789 -3.835078236288886 -0.42081395787305476
1875 -3.038523960722276 3.7521177978271796 -0.9461283088525374
1994 1.980972307555531 15.994655011243676 2.082683976717149
1996 4.962830433478523 -5.670893748183833 -1.1317434531758033
1879 6.323852118095679 1.7382596536172363 0.0546933962828573
1998 2.2241283186677925 0.2318369306414184 -5.65262482807431
2000 4.005602856034285 4.07786326339566 -0.6608098953180049
1883 -7.19585040975864 4.992231939621692 -1.9438248423535456
2004 -0.5159216059521475 -7.839749164376171 2.769095960288185
2002 12.877732247844138 -2.3796423170890466 2.8904361349449097
2008 1.2819379474070762 1.7761583905375784 -0.4676284897178687
1887 -6.130753398296388 6.319391938333157 -2.766963246423499
2006 -0.6654933368050309 6.668774110752017 3.6112185723225187
2012 -6.621878713767756 8.180108774758446 2.9250815459012496
2010 4.976171611425447 -0.6968865062414389 -5.719723946652637
2016 7.453332281687252 -4.898456777929937 1.8414758755631095
1895 -11.061010203332085 0.9729390719540392 3.7720037010972174
2014 3.0779041265075655 -7.832538990128177 -2.8429377577824724
2018 6.406739937275493 -12.005348022736564 -1.0081791789316152
2019 3.746590767141504 -4.901080659766934 -1.1356636953179888
2021 -4.008040781203571 -2.9416788871990733 5.359458999134495
2022 0.6813811658472032 -4.948956461408096 -1.858864287465421
2024 -8.885994153258364 -13.354096237012719 -3.5740969898304553
2023 6.394114632092972 7.316337900133693 10.279368006620366
2028 9.99180967989378 2.5296128335603396 7.900239041338666
2026 5.324206110063157 -5.5901448812031385 -2.8518206480966763
2032 7.616803910472796 7.377274520903101 -5.658649194390864
2029 3.666785792846419 -6.242441537915311 0.42853833485653675
2030 5.6732848813822025 6.101764798737125 2.662015406656143
2036 -0.03299309728314724 -13.578380550778059 -10.559827763483476
2034 -2.963947279007515 -4.084726228699463 7.144177195682428
2040 -3.7577587662966163 3.4629247722505587 6.223169808766619
2035 -0.43949167985269005 6.299472722020421 3.251089324095847
2037 8.482918257963854 7.466186098571113 -6.398585258304298
2020 2.970431319940512 1.7458899231489635 -3.417424629774366
2038 -3.018782906952667 4.539447071835481 -2.978552173289421
2039 -4.0026710104238425 -0.5246598414203719 -6.111707540639874
2042 0.29472545414215795 4.961734619513711 2.6455943565191467
2041 -6.766604305990027 -4.260014620768665 3.707513544169192
2044 10.393412825798574 7.337888653290732 -5.2484569118673825
2043 -1.0433626962793334 -1.9857913453027083 -3.6486872233750693
2045 -5.728530748649475 7.328301206753689 10.041230048497805
2046 3.407340392054898 6.433121717814343 -6.334227603286906
2047 0.45255404839842317 -3.59609788147922 3.848811162229262
2048 -11.98536631554719 0.3151268794354099 -2.0947377889138616
2049 -11.107605928450585 -2.6075954532413137 10.95532685597739
2050 0.13420422047337985 3.8650642487597624 1.3564185316080803
2051 3.6748959809303465 1.2982855429527578 0.9729111738136854
2052 0.09323800661364166 -4.258507807026516 -8.292698859157849
2053 -6.517588932400068 5.654499289714516 6.082566832688308
2056 -4.950267398551386 -8.628564029734406 -3.297873316881602
2055 7.3810677098736015 -1.4749994820141903 3.3555517925224123
2054 11.00054496759406 -0.4902716789059249 4.24354909427253
2057 6.51714013469454 0.9414739015454762 -1.8167668007846758
2060 4.818156442328125 -11.068913563284438 8.103486116898416
2058 6.998194850747969 4.195356153085892 -8.09593718904699
2059 -4.515577491194128 -1.8111007859981494 -0.39983369127912627
2061 3.1478489456270795 8.197665187605876 5.6373480007687995
2062 1.55384992118155 3.1720735431157587 -1.2159124580623135
2063 -8.462558628031802 2.8064480490103674 5.667774841574901
2066 5.257816307672153 6.571800007992904 -6.456791059808212
2068 3.1977812213771086 2.6708857242347515 -8.178351944728794
2069 4.7230949439759256 6.4653526053557355 -6.654624886216568
2070 2.1958185619203143 -0.6003531788516738 8.009601194868171
2071 -3.7445280686983846 -4.109798387339214 0.23403909365200398
2072 -1.456412942898073 9.008906222955035 7.154379048075463
2073 -0.7207210672436034 -1.954033272793651 6.981990898281432
2074 0.6974018665930908 -1.1466129485213514 -1.5331118612639159
2076 2.515130296197282 6.156798774952629 -1.9608462710290946
2075 4.804851882315496 -4.883239861174715 -4.880931009434316
2077 -4.312501985581176 3.900043805627867 -5.525379913174494
2080 -1.715679851632117 -4.819764772447304 -2.283387485499089
2079 -6.794341308041879 -4.728546718683112 0.06714001097302721
2081 -5.015779724846672 -1.2740708724859207 4.626473913619071
2084 -4.957998908198605 5.875510957432158 0.47154010162536675
2082 0.03487698182743243 7.125758742242832 3.133444322426733
2085 6.325226321347595 -2.0316343090888345 3.112640918291479
2083 3.633308292311487 19.572415250501162 -7.999871391961654
2088 5.0769538261246785 -2.486507131976008 -3.067398786911772
2065 -2.575190548898811 10.905445282219715 4.468972578279015
2086 -4.16232507123048 1.5148989959582218 3.3249033440135074
2087 -0.938455797579066 -1.0263998950496702 2.4256461514830776
2089 -13.83111909373515 7.024836639478716 4.219083619368081
2091 -0.9172310076106821 -7.4976419381461445 -13.546310879706997
2093 -4.100265380646265 -3.3630896211815995 5.222087312174216
2095 1.7889381056150067 2.0031790438723456 1.8206281849831538
2094 0.7557593850945433 1.1592577449868222 5.4044933558361965
2097 -0.9911976747576952 -1.7721749250797088 3.0157225875008216
2101 -9.180649973402765 -4.798848080561614 3.787858564405032
2099 12.056274650181345 2.477626382455893 -0.9089046302723154
2078 -5.568793090031458 0.23087241847485065 0.514912607736966
2103 4.765784426170264 7.977289437929924 -12.16296930783607
2105 12.126430028937873 3.100123467157043 -2.592385812565051
2109 3.715865549103345 1.3196915795346502 -1.8916446747744524
2111 -7.44609621024223 -4.373724676420464 -10.356862393058877
2110 5.022475331370136 -5.711558700997024 7.809972486828435
2090 2.704734834169413 -9.91734102538066 4.094985355711514
2115 0.21672169983826545 7.491800959519391 1.5421466319157668
2113 5.827712789107787 3.6783511384709415 -0.9322703354353913
2092 5.2196467031775 -6.424443315528956 -2.7153512396307136
2096 -4.363624917157275 -2.6826964045997626 4.2204810757582045
2117 3.1326623481114932 -1.5663800174295668 -8.346461101328751
2119 1.7669949701062067 -2.3695814335341976 -1.184990784083785
2100 -4.560804585715701 2.3796838860260046 -4.861498333128238
2121 -2.455976825096475 1.1476712014872161 2.084479775411072
2123 4.037868988612887 3.2341885607316985 12.666978636428267
2104 -2.6697027208763684 -2.364578647443783 7.551365925190701
2098 7.127677084623746 -6.060196497837421 -1.1840563226637673
2125 -0.036115322892796835 0.313089177068542 3.9285157812535325
2102 0.9749371310349929 2.8986896465537177 -3.796693465486802
2129 2.0236078368974217 4.962469396698568 -0.2818742166505888
2127 7.195067883723997 -5.0808160133259666 2.268844630581892
2106 6.334933678299006 -7.344002230566008 0.8089842740685076
2112 -3.9263109867043933 -2.8698871560808197 7.566590149760657
2133 1.6916135128674261 -6.387169899062175 -3.862532295496974
2131 2.2779323150445308 -5.049849000682856 -2.9693585624214363
2135 -4.975225577479904 -6.670731242037852 -1.1056658380089706
2114 16.04378802230353 0.32270877221659483 -0.8680627298665156
2139 -7.241693620388888 -5.6422812686426145 -4.824543460982017
2116 -4.294179458029501 2.534121757422281 -2.4943462967918073
2118 -3.223094749605985 1.4865369233262629 13.272594690630722
2141 0.1435313617951191 3.4800329884432832 2.10370572311456
2120 -1.2803619013072074 0.5357755522476719 2.2005666252927383
2122 10.432132775607235 3.1459883853749475 3.9510604656407167
2124 3.088783366890027 3.6004618827020796 -2.2185159424192973
2145 2.029479766790869 2.550491058290528 6.2122659417084884
2147 2.4551875032748374 -3.34299448652475 7.773623264504835
2149 3.0573158523242423 6.390728507203029 8.176957969438373
2128 -5.519497262012572 0.016481631713004857 -10.548663452983462
2126 -0.6782638059053555 0.42057313115645395 -4.825477324407379
2132 -2.599175063967401 11.35699314398208 6.929775365384914
2151 -7.267491147223349 -6.2179705856705905 -4.726346774357229
2153 7.088128415445131 -3.1739645999932655 -4.914163353789823
2130 0.06329550536566704 -14.697735930873103 -1.8200494607053341
2136 7.631381878284506 -0.39390357013115673 0.5054106541308726
2157 -5.339370352889367 6.736445976830128 6.641483300922532
2155 2.868440975416017 -1.2577025443489784 -1.783374048386893
2137 4.687289049727922 10.716906161457855 -3.800405346279514
2134 0.35429437597039115 -2.2414053196698207 -5.685917020450388
2159 -2.01644378234521 4.046792936385809 -3.062838555560182
2017 4.213620974478475 4.170968034496084 -6.660906607653005
2138 -0.9771534542922085 0.7415838446239092 4.684797227063586
2142 8.384469544980533 2.2807436861897576 -2.0612444774567065
2144 -9.860211218421943 7.693316896769543 4.137840282303482
2027 -1.9696068128824669 -2.740752291060656 -4.902392405360495
2025 2.6943120140846877 -5.407858876194986 -3.2460821405888964
2146 -1.7353851918008136 5.653350709527311 2.333287480213064
2148 0.7162331134799906 1.9281432663267717 1.2919305496869622
2152 -4.000873300873177 2.532996985299315 0.9564059000230813
2033 -0.9855051133647637 -0.9619127674310648 -0.058187018186941095
2150 6.438096415689795 2.101794984222119 1.0084130216017628
2031 7.557675782303815 -5.631369151642557 11.449758191177482
2156 2.2424119497008226 4.628365409533967 5.138308410945371
2154 4.751086384340269 13.668484739287825 1.8363210476863003
2160 -8.691889899942387 -1.6415759382816864 -3.9934428728544145
2158 0.5153741812347992 -0.889396100145622 4.834906804294333
2162 7.061002779557009 1.0152101288134188 7.579571297365681
2166 -9.7366699181028 -0.9218485512238261 2.6261511260536787
2165 -8.688434513378287 6.564043707571784 -4.084716469009031
2170 1.4817596884382302 -9.077149485219255 -1.4955586999627166
2169 6.635409774638264 9.458370334678456 3.0526868609421354
2174 1.2877005308301042 2.4712971947905267 -3.7063992052920702
2175 6.194344721785391 4.984510145897282 11.365699097291513
2178 5.524117475528731 -1.6646212265785367 -2.6124583995793595
2182 8.177771874056996 -1.9877661242576805 1.0047480162310722
2161 5.1815188009679245 1.590294660272644 -0.10368360252672519
2186 10.669888832508118 -1.2290897937910907 -3.209007351276747
2185 1.8048779800556363 1.1718350466212701 -1.4934907869745953
2189 3.6211462023533865 -2.4639416954601097 3.9553326688272024
2190 -1.2960513668143445 5.58669613209533 -0.5645865729687494
2193 11.374842888074797 6.570862122635646 -6.560976824914936
2194 -0.3020778641095713 2.0798841506319774 7.610285612680921
2197 4.199371265366272 -5.510084803254847 8.360639543631228
2198 1.3030196583278735 -9.401732484428145 0.3756558780621443
2201 3.4400633542355106 1.9575438780105847 -1.6615964910366152
2199 -2.4093758266919085 1.507420374000105 -3.3690401670078285
2064 6.406985236125402 1.394855755112162 -8.409035919493467
2202 -9.363440220437768 -2.552160147621524 0.012647143850673531
2205 -3.3092062601928736 -4.595765314840586 2.7983473907853593
2206 3.248290271593523 -3.2934067700110905 4.333501496718481
2067 1.1760846952366795 6.299145253656105 6.244995875624885
2210 4.195360726103683 -0.8506174920379518 4.048356613002141
2213 1.1389663287711695 2.875813147077793 0.32046326056043783
2214 -5.2612050343102315 1.9859635442834784 -6.842185183325875
2217 2.4330076006231307 -3.6834023998861247 0.004642185574975875
2221 -0.18712824640504502 -11.76252867154873 2.1065243362321415
2222 -3.7542262965084383 -5.455096268627622 -9.433929755999582
2225 -0.7478303012995672 1.098907673724541 3.984754509955003
2226 1.4352832597264744 3.769518595837648 -2.7685758762373864
2229 8.616830181567055 -8.071061011317322 -0.30603239390434145
2209 2.5012509881712766 5.449244137782345 -5.890054487185288
2230 -2.107766256055593 -0.5694562980749914 -4.833123827501087
2212 -5.84616541143221 3.536043850733073 -2.4894280301975873
2233 1.7812146066474108 9.49453207519171 2.903820573808563
2237 10.649427764562395 8.427442513359651 5.453884111301219
2216 13.78400662097217 -1.7293268379687472 1.24654202757047
2218 -3.4332671005509905 0.3760305870460605 -5.437583970491239
2241 -0.6367645263721745 1.98680455127874 7.22840787356006
2245 0.7508862106980557 -4.338510417891995 11.397377245704591
2108 -1.186790753574868 6.114135555022324 -5.865740531374206
2249 -12.059204888743853 -4.63211483343915 6.171299715117271
2107 -2.6287854011063807 2.8757506472240317 4.823025117570557
2253 0.2679489142972012 -10.235451422809335 9.709152214871143
2250 -0.022311949940113752 -4.29861694482332 1.277620601101527
2234 12.652615218527437 0.5515946021305882 -1.359577907115088
2257 -12.62753323969063 7.94372706653843 -3.4971073271850712
2238 5.185313260187811 9.752093390832277 0.25328813755536445
2261 6.770828528520265 -6.948693012963115 -2.2443080283791894
2265 6.177102234167528 -1.1347556912294297 2.6109469078116416
2242 -2.6181683998182836 8.613338274666926 -1.6964453094614032
2269 -10.962510877530748 6.401090626260693 -0.5145389163894583
2246 -3.327699714397635 -12.211429864670276 -6.873770322221838
2273 3.555777856253975 2.0429647464826513 9.750093240469328
2277 -0.3595928009585807 -4.196477657341586 -0.6209331812806942
2254 -5.845585588828707 -7.3317750081852235 -7.723531334381235
2258 4.209991995822874 -1.1518531598492747 -4.3823923781104295
2281 -5.770328186237472 1.1351976801470103 7.211458877824056
2143 -7.079835406803793 1.7263368623582966 -0.8869502903923092
2262 -11.195088093513261 0.31231543329519934 -5.945126826287755
2285 -3.732249541413184 4.468912945010716 -4.7972904541353865
2266 -5.346213276333457 -4.774884740118653 -8.932572331580602
2289 -2.978074929193746 -9.773300377572815 0.3816373283409228
2293 -1.9731217559156806 0.6487130494513892 -5.541524241653315
2270 0.3044989891234476 -6.504557954571907 -0.19536055206912534
2297 6.060679706266904 7.180424870860086 -5.698353810520873
2295 -4.06904669395838 7.31519581601331 1.6937656837480208
2274 -1.5939430103404746 -7.302386815127395 -5.234380878453572
2301 -8.947160018869484 9.225022085816432 4.922988744189481
2278 -3.425325218512316 6.830916763913091 -2.3923510786356577
2282 -3.746138331217247 6.084077093951244 -5.512841821612467
2284 -2.729468019595856 0.6794377190004361 6.839127700280627
2286 -7.048693914555304 -0.9455068493353738 8.546035132331786
2290 -0.49598557659812964 -2.044986692779 -0.7421543661206755
2173 -8.663448608801014 3.8170778167318193 -0.7573999604886348
2294 -6.009323434947484 -6.901868156646512 4.1487375786170055
2177 -3.2775068987581557 2.7630592193446892 1.4494254322555358
2181 5.80547412117621 2.5230125031112918 -4.359410838047125
2298 -6.843755096842083 -3.341515961136995 -0.038675955277011606
2140 0.7584409244508908 2.7628373500275365 10.991423121511957
2302 -3.8742751928428047 2.7707523729696972 6.154447390076056
2306 -1.0555720970981106 -8.161540368796203 0.5000747433023282
2164 5.698593927600177 -11.542250927766014 0.5314059208020717
2168 -3.4681382064636144 -1.7774227865529908 4.480211136625684
2310 3.338168213506585 -2.7999801202754777 -8.668397732300278
2167 -3.568918427821978 -1.467256359517226 -10.335334900000793
2172 0.8674260760708737 3.227713396211884 1.976215044215328
2314 4.2102449752960505 2.9691053383155093 3.4590754566504542
2176 -14.483853329848209 -5.6757246321204855 -3.1630299454395483
2317 -3.3121512767239136 1.1325482471250758 9.981388792696908
2180 -2.6835176184526084 4.530053803590095 -1.3210437770961851
2318 10.012587519936057 5.589469217896926 -3.6421603889048035
2321 1.2181710128582477 -0.4444128264561334 -7.6737170654308295
2184 1.0478968090876362 2.3602541792926637 5.506822652844705
2322 -2.992752908815786 -1.61750887522744 0.6750562703304692
2179 -1.7078803315363007 3.1263471998716637 -1.317093811720797
2326 4.092165951382075 -5.959070597586485 5.360747156221661
2329 -4.401811620239591 -3.5115863225269797 1.8617322498724964
2187 0.17348152468580402 -5.317540597849624 -11.955028351920584
2330 -8.462412521750592 2.5341153732490564 -12.94568272883626
2188 -3.3553362229807693 0.14372488332438788 3.199021997628186
2191 1.3414398677874293 5.8664017698802535 -1.8153264244551433
2192 7.139083364071529 -3.8773552669230456 10.940131652030878
2333 1.650174654485962 6.449383917542579 3.0215853003077093
2334 -5.6605607676531156 -1.2470416275101057 -2.0414506827930676
2196 -1.9632430584882954 -3.1355275802063 1.620585165049474
2195 7.294429110930109 -11.30138245981175 2.4954917666346668
2337 5.014481612085935 -4.246216946042751 -5.435625330660437
2338 6.911503112405339 2.418282857539151 0.4245610334544449
2200 7.538002880665872 -2.143731761102316 -2.604007508680261
2341 6.687328381204178 -1.2264400394673518 0.09383838801798482
2204 -6.789040899295844 -1.3458633375953288 1.5586191538571326
2342 1.4141206154491863 6.591738397896734 8.204984836303534
2345 0.6428398913223893 9.435204773597473 -4.112444083894762
2208 9.463295186525809 5.503797145605864 7.061354298633916
2203 -0.8108885430087858 -0.3764909509743383 0.36013305823252245
2346 -5.502708020560931 0.7031287183654557 2.9535638531106136
2349 -1.584012403077007 3.8649270311564896 -0.5654378758051789
2207 6.273117762114726 -6.828921949430126 -6.124598242732995
2350 13.694799471674258 1.8333649490122648 3.540932237593621
2211 6.729324152025638 -0.5231029867502212 9.580053506139397
2354 2.9345510201431213 9.891569958286585 6.441054979990926
2353 4.606963493770499 0.5000432631916618 0.9624035562320368
2215 5.002083581031839 -5.740510355340167 -0.14879169903020834
2357 2.956926413873121 8.351193205711057 -3.5405043267330405
2358 -2.6131206582155477 -6.301476359287421 -6.221891960022215
2220 -0.9628931997735335 -0.9303354154850936 -4.8656203569562
2361 3.752142777636834 6.1005945050795995 6.276701793719186
2362 -3.3218440359812273 -2.136949979473644 -3.198158392621866
2219 -0.9193256202364525 -0.26063175047073134 -9.086351255454279
2365 11.537220629138915 -2.995435960230161 2.33410441325679
2223 -10.015899805331532 4.3222132629955885 -2.526823391495685
2366 0.7234811252728246 -0.14205675024723166 2.0482237351209758
2369 -3.23169076260259 -3.6762513303543876 9.588337978161903
2228 3.6855322946548044 -1.1304016276063331 -3.3693082646228194
2227 -1.8540957047012523 -2.408350383473535 3.280835008939251
2232 5.548701227292193 1.9484429260294334 1.1983974171925196
2370 -4.284478600302725 -0.46114155402565 -5.2794196723520335
2373 2.76809049545013 -6.027282895213719 -1.2265154484993646
2231 -2.7682587512093244 5.263616849817321 -2.9454121240775226
2374 -8.486477027472361 -4.19736317922282 -6.069190854187139
2235 7.041651429446099 5.183744158986232 3.5556623318603355
2236 2.982551730229778 4.726113111419036 -5.6826020937929576
2239 -11.706077603841965 -12.852347894191947 -5.214694748881207
2381 -0.32531368843908104 -0.9363570127169216 -10.219869364140347
2385 -5.590407454081307 5.8609637745223875 5.696428535636136
2224 7.605888379706096 2.684276917782826 -2.319761584973845
2243 -2.0710679437436044 10.983033618701496 -6.331586670507544
2389 -1.6027421903592964 2.316691815795873 -0.886915127865938
2247 5.282027616594405 3.7559960692798438 1.6854836629966996
2393 6.113624194168801 4.644130665077141 2.6291126436658634
2251 5.6978389612741775 3.940609296626723 -4.735646676511125
2397 4.475456778257917 1.2999693321481858 2.451888753089218
2256 -11.948557426268108 0.4146094103127672 -9.870008543778985
2255 -2.526040413400516 0.3740121462509339 1.1606260077020607
2377 -5.842009687831378 3.2400674149784114 -1.189956942865142
2259 0.4604993908193311 -9.405936115778195 3.9577264408074915
2378 8.148111900024961 -3.9217800355626093 13.15880021403472
2401 -9.649360995551534 0.28718117740203336 4.49937496830313
2240 8.56400523789727 5.241430616817544 3.717116552518535
2263 -1.6872958320417937 -2.385397620554916 3.7914234834500378
2382 -3.2471003245985335 0.4537073322325083 -0.780797927384208
2405 6.261286481790913 2.533138042310272 3.690033698610798
2244 9.615904915409239 5.043529250673915 1.9329071716060056
2267 3.8298203626020486 -12.58862083731463 -3.7024521249609026
2409 -1.0066068400398307 0.9185278113008228 -7.069256995928235
2386 7.535818986260485 -1.5027477027945986 3.5049943415304985
2248 5.651188209741152 -1.1738769039486023 -4.780615741673303
2413 7.203053356272215 14.035407534120894 5.411699235635149
2390 -5.49419040771304 -4.7802951072037985 5.969173556374804
2252 2.111688193594823 -0.1984195882956981 3.4613744668742585
2271 1.081155806605647 5.856526811309652 -10.475918179336
2417 -4.339914667635079 0.3548392712662421 -3.248961514652108
2275 7.481678028226021 -14.377449640248699 -2.921895552910304
2394 -1.0334536080461043 -3.688080439754878 -0.6835535366338449
2421 6.85047067737762 -7.4465433705455855 10.242098733624488
2398 -1.0853751551514592 -1.6625345163694334 -8.546520612844429
2279 -0.5112609333361781 7.069871462712182 -5.990612398497862
2283 -5.372566697824869 -6.640214109376284 -2.0827224363883063
2402 -8.237923727006267 -3.851787663834893 4.341963469874123
2260 -1.1740768764554037 4.54451708112533 -1.3757541750273752
2264 -1.5878471587528733 4.700560433899236 -1.517981787875147
2287 0.991449247802896 -9.434907634304624 -0.49649060287935676
2406 3.1876004599957763 0.9441647265914792 -6.820315693197873
2429 -9.113505482076599 4.449955261023283 -1.1005369244344752
2268 2.387135544690814 -2.3066493170256877 -8.730960524271516
2291 0.4416710856736463 -1.9723315731076976 8.724164416400711
2410 -5.462293424611137 -0.8004748305027242 2.3693529716827975
2433 0.3445714361142903 2.192965728320617 6.227882164497409
2272 -0.13801208133059173 -5.2917446190021264 -5.298878804387038
2437 6.1796758483954495 3.802872416417551 -4.467575344437569
2414 -2.3558039690462222 4.2798622699644815 2.190999113737278
2276 5.658401470501298 -1.1551201940393485 -15.790457878007933
2441 -0.36434441050864624 0.19411844728456415 1.8654044335265618
2280 2.626516642822909 20.33461987075491 -3.254740847768547
2299 -0.7470451004032651 -8.610632136656802 5.088224653837734
2418 -6.338812081005677 12.220097432598221 -7.823622939100363
2445 -4.203755545080621 17.081799604894364 -2.8180619135610154
2425 2.6232337309498583 7.009453248479558 3.143131730988586
2303 4.8719560027597035 1.0950295002972226 3.6549922493435676
2422 1.5414644422071422 -2.150677332182555 -1.4297466926172937
2163 2.2133772049734612 -2.798405073473528 3.3661872741407004
2426 -3.084922957153587 2.2200419598975176 -8.095808864614128
2305 6.512763507035672 9.478685719075653 3.6331955786686114
2309 9.037889150337666 -0.14238047960249028 -4.264354010913807
2288 -0.1340621638849573 8.562816292849098 1.7708494461562951
2430 -1.0772438816663872 7.460249439476073 -1.7380143154586505
2313 0.42329400560869096 -0.24076315462112372 -0.793805627793254
2171 -8.63340299420157 -1.7616171311450743 0.9618563904982108
2292 -5.965086327915628 1.9377524281029233 -4.467751084942722
2434 2.8378537221730493 -0.7358172585272185 0.9250024124560107
2296 7.62353212105632 10.267803336226002 5.264073599660401
2300 -3.228007572396197 3.531617460734873 -2.4754703531603006
2438 -9.092021369472459 7.34137105405264 -7.1564246920077474
2325 4.274658856245657 6.1160709707611005 -7.104988868311881
2304 3.810872311480845 -0.018721098604656407 -8.43468509247605
2442 -6.015464731847317 -1.3461854289071982 -0.08465338534704431
2183 2.218863855714969 0.10033641895460582 14.090855032428667
2446 -6.239491216838072 -2.03068823155285 9.280564652309307
2308 -7.461927473339835 6.337585042233689 -16.551260718109226
2450 -11.536228857520376 -7.780233327013739 1.4847837014031757
2449 4.228991055640441 -0.09542484999855516 9.171178984575777
2312 2.214921985653603 -5.802244523281507 -15.755542330870455
2454 1.7313809799803974 -2.4124884564256446 1.4479350396143136
2453 -2.7331735787979494 4.728655691435042 1.5865583850164553
2316 2.2109049251200332 2.5464321817315234 -4.453784970308986
2458 3.961773718006067 -7.761218178890806 4.274888456199595
2315 5.30338787719835 2.0698310441928225 -11.013461053891122
2457 2.019082887481524 1.6829098873059964 1.2217110935647133
2320 1.6229202374851626 -7.881448731149381 -8.232543938261685
2461 0.7235480789044606 -5.703940129920369 -11.725802706822101
2462 -0.17896783728874496 -8.647797097091328 -11.669946322978156
2324 -2.989177164039752 1.14281223040708 4.529499043538829
2319 8.170768262386988 -3.9185634253342085 1.5516512007270868
2465 -7.114247471786423 7.548686148820016 0.8415392645563335
2328 -7.994138886203594 -7.552213332129681 -1.2731274702160178
2466 -11.196951776909348 -4.735667327439667 1.1999697806588707
2470 4.902195393768469 -4.695932534113739 -2.1163002738250953
2327 -11.093176164381722 -7.364753476165471 8.411228151598616
2331 -10.372742935282044 -5.786682548281558 3.3270689390149486
2474 -3.431769154812358 -1.487533655294518 5.866536558332253
2332 3.929780665212366 -0.30000447314545303 12.109910790898027
2335 -8.437855736883627 -2.464507059673727 -7.731590715699849
2336 1.160665657966314 9.101421501079875 -0.5401520106221126
2478 -11.500573649508699 -6.190606730480258 1.5679430491317796
2477 -6.025967885613652 -0.44068269540828997 1.9845633638811582
2339 -3.137363017973127 -3.2326081846031256 -4.145067891821399
2340 0.8943291848681004 -4.823062892316707 5.318489615915887
2481 -15.9457996398112 -0.948689686746406 2.6543827420272894
2482 3.876513551224598 3.419385559247039 3.2756677474644325
2344 -2.763273593358641 0.17321726140325402 2.3025665939886926
2485 -0.8998661107940126 1.8233803149506416 0.3824311606130434
2343 2.9714337244463436 0.5339738541632675 7.098125174142571
2348 -1.0332826824276116 -0.37342801487314614 -1.2668834370824547
2486 -1.504635764940177 1.7096917782450571 -4.109302012329266
2489 2.65424957450043 6.207476839869446 6.956094368872971
2347 0.2582840605404917 -0.7877765795363944 -1.368742133249345
2352 -2.832995807253746 1.746581337357645 11.693560781312838
2490 6.50995688964327 -5.562486939910816 9.512313110827924
2493 -8.986817596518636 5.987328906253423 -0.7786311578671163
2351 9.637067842126035 5.3133923974698885 4.637700932818065
2473 4.318037314310384 -2.9753881774732314 -7.461089481726577
2494 4.1666665229529265 -10.252834643711948 -4.220533413757559
2355 -6.102033739172538 7.732921591745361 -10.122806599278235
2498 -2.8761668589872196 -4.934076322617676 2.179787775667442
2356 3.476681879285722 -2.934663568907485 -3.1236182649663817
2497 2.3047873458153534 6.530296964362758 9.757231557781257
2359 5.992520027906492 -0.3220849281275597 -0.21083647058672084
2360 1.060404942258807 -7.6231606490411306 8.77054601174818
2501 -3.0201980117732083 -15.9685781293607 1.5973860990699396
2502 4.874749487296463 7.976437192547712 -1.7881516569715592
2363 6.679392670018949 4.21491302636848 -5.320518684196652
2505 -3.159542946106164 -3.2731011288639404 -4.706850601912995
2506 -8.80136276385241 6.337227009474995 2.895711331331609
2364 -0.895929638020493 7.726372779350375 2.4345873554636244
2368 2.067060943708109 -4.162555069224766 -3.714551387000115
2509 -0.4993298728721452 -2.6547581909600653 7.657186323843033
2367 0.3260790814528394 14.144273654927948 -3.4178334481300645
2510 13.592627617513147 8.574891816586453 -3.1636374581652715
2513 5.174805548416503 4.604814359763978 4.315289913960496
2372 0.21110365971512418 -1.5140553143826108 -0.8961818631117056
2371 -4.587704689937139 -6.167215135080808 2.7788728220551455
2376 -6.150584142628797 -0.13983920259806537 3.567769354253728
2514 2.505957110192588 -7.849357562650067 -10.357346783810378
2517 0.3590602964202647 -1.0379153972213269 2.7198300947313916
2375 0.9210194312710567 16.48813892747412 -6.457871676192565
2518 6.33962403300358 0.1662661771504567 -6.141077756034964
2379 -4.576012526527546 -4.9593537531512775 4.10353225013706
2521 4.04047188758357 6.833306015674404 -6.559334220861267
2380 -5.8637532085845026 3.150985982559347 5.912652565003285
2383 3.9765170027989445 -0.6199484944868613 2.902796094310656
2525 -5.933714632171625 0.48836061489459665 1.8925805213220432
2387 -10.762629621118856 -2.0741507972233375 -6.093643900231709
2529 -6.229484075440643 -3.3202974672143344 -11.274758160578523
2533 -5.641694019713372 2.851996123390799 -0.10603770378039358
2391 7.413301542207718 -2.031186339088027 -1.4375999531661188
2537 4.766530475884879 -4.631538513415609 9.762592398637853
2395 -1.1703662124520877 1.6120581458587022 -0.0031339940478936038
2541 -0.07414138189231446 2.0835383498358 6.652080782388819
2399 1.5782070177121899 -2.1170663000889944 -7.444437128917305
2522 5.255151227762056 2.4514221521561743 0.1723853486909118
2403 0.6548520417629219 -5.189462723932822 0.11987925993929571
2545 0.6977044138330595 -1.7876003521378712 7.091694273547273
2526 -9.379381699169848 -1.0233120460617149 0.6647326381824122
2384 -0.5172034758152378 -3.1997482963809185 -4.905027080408708
2549 -0.8762573701708959 -5.656192974291605 12.592457432995097
2407 10.927039667855711 -1.2883532688906072 -3.384903444918254
2553 -0.8000643451575488 9.370251951996217 -3.145890930226667
2388 12.928721382293736 -0.29046967289773207 1.9180676040380975
2411 3.4763247970008844 -2.1405637065686918 6.865251649261284
2530 -4.79691685541401 5.489977656845078 -3.4849033768743185
2557 4.496101709163866 -11.540590644377396 -5.381297976015187
2392 3.6719469451395286 -10.008229061158481 10.02313339822185
2396 4.992547082956644 0.88869322296633 0.8394683982857316
2561 -5.044609242239292 -1.1729499202384606 1.4525267305386713
2415 4.349034629060645 -2.8347694880063727 -0.05983807599659505
2534 7.323112970471298 4.115032907652004 1.0066089065721917
2400 -5.376033137432367 1.0714576433762588 -1.4625381841613048
2565 -0.7336812274522628 8.233450005746327 0.9747170855786113
2419 7.973766751708824 8.931219436664865 0.025762704441214524
2538 7.546204287204105 -0.3764036288107332 -2.385892898746587
2423 20.152136102704713 7.6932774871168474 -13.275021133776576
2542 -7.917727653573705 3.5640612821101074 -0.30221974831562914
2427 4.092389120550222 10.670163608691045 -0.22821431535743955
2546 8.023895439851868 3.5761065123514015 -3.6891649010276377
2569 2.2663008491244625 -1.3826033412150558 -9.987483383294423
2404 -4.788631918257123 7.544553616146901 -6.983140951651151
2573 -2.26362654267343 -0.11363894607483516 2.4185283057631586
2550 1.8457474212717833 1.2729109864428894 1.1925406206616243
2408 5.9556248933307625 1.8312762263666582 -8.608619444538453
2431 -8.934624851585543 2.6727743497358087 6.459663130597383
2577 -3.2545460505468933 -6.6764246868804 -1.7997989741392157
2554 -3.565516970374207 -3.4104270335527587 -2.708048879807506
2412 -3.3835950935569366 10.176586690877365 -0.14416930190587207
2435 -1.7025706022137284 8.126040594108762 0.9469531813992141
2581 2.7576585334750874 1.0273291959107473 2.8141112638896897
2416 -2.821725908470781 -4.748397351680787 -1.5916800440170202
2585 7.018607087036479 -2.824647825591387 0.27273958250715064
2558 7.692110844239507 -4.257428317333129 3.7134807072151697
2420 -1.9636040458900283 1.4287140999330812 -4.410109233788375
2439 -17.328152045005815 4.164627807988222 -2.3373608801382035
2589 -0.4165305971982696 -4.66593620224738 10.976748034131791
2562 3.323724269481077 5.03695500187101 6.872957837939021
2424 7.384365416001269 -6.434958569349837 -8.736008667041885
2443 8.594544756404236 7.366980467267348 5.982198058398904
2566 -12.582285691484216 -2.096526561605015 3.221024455371413
2447 2.1236864143185152 -7.063732609861935 3.2754302777916124
2307 1.2243780902011148 -0.01968254798751624 -5.378365243144785
2570 -0.8083472966253115 0.6443194244079469 4.60731903870885
2574 -2.04861165616654 2.3783811305825973 0.4613881693308611
2311 7.060420670334771 -5.2749990355725656 2.095186136649951
2432 7.2586933245480445 5.598793805439179 0.42931746715985114
2578 4.141881302102016 -4.335616864428143 1.3585089004256468
2436 1.1172951007370104 10.79149288729372 7.3178400435643045
2440 9.931814920151162 -6.030080028418647 0.16425290290282443
2582 -9.597587050977172 5.426961984930116 11.079038166493905
2444 4.438886631622781 3.993927392613315 -6.670551967501484
2469 -7.307152258146688 -9.70606207086553 3.516710402205253
2323 7.764107409816586 0.21231168985940888 -6.394445643493444
2586 1.9877438868781707 4.758765103059222 -2.1993238185997397
2448 -4.253183791762717 -5.010369846026627 3.572434990766534
2428 1.3639574536795656 2.622587844655866 -0.6343039490316186
2590 1.0451951459264186 -5.25013104564696 3.148765964599617
2452 1.3774478177050768 -6.211149662568879 6.897241050360246
2455 -5.0587886663158645 -12.16017069959266 0.4572427419857904
2456 11.926984187141162 -7.263957388902307 0.8423131647275969
2459 -1.2930350770321237 -1.8273410150333176 3.1096401846898103
2587 0.5707765284498236 -2.792208305483142 2.654508429140825
2460 -5.713731150262449 5.8941426050409556 -2.0479253777219406
2613 4.833617521974176 -1.6899617249680108 0.5786850127610131
2464 -2.491696415141559 2.088624796016012 0.15839482924263232
2468 -6.233414194036847 12.461122688998506 0.45542753867403624
2568 6.368048319427494 -2.7975457189460564 2.836821306577866
2467 -1.1565026149608282 8.098105059544721 -0.8727547619185064
2472 -1.0784018853169024 3.488607574781431 3.5701250696212554
1850 -1.668569190503842 0.2716464271822618 -2.8617267915537927
2471 7.388696964923929 1.5267219387816404 -8.550807272032808
2475 1.2598946168440812 -1.4448327844476614 -7.035377440880914
2476 -3.3155512722001346 3.5981451565422637 -10.693021678335175
1854 -2.767387454637966 6.5789860146899946 4.483721282167335
2480 -3.078294967495078 1.948756267002229 -3.74209155380456
2479 6.102902725604278 -1.3110752352236024 6.70617278538368
2583 -9.837661724136545 -6.6447863467061286 -1.8858557414689388
2484 3.7595024953135483 3.2455038746868077 0.07157809762037921
2483 -0.03292854512681719 -0.09065354229904934 5.417823441621812
2564 2.5815443421735726 -0.2554069957644781 -1.6682730871663887
2488 -9.748580837514949 1.1439821578486529 3.1838524071742076
1818 7.034192427214405 -1.5429177237174982 -0.058996290843670286
2487 -7.113338871619378 3.0140934058218978 0.19761509289260795
2492 -6.436982998857446 -3.494629881465219 2.9189784989005383
2567 -1.3858535119363602 2.2602138849310474 -4.823819483243926
2579 10.845446088500527 0.49629847689690565 -7.08350174213471
2491 -5.571157517766436 3.054258067611489 -3.275193954279636
2496 4.983390641729608 3.436804499131144 -0.857197435188877
2495 2.7516762478479326 9.073548643183974 5.700013216766999
2499 -1.0466167838683451 2.7874635331985465 -5.165628378610478
2500 9.535974367829477 -5.782468210247387 -4.566529082303756
2560 7.628797925482311 -0.5345742984002331 2.2730477154643625
2503 -4.794076982554054 -5.827768133355307 9.778178463572093
2504 -4.741655612469659 12.752148392424054 9.652437332081302
2556 -8.874614730137381 -12.09509264793063 10.621653721832292
2507 -2.3265677233451503 -11.109720748888815 -9.926751843665233
2512 -1.6643969472084752 1.0036482113556142 1.7731002552238087
2722 1.424943900506325 0.885334837497236 4.756041727506362
2511 -0.04817973189148958 -0.5178916046409546 -6.514380274056211
2516 -9.340099244088977 -2.4768298751277005 -1.9668208595319079
1833 -2.7240117014905767 3.135500851608374 -4.1606116265304065
2563 7.094443599902918 2.6369175025874165 -6.007891943453271
2515 -6.377321603965898 -1.7463377905478152 1.4314688418032704
2520 -3.37318915943613 0.033253949912371523 -8.396326467896321
2634 1.2608989404047464 -2.084431686263994 1.1768158608380848
2519 1.0142863497127133 -2.8886698998123754 -0.307466674183037
2523 0.1855093048267979 -10.456856496067823 2.9801588427698933
2559 -7.579423850361857 0.23218389569768205 0.19574013950155975
2527 -8.384574859391625 4.8244446661947045 -3.479519144806613
2508 -4.6586502893398 12.512268730736531 1.459534565347521
2531 1.3210517234104067 -0.6364760492332259 -1.229053342919774
2571 5.537753687886836 4.68742103984327 -4.288057187651089
2535 -3.1887143723354345 -1.250503066188766 -5.326113572289433
2548 -6.062092589946802 -4.886954265401444 -5.103850637201369
2539 7.635793907938564 -3.346429303417213 2.2974792578451466
2544 7.323201992216155 -12.975256413149271 6.109408695739168
2543 0.15615397890558078 -3.0791175664355572 -8.485198991742239
2547 -2.6681183409178653 -1.9230596412758516 6.885111394247925
2610 4.305740182418889 2.25319932747605 7.319807576641816
2528 6.998407056114764 0.6595829629994815 -4.538353883490023
2551 6.210409720869199 -10.897488169298962 -1.712764791637223
2524 2.612174272848995 0.7307738194697962 0.20584822193901872
2555 -5.712417080569867 -0.3428343386340361 -1.7661270532350561
2532 0.40982893790669994 4.105452724365396 8.414751042235016
2575 -4.431622818859103 -3.0240446014841433 -0.6096977115583446
2552 1.8272266737400806 2.639992829606942 4.77744224500043
2536 4.788015164914047 8.151072245598076 -0.36613288746356837
2540 -9.091580500238955 0.4368189147186741 -7.607865062576945
2690 -1.1148957887507014 4.161978155840945 2.2471191066283933
2730 -5.527442252288879 -1.7533198408387722 -0.33035481660213184
2701 -5.63325623859524 -2.912839681864475 5.208460779151964
2709 0.8239557815402156 -11.579482818484015 0.5815570773065365
2718 -0.15851128598827519 -2.8366017631493152 6.220584290228354
2710 9.39760329643445 2.812692710276354 -1.8963025463656904
2625 -4.8304127512365 -4.449253210385516 2.6600947886604427
2641 -0.7571310430804149 0.03385876515261899 2.5431396886775817
2629 -14.162012086029726 -2.3157031878093592 5.924941834713893
2666 -6.734349497084731 7.460701452872336 -0.46788377308587087
2618 7.63153468333008 -11.008574785779883 9.366490204209468
2650 -7.892676973394779 2.665997665422672 4.313263387064758
2645 19.408835527283152 2.8982413634082445 -2.11349180545002
2734 -6.422918779355529 -2.8728646719522177 -1.0638824488345113
2633 -3.5874527984249864 1.104374176194573 4.62083889594487
2686 -1.4008170770257355 1.2199034239396014 -11.54050482095901
2617 -1.980506642352858 -3.59781204274676 -0.7830016956197497
2598 4.707267525986303 4.552626794311599 -2.4380541270674216
2669 -4.120987300730433 3.3002718417794354 -5.032261244381758
2682 -1.7587997273040445 3.202673503078295 -0.24282197530630437
2677 -8.66865985994081 2.3842066140772338 -2.325041969603525
2637 -10.447190682756986 10.66529418581688 -5.451106334465748
2602 7.18181455003021 6.339927703604596 -4.015848899626325
2702 10.152065727344977 -6.80647234871498 -5.7781579166749095
2605 -1.3155515389737764 7.021137034897043 0.7401606381191345
2725 7.307860046306772 1.3255680805952421 0.6472937732471801
2649 -0.2127656745034804 -5.379401304874934 -1.8912815947946306
2685 6.967143557065974 0.6598145848882817 -3.3318258429551912
1838 -1.0747993360014512 -3.8021741828712887 -5.7805875687401045
1862 -0.4895559795426006 -0.6868206235622959 8.860448908907525
1861 -2.310429394556755 2.8783253296732094 -8.911144663194658
1837 2.122114999645185 3.2216849580234914 1.4277658398875879
1738 8.119783793032532 5.582315446540431 5.843676429035086
1857 -7.3495080140327795 -5.21282458490271 0.6750334638541001
1814 1.9987638566316257 2.2449388635143657 2.80919815916177
1810 -5.969655094233077 -3.5113175154039067 0.1920695760080116
1761 -0.5913567999974312 5.306087748281191 2.416361692122263
1757 -4.860463490830423 -11.797413704027297 6.4270547639709985
2681 7.624126219312404 1.6103592239798274 -2.5390153206375654
2597 -3.5123838079599667 4.120545411959022 -13.427417205422875
2622 2.910453339029568 -1.2167704238902095 -4.7284386033421635
2595 1.1519470450597527 -2.5652529743137373 -4.329166136350178
2600 8.241891839935587 5.074269385214012 -5.49085258912847
3456 -5.206788371454848 5.554520714631858 6.389356520879543
2638 1.7712540508000658 2.078282512991375 -2.7335779266714333
2604 -4.267836040712051 -14.049456646595475 0.8020730963672382
2746 -9.346531989902644 -0.4980050127428232 -5.510621205848971
2608 -0.3207478901094186 -2.573376669396045 -2.8161962253962063
2603 2.311568709196858 -2.1629069472924507 -3.563878585559601
2612 -12.419082488718619 -8.877816647341636 -9.873835538686665
2689 1.3250018422809924 -1.6794989880337747 -3.506413737638577
2616 0.3140154752467111 1.4354524148589094 4.402278694442442
3452 -6.880703310180044 -5.020524050715555 -1.4207641213432678
2596 0.4201844658491569 -6.585690487861592 -6.833489987245441
2661 -0.25377992694255613 -1.6477445533040274 -7.082439122303193
2615 1.1527402456385571 7.07817677538986 5.249933637491746
2619 -1.8610926775245427 0.984879048511654 -7.005988773058924
2620 -3.9838335908725395 -4.1059756532603275 -3.302735261954526
3448 7.011593416732585 -1.8370525231320913 2.9483367027467535
2623 -0.9219213307084452 8.50982842649978 -3.977685835359752
2624 -3.4079263024514383 8.603992637583845 10.114961991706464
2705 -0.01373091496115241 1.467184839978899 5.1004705399503205
2627 5.649623918496213 3.8721438915742232 1.146849672996854
2628 -5.308403484532946 3.689925820095157 3.347729927979075
3444 -6.456877257395897 2.1112371245342816 -5.944804567790182
2632 -1.3560243083926824 5.145034317207129 -4.749129116107414
2631 -8.785219254464614 3.604337787751468 -0.738539436408444
2636 2.871285427920203 0.07685026639533346 4.8620301889731605
2678 2.8914028608360436 9.8894578561742 -5.958264774003071
2635 2.390806841026256 1.7833147671601908 -9.491550382253875
2640 -11.741163171825924 9.6791590210715 -4.644030525602806
3319 -3.567922927875987 2.6108117159696524 -5.3427617627488715
2639 -3.388758093121452 -1.2557849388333022 -4.184421595476354
2653 2.012124758124006 -7.560105060277993 -4.013293282510936
2643 1.840514931391386 4.656076107989123 14.351525295996723
3440 -5.615127412862284 -6.061366682468905 -15.747449553202898
2647 -4.52009154155051 0.257360105257984 0.8998856430946542
3436 -8.4277936340505 3.8415913861374555 5.609494237172655
2648 -1.5040394955573504 -1.8782635570015989 -7.654254507101666
2630 4.421197158424265 -0.2187175325363143 -4.936560503520849
2651 3.0697406494365627 6.012857900501479 0.14749745026006997
2652 5.939637040438435 8.1063647956052 1.6066319752314344
2714 4.614944382632315 4.511854202829723 -4.055080464707475
2656 0.03318182884983445 -4.53588878285694 2.7138033121274447
2655 -1.3549067114375437 -3.041819487761721 5.638805927354442
2660 -2.8794975901223885 -5.485161727085413 0.7512348420129719
3455 1.0118764804382208 6.338714981312657 4.529598750090029
2659 -8.723647407536916 -3.991368924603774 -4.366069093895169
2664 2.4938478818801912 2.325317373411639 -10.997616722717499
2713 5.56819683149626 3.7367933178869093 -1.0930779211581347
2644 -0.09847710720494594 9.033499189407204 -14.120045668576022
2663 -1.5316123248267333 -7.704136876230629 -10.794481055474273
2667 7.980581794030758 -5.3613602604682 4.189838928241027
2671 -11.07418782048855 4.51776458844045 7.048981703537054
2662 1.3317251969443753 6.966229695518509 -3.6470975094457523
2675 -3.8868363742692265 1.2540901956120856 -3.344074313615177
2621 -11.103453451015527 0.4858039280919814 -12.939094421497035
2679 -3.4678801596081277 -6.605978251117826 -9.751271912393147
2670 7.035954565057746 -5.1001341203418935 -1.1510569233998669
2683 1.5737391897093598 -5.113238946408415 1.619498310933053
2673 5.569574086119207 -1.474718515629132 4.516977971689642
2687 -11.894120830700274 -3.9781211393303253 11.250853594128998
3451 6.427248726086868 2.085741456965524 -1.96061813093068
2668 7.316475726212776 -1.1079322367878441 -0.20984510941503876
2691 1.8935851649064401 8.533993233166777 -5.989691973738921
2672 -6.742307501461968 1.2300116104308347 5.452398320380109
2695 -0.6523611813454835 -4.93353638591583 3.388132700668779
2694 1.220726218777714 -1.814866738033729 0.699527208510624
2676 12.532969421107545 -4.64080649112522 -9.911509346575404
2699 -0.8769872261301402 -1.3278525973893822 -9.51134166923421
3432 -5.345109280801009 7.192189073907911 -2.1168794738171464
2680 -17.377306605324673 -1.5978136745539557 -6.370695284129953
2717 -4.907911383389969 -6.868106343499872 -0.9710783953943694
3447 -3.755907820083443 3.52385907707481 -4.222924787156546
2684 -2.183995661582728 -7.13980551410505 -3.0831112303980386
2703 -11.096482466160522 0.9180851682286753 -3.273660657959727
3428 2.5132871408139437 4.077564111277792 2.2427245222990266
2688 1.1760398701131272 -3.580620323411253 1.6486562624307421
2707 -1.9614674292260823 -11.284677160421687 4.355991012506243
2711 3.7572828647146834 -2.485230243705245 -6.893388116806371
2642 3.498851933155869 2.837163005339688 -2.909655278892647
2697 -0.5291036241053629 -4.114165096170543 -5.974782571940864
2715 10.480229866192776 -1.9606396024587118 6.2985193843541625
3424 -9.659213622282302 -5.491271170111374 -6.27349877821106
2696 4.545847486252038 2.6877817918641034 -8.803686813726346
2719 -2.5972903530929026 -9.410345356993318 -1.888998603225957
2733 -1.0215458524601284 1.7294839586625945 -4.681189080305117
2700 3.8092569630708035 4.678942735238642 -6.483121929818573
2723 4.201374149701501 4.737361158929401 -0.7681937240107028
2704 0.15841863004688808 -2.6531191590491847 8.646249976444295
2726 2.4705871290077495 -1.6939597252481753 -5.411459058538953
3420 3.2342419638042506 -6.703517210191885 -11.912490070394375
2708 1.7891965507662566 5.923166160289223 1.4696989344959714
2727 -0.4524452765117634 -3.055032537560541 5.869135675730403
2712 -1.4590808519579022 -0.866380598849509 -3.4342363780921943
2731 -3.644168333040485 6.678417479321476 -1.3391968867230353
2657 6.909149514610786 2.434691530587954 0.35633453479796956
2692 -2.076731004897446 11.692556460089389 -0.40306869622751557
2735 1.9101077256139736 -0.5700901838221172 -3.2420012740370847
126 0.12792747119925074 -1.116192006805224 1.035369800140036
3443 2.1597653290065133 -4.170861443181064 -2.2378690208194616
3416 3.251709116414567 -6.613869786795002 -4.487148386644746
2599 4.471085800486433 8.616494402087199 2.258390297629433
2720 10.990008429044382 -5.804582070892032 1.9324031007814995
3439 -8.897507119328862 5.070659587282473 -0.7621297218242259
2724 2.366236146960182 0.387577628792153 8.645191193861946
2728 5.176478145264383 -0.5234031708888898 0.14136913609889823
3435 -6.6131973841185605 8.960942756776502 4.875272475773079
2607 -2.510381157068714 10.299410989816797 -1.1730583729582056
2732 -1.4608041712901254 5.337425703046703 -2.030976820715116
2611 -7.60266665778381 0.1520498226194559 8.130002678054245
3412 7.49745820476947 -5.147738708290028 -4.444147260422215
2736 4.406498214152385 0.9652359163751714 6.502116040186463
2674 -5.754512907928649 -3.9568251989766763 -4.275137263870505
2716 -0.9778786422646294 -6.554909442634866 7.4184298786419385
2738 0.5436911282237118 -1.574189713588877 -7.523002446884671
2740 -5.580765460066507 -6.85746699087142 -1.6172530783535326
2742 -5.122823529092993 -5.570515386952235 0.5949950977491314
2744 -7.2733139029314025 -13.11529095825037 -2.106754875133779
2743 -6.611495352581894 2.872936219260046 4.08483559224934
2741 -5.703631045098528 1.7049595227330445 6.063996189923671
2748 3.351554101815822 2.4441960970489314 5.254383206967193
2747 5.613426703774902 -1.5155547986466995 -0.8040951144735151
2745 -4.730604018769199 1.789510677968063 2.343960126399882
2752 -9.485879796819837 5.229279645373042 5.249187014411425
2749 8.215828515326317 1.1146004517761383 -1.7271576932223929
2750 -1.6182621495301934 1.0771704449395132 -1.54099340394964
2756 -5.008402866580543 6.563031399675819 -4.210637341524476
2751 -10.020148716829658 -0.9889794909708625 -4.5658624298727375
2753 -5.1013274176651855 7.745860667206963 -4.660269491796528
2754 3.431577349389776 -5.129898705322285 1.6946148051927872
2760 -11.661328056999057 -3.5078306836759756 12.80346674303699
2755 -3.421707587324197 -0.9478355743041238 1.2359165004293695
2757 -1.5713067808980001 -6.407014202040429 -4.1573417258244225
2758 -6.0386087255235275 -4.714643233151312 -9.629208057379508
2759 0.2321325837877898 -5.764605777730586 2.5155884155925285
2762 0.013735006689329888 -2.274305462124905 6.229146871821525
2763 3.4725233320773397 2.6636838555245226 -0.6132241816949229
2765 2.382239962209236 -7.382990349506915 3.545409400613108
2766 -3.933738817651288 -2.702755185405889 4.344941144863655
2767 -1.2661749001565978 0.5625915877788026 -2.5373209927437435
2768 2.2230742387745686 2.909049322941292 5.090475207616352
2769 0.6312039764419071 -5.419393297634548 -5.037236921833412
2770 2.128782546020946 2.0730791527075345 5.053343396894575
2771 1.028386034865147 2.862757133960025 9.942664441206096
2772 4.850886683645647 -5.613697297816136 -11.824921120811473
2773 3.418325731881111 1.495303919599508 -1.4290247415373167
2776 -7.197944245445886 1.2261492932607618 -1.1755930136191926
2774 -1.8342229203576337 -12.868954357156227 -3.9411671733788545
2775 -0.05047775284101122 1.998211713117569 -11.202539465883984
2777 10.55463365420565 -2.2669207448207582 -0.6961914824013726
2780 -0.2081819503601217 1.1526441302745385 -10.105099432173734
2778 -2.9531711314447637 1.3450358003229999 4.836319746294539
2779 2.638650374936394 -7.528792342879423 3.717266273524074
2781 -0.01237844057514838 -7.183132232571948 -5.758164137999158
2784 -3.607243647050181 8.981344570141863 1.0149602478792068
2761 -3.8461932781797707 0.48855797158474634 -0.3672498557351884
2764 2.7193215727438926 7.948806279815077 -3.209608410856995
2782 3.195773541541409 -2.244459625941499 3.3001955599286363
2783 -3.446543605395591 -3.308257802002271 0.29612976307152394
2786 -7.075842473745312 0.16343132487973508 -2.1761631903469953
2787 0.24547411342043046 5.467447944700269 2.600848584749994
2785 8.29825514256608 8.640774520097525 -1.9782424390089148
2788 0.38142370740053805 2.997394864627349 2.015109516414875
2789 1.1748498610549876 -8.22652026140536 7.851055176348369
2791 -7.49904910018044 -8.889714185517326 -8.811941049603753
2792 0.38694813061538885 6.414816810492155 2.9096240459001756
2793 -3.8028183231941073 3.253476226476302 -0.6427036980144849
2796 -7.154526054257344 -4.920488678216569 -3.9149069294948498
2794 -2.831434435591502 3.0355924611214284 -4.254801094851048
2795 5.4553742207533436 -2.9748477118574583 -0.973957121835436
2797 -9.677882180095247 -0.2775393635292825 4.954938471647711
2799 -7.790843543109696 -9.056599404556477 -5.2323927295093595
2801 -3.732575207813242 1.031063957904008 -6.751345440138669
2798 0.34174968122822846 3.1348331598203605 0.7658314466849744
2804 -1.4506908838691726 2.6307640358782654 2.367326089746029
2802 -0.5260825741460038 -7.153048480182652 1.9572276859087563
2803 1.0079959970222627 -1.8739359121587134 5.104738103737094
2805 6.415089523203668 -5.090849901842421 4.132509446455513
2808 -3.641527284594513 -5.005386042089372 -8.358894674690385
2806 5.866073213746528 -4.8116809288120095 -10.900350309218034
2807 2.2280438366582946 3.614183678682048 -5.112874261142721
2811 3.2086070766575303 0.08242968828872188 -3.8399966642060614
2809 -0.439103494268921 -9.262113027656588 6.729269462611565
2790 4.814733319421826 5.598625405367177 -1.3986129453532006
2813 -3.2064312540928253 2.3300142919282227 -5.840393518360711
2815 -1.9651274182886325 -1.8690962788042371 1.0548404768942525
2817 6.322792466149694 1.4168684778922327 4.940043149378544
2819 8.506842873176803 2.9219248073033754 11.998685639100666
2800 -4.702779629350391 -2.8498396261918817 9.62871828831967
2821 4.360284142455189 8.187559288195466 3.6737303741924463
2823 -3.755449817572293 -5.397326714805037 -3.0368027559081563
2825 -3.1041884397380115 1.296393500102999 -2.6262574717940033
2827 1.4432082583151988 3.629766505062938 1.7868162649543415
2829 6.833587233002631 -1.3096172555462715 0.40303467986180314
2831 0.3981090755445481 -2.3206054670886225 0.5405526846972326
2810 -0.4274602035201525 5.637102623311769 -0.37905952540607646
2835 1.457442391439856 7.662943505082407 9.056303610530163
2833 11.107494059747138 6.365208134120042 3.004046897567965
2812 9.037977545576984 1.8630112598573172 11.840040329057906
2814 -4.787307190695562 -2.8843914830205346 0.0023903151425265397
2816 -6.151299216669851 -3.0504308186461495 -9.084379980771034
2837 2.217571903130374 -1.9524569437203994 -11.38452474858887
2839 4.27652806501555 17.817643575109035 -8.758288921528553
2818 -1.5946451385424745 -4.139282530404223 3.2322489505614387
2820 -1.152678834369493 -2.388751405146347 5.242264331776523
2841 -1.7094858355518485 3.768051703972615 3.266021434123073
2843 9.001770705198728 -2.9711135003501106 -10.276887296407562
2824 5.278433723983914 12.573955392582999 3.108377932390073
2845 -2.158400806191203 0.5272426703036979 0.8676838815356499
2822 -8.209764030152735 -7.6243907530828405 -5.975189770717885
2828 -6.052628457620079 1.1069759317495775 6.9181844530554955
2847 -4.528068046990766 -2.5978201226569957 6.118564582112459
2849 4.228159161688604 -9.263618881189744 3.9024320879289336
2853 2.954083221704658 4.793975889848957 2.3255848694639214
2826 -5.535063624265934 -0.33564343059258256 2.8427496128712786
2832 -0.8951018547616546 0.03945860168074758 -2.703750774217464
2851 -3.829078936151232 -1.7966809157474632 -0.31782088250978346
2830 8.798555487610047 4.861129960890638 -1.689218682354206
2855 3.852888332084458 -8.562098772012344 -3.552689943670516
2834 4.992478412396412 -7.459756674866779 -7.71048412086316
2836 -7.127568856158239 6.049330592141751 -1.088575200757513
2859 2.039053813052871 -0.2873771640385525 7.5388454046474145
2857 -4.7565358429208 -5.6982024220811125 6.768624919080354
2838 -1.5440668640147195 8.743412244057852 0.06500000307818331
2840 -10.220128781701717 -0.6781829023901178 5.338810593896157
2861 -4.094226057682218 7.923685561521355 -1.5728106960781993
2863 -8.703122559849692 1.1159868390182655 6.636543990087162
2842 -4.1188565139313145 -3.8433443618666976 -10.347403357960056
2844 -0.025050905582619236 6.336005177273774 1.5400910634873577
2865 -1.325356904148062 1.9509503424525168 -1.2233286101814476
2867 4.797937722963952 4.0135054103226455 -10.409304016570308
2848 0.7846849470215286 -2.883284085697555 -9.42301641375156
2869 8.224068638283859 5.511598807922568 -2.6195956981017385
2846 1.0248930673264915 -6.044535173082136 -0.28915343166331675
2852 7.578489658871844 0.6155744406943937 -8.05092171096961
2871 -3.9019560918847582 1.6982972783042576 6.447688740503542
2873 -5.9716115076311445 -3.7879521628659405 3.3575091806404966
2850 -10.475109757124399 7.856750257062982 5.36087274497553
2856 -2.242147926307127 0.5112855174854496 1.925783212625074
2875 -2.9680637050522525 -11.803269840470545 4.143251403644077
2877 7.346570014960388 -9.501377233119326 0.44829188769786993
2854 1.5351174766602693 2.3637928836701647 -0.48510981063739167
2879 -2.101948563787869 -7.0584352676064945 -2.0763059325313864
2739 3.3513901577844685 -4.2746172558681055 -5.324103278971726
2737 -0.004853447772038017 -2.2026780760398372 0.8706806177591594
2858 1.689234831449958 1.3735754534090208 3.1196754784614695
2860 3.727777917276378 -9.472151035568656 -2.6325435434980924
2862 3.1260993056956154 -4.541641231253049 3.7519555002748315
2864 -6.124960334050826 -5.3000241582207 -0.442435406427992
2868 -6.957853985405847 4.617553331338304 7.127925866539949
2866 -6.160872798279896 -0.9531213565965571 0.27577214692902935
2872 -0.5266344663669962 -4.30418699148574 1.9666180372874946
2870 -4.503764202306249 4.989501216605733 2.5937273752584833
2876 5.927424937659723 -4.381064008591376 1.737893854297134
2874 -8.34294629922323 -2.4781911524003126 -8.465763850528425
2880 -2.741102520862052 2.1530330193763048 7.890024476279141
2878 -5.4266020774981065 2.8140697003180986 -1.4859248638513114
2882 0.8276344578905949 1.8217555525592124 6.698387248773292
2884 2.9945162540747785 -2.543625704330144 7.850373529944367
2886 10.468042913125654 -10.293139626292692 -1.1665367250950107
2887 -3.5729182969133806 -7.821409369972337 -0.8417991439441912
2888 4.020452418931053 5.193296179015587 2.866192639780753
2891 2.287981200648664 3.0192311463750814 15.489033254348275
2892 7.11058993039783 -4.374076305347772 -1.245703686325396
2890 0.9612473395301633 2.8707521129261413 6.302921363772519
2896 -8.854100410826625 -1.4171424383566558 -4.419601120725169
2893 1.3278695654179196 -1.4974154111420546 1.2905610599101587
2894 9.069525331818754 -2.548332878860138 4.789395889258699
2900 9.85330736761468 2.251207940172768 2.819466448214806
2895 6.83246591476011 8.077624302839618 1.309170282914412
2897 2.0181507805864607 -0.3148066249770084 4.372926732465849
2898 -8.639213319639106 -0.7370570325270145 3.0940525146013136
2901 3.8059876765891487 0.46448033864297583 -1.192895534142748
2904 -4.89994031088642 -6.336373661023818 6.342826753427454
2902 -1.626659870237072 7.41090961691718 -2.5959583463881124
2903 -8.156122780918595 -1.6411849578323232 -1.2489656150906914
2906 9.52063019560269 5.035183244580828 -4.161638981544946
2907 -1.5599010830952786 3.0747274077376585 -5.672104087503177
2909 -1.130001152136483 3.815655567445099 0.883146192304435
2910 -3.397111488860751 8.903795655690026 8.397498638674723
2911 -2.9569955441418054 -3.7706214437825305 -2.6913129088667436
2912 2.553177769813113 4.82348794135345 -7.156162887670262
2913 1.9633356549291925 3.3250757243308566 -2.7290073671828448
2914 1.8562074729601274 5.671649060161596 0.29980971246996646
2915 -1.448106199740299 0.9089184381846874 10.584572738988085
2916 -0.37065427198864354 -2.401714993796138 6.26696877607665
2917 3.072524716557616 -8.73419615525324 4.172347678226372
2920 6.252148085316026 3.895606513681628 -0.2812794562137277
2918 -7.701196207994943 -1.7922820186142066 -5.067764108409288
2921 -13.644415342307331 6.643630921160271 -0.5973099651219528
2924 2.418946577594286 -1.0636053814508766 6.550939851059583
2919 -5.973409570657061 7.082757641493913 6.0435557658498045
2922 -2.8494094454574124 3.9721283849129 2.2324455129586127
2925 0.4862947479493729 5.86856227374594 -6.948010197463515
2923 6.4060619024327154 5.958368273097035 -9.789458514908267
2928 -3.3510910399262928 -1.601547352885484 2.0406578637919233
2905 -2.988914463359591 -5.680618911105203 -6.330905394542831
2926 4.661735046889654 -1.5678452805296534 0.20872155905534767
2931 1.9167458804359656 2.1479459373640544 -1.164526040835137
2932 -12.037384662380974 -6.051318083040258 -4.795639680353464
2933 -4.499860216930496 0.5030059354672366 -1.8747070032425182
2934 6.212412372095217 -1.430218141726862 -10.323060530457907
2935 10.662029940468367 3.254152394786816 6.336456906191813
2936 -0.7945657129365817 4.57264610253708 1.4703625476540862
2937 5.061743587764778 2.8987411580702322 -6.304670532349845
2939 1.1813549864221542 -0.2437689237287216 1.8333995963020853
2941 4.160376381124749 4.118449519830771 -5.920695288945237
2945 -0.2713329143520515 0.8020622849622377 3.2892573385034796
2943 -2.5305984165612903 5.420761559815787 1.7537231790330954
2942 -8.841137114913767 -5.249958415099851 4.729174796888179
2948 3.226384829710613 -0.2954144011495401 -7.959597345382056
2946 -0.17817703091785855 -10.573593231633007 -2.4045696722493273
2947 -3.4846296611461325 1.8446434712720083 2.017153767956435
2949 7.073580023382475 -4.4563981920140145 2.911857494235757
2952 7.382787097599617 -4.035888677979172 -7.5933113546264375
2929 -2.74561885052771 9.229148981453795 5.373724920267993
2950 -5.262986028657404 -0.18872178978957352 -1.2339973129467974
2930 0.7983569822721398 -3.610072034036808 7.908473243547342
2953 3.0795809012749165 0.5617370414439458 9.944950432481484
2954 3.409343283280817 -5.5722371778726085 4.786867212621364
2957 -1.9451539830595241 8.8709979037507 -3.5395726388789264
2959 6.699435817946281 -5.282274331325661 -0.02902381797942667
2940 -4.0736500501151065 -0.4658215281054254 -5.359829134055369
2961 -14.296634592113454 -3.8963129046503746 -2.3300514848679974
2963 -1.8524019157140332 -4.838476469021753 -7.963493976056214
2938 -1.213161184129234 2.839871001513229 -0.24816615873715628
2965 -3.307708021603831 -0.8006438687388594 0.18621569013678313
2944 4.651874895575434 1.2611738877919019 0.7927449327575934
2969 2.860553849883156 -0.012840601901716646 2.7810526647358462
2967 -5.684297567129159 -8.086680605600085 1.1224137911154968
2973 -3.43086697401356 -12.241371397641771 4.338859642714455
2971 -1.7608737346709833 5.4032287708701645 -2.0126176989892994
2975 2.568065036944858 4.628557990717061 3.883075057202447
2979 3.305027040122543 2.1987427744448547 0.9317573765782728
2977 6.982999825493476 10.212792620035964 -7.585042950052857
2958 -1.5628250799933756 -1.7817898217527957 6.2283933806643885
2981 -2.6764435647705893 0.9600655236710562 0.4040222961362878
2960 0.14573864920870705 2.2382641296875048 -6.042707402292753
2983 -5.790419180900455 -0.9931866396404478 4.643669509237183
2962 4.22112249056575 3.9109676576212222 -0.4828579740024549
2985 -9.392015487028443 1.4390551391587283 3.1806438075491554
2964 -7.0831363710084405 -3.29776238724142 9.013350928079014
2987 -5.247106625713485 1.286255601151006 2.576457752864325
2989 -2.9513217452817853 3.6160382387677 -7.0417412092642
2968 7.92606007770678 -1.974539618790963 -3.5670655808758704
2966 2.36694481578563 -7.882951793546121 -11.02738964964614
2993 4.56659626573317 0.8566547823006158 -1.1240488654372245
2972 -7.132503216510454 4.99036558976073 1.5854019031743734
2991 6.283796259618811 5.142820987724821 -0.7490781556742128
2970 -2.0447237184523 -5.187773325843339 -3.017799444014268
2997 2.132119377868319 2.570355470640039 -9.198560995878122
2976 -0.18208472831819622 0.2832269511387662 -1.8865502717900555
2995 1.778864511142195 4.066760217055557 5.458406740571119
2974 8.543528586052156 -0.8577309293252379 3.3452495260183164
2999 2.6103783521760153 2.2541238260192107 -2.0893122034014677
2978 2.960805326915807 4.287170095727088 5.320130689630225
3003 -6.85730023451804 -7.10431570100999 4.457377305452875
3001 2.1593859718730224 -4.508170477351684 -2.2358253523725926
2982 -2.0758638657383917 5.6724226902333 -1.8630143227939056
3005 -7.888059023015995 5.921439011992929 6.028264808562024
3007 -7.073798660018053 -2.013574552626211 -0.9681204535497588
2984 0.2495552314115453 -6.6228726533798445 13.214668320591977
2986 -4.788673851058259 -7.6971331512627295 1.3021053696553233
3009 -3.3494055425113514 1.9912896139743108 2.009873434347337
2988 -8.690196232602446 16.65941249507956 -3.9076451316927985
3011 2.0052198248984494 -0.15311264825581364 -7.0740362947173345
3013 -8.86467272185349 0.4361245962344165 9.126821759348372
2992 -3.8910900995271605 -7.555058498101571 -2.13907824852158
2990 2.7452504121710604 2.4681661296771606 -2.1361376585970446
3017 -3.614991698606506 -5.077153657291381 5.806715303443284
2996 2.604184346125933 -5.07877954808283 5.230971213489585
3015 2.466807144392614 -6.313561167747815 -4.8970282650784736
2994 -1.8496261223492936 1.3644385789644058 12.96749967086548
3021 6.419993592957707 -2.7990966067366934 -0.8058897284294841
3000 7.259629926927727 4.388304932849005 2.84844880979502
3019 -3.8674921898057035 0.5915491282127748 4.106613204816317
2998 3.2013541852156697 -9.689762767127176 0.25397155189885573
3023 -2.272095391626826 -3.017036110397206 6.7800391867271985
2980 -9.295301139393041 12.733671618835922 -4.897352903544681
2881 6.701848093306077 4.7120053900042285 5.1788678676228646
3002 -5.44135495633113 6.8942235062993245 -7.743038770986257
2883 -3.418314237511169 -6.754976989801481 -2.9281785066096426
2885 2.9967999604653794 -0.8476424335944416 3.804334598092082
3006 1.4276076108643376 9.024323634076943 3.0697885969279324
3008 2.214815832024705 3.4292768128797557 -9.623113794723327
2889 2.3709474478192374 2.2542343791647674 -0.9418174730438872
3010 -0.7922046476474726 -1.8583744434313685 -10.316269459055587
3012 -6.943353356846988 -5.165960423726283 2.8975347215673017
3016 4.893889124492057 -0.42996458389400405 -6.072970455886143
3014 4.141696096222184 5.551049855833014 5.4996692828155975
3020 -11.01001666180332 -9.723882464451282 -4.086553585729353
2899 3.047528601771828 -5.818323136394123 4.552358338110318
3018 2.563545963326474 1.295133003153794 -2.6447218618510937
3024 -9.990943135784773 -3.262976776024152 2.1819767891847226
3022 3.2861955950101738 -3.330890013625992 -0.33746386402836304
3026 -1.2953049244137262 -4.772385129098655 8.83985986187277
3030 6.774138616037066 7.163123519475449 3.025511391166005
3029 -2.553064438897206 1.3355077014969192 0.2961998521383213
3034 1.2629249941489762 -3.533189843044942 2.3598506295905795
3037 0.007484870478622849 -4.777793965999443 -2.968240153697995
3038 -6.723889625847621 5.676987073957662 -3.8828503256000095
3042 -0.11447380411595935 -5.758441287118983 -8.47046731556926
3045 6.112387313885466 -6.482822848660885 -8.310701962337747
3046 6.800712925263059 -3.100877169007673 4.845063079483515
3050 6.780746232665166 6.6349235319360425 0.282969729951044
3053 6.496929501569625 3.25193502276663 -1.8567440714779364
3054 -1.3752027676410248 -3.872656398760231 1.669123416050723
3057 -2.5414617062733282 0.7045676653663293 -6.252411241480878
3058 -1.079630730255553 -2.6677492561000915 3.2022927984944003
3061 5.520906047403737 3.0517475389358673 12.321745009544463
3064 0.21618316835618834 6.714124566324686 1.6295668922162867
3062 -5.0866419000181144 -1.8747202881345175 3.4917767213969184
3065 7.291552563562948 2.632626673955926 -5.913734863128589
3066 1.306047106887361 -1.5190474364610598 -0.4951213488042924
3069 -0.6543964552611178 -10.603162404296334 -3.419255401662625
2927 5.090704613206452 -6.016003214674115 -6.031836132928928
2908 -0.8936496389790725 -2.76514550005879 2.9162352888784286
3049 -4.336699967150753 5.220888591214329 6.857720159911151
3070 -4.243360379209172 -6.858830529554998 -6.352023074010434
3074 0.8910709833568796 -5.814498786814097 -3.951977882964818
3073 5.94304947503448 -0.34643699575002707 -4.082118460087863
3077 1.054581987644696 -8.70204225086999 2.855444789569591
3078 -1.8692541550386024 -1.0979571588798012 0.6446508978028216
3081 -1.8505638886692106 1.7803390646911597 0.8212802818358119
3082 -6.086064225273362 -4.67467919974493 -3.159125639900417
3083 -2.3911620047667976 2.043458107678656 6.511492554280026
3085 -3.718296663805229 -4.089988663706574 8.252165741674151
3088 -4.788652900009587 -5.213734254825589 2.5979058803910635
3086 -2.4168305900416867 -1.4028655776275238 -1.1996848181971458
3089 6.4148255309960955 10.259874447541632 -9.227479631588668
3093 -6.193029966172626 4.6141533438731885 -2.7125457155897847
3090 5.024511567734542 -2.156359914387419 5.692236561138243
2951 4.656764616344153 -1.4413019419801822 0.41217138528798497
3094 3.663679639549695 6.796408937405563 0.5338946674234062
2955 -0.8277059839602359 -5.482901911317396 1.1240362254356904
3097 4.885331941346132 -4.237697778192287 -5.373735775719283
3101 -1.80109300088707 5.253267665727307 0.2140193948474458
3105 -2.8299834428013235 2.2163600816105005 -2.5610711822176317
3109 1.4792575024543926 -3.3398373406383257 -22.18509240937621
3113 -11.731172836737658 1.9242291000419234 -7.664891412279381
3117 4.051964690214147 3.7250218219483258 1.2559583804152272
2956 0.5632657977766978 -0.23903643967641514 3.471099830732094
3098 -8.583428925469086 -5.957971797234042 -4.377644123574633
3102 0.8686464030424255 1.1194200121046851 0.48705617409517393
3125 -0.6812039994598759 -2.924950935497072 -3.7102606158906557
3127 3.3026340961161975 -4.679618212919999 0.29204420314121227
3106 3.405988955217045 -7.130668823439193 -7.715971860621586
3129 4.38821276722476 -0.3879118726812297 6.6007813733124685
3133 -3.3801150693495305 -9.495778905921288 3.371192230241228
3110 10.554935955170707 -8.682128706041619 4.356598421961427
3137 -8.250511898262014 1.9865254522597522 5.148505711202225
3114 -0.4817497824584962 2.1252667277567987 -9.326842944055413
3141 7.58507979304489 7.315932029754971 -8.379726346994772
3121 0.3160722617323554 10.910398644219695 -5.151922281464663
3118 1.2865914207644806 -7.587123045092161 5.851332681060219
3122 -2.7067487536482493 -0.3413848968682242 -3.737948235071411
3126 6.176492994151525 1.9290238013871384 7.988714098818269
3149 1.1674879547425494 5.907132621321243 3.6070187488685796
3130 0.16401464617783792 -7.8242671731568185 0.5258274227523854
3153 -0.13498415658641127 2.120831489314588 0.6760764717877145
3157 2.6991521982817788 -1.1156507925187316 2.818554812617222
3134 4.7304562583925795 3.108963617911821 1.4818322983983152
3161 -1.1110359893996375 -5.119269264140755 1.4044464720610195
3138 -1.1021057542643555 -0.46941653796633764 6.429905740111797
3165 -1.7259270673953304 -2.868316461695382 2.916390451158448
3145 -4.716267041528552 0.6676282351113537 2.1872999437101703
3142 -7.76215988501783 -2.846086505333402 -3.8667940539899877
3004 -0.13795208929944527 3.4971771793710387 4.760605260224102
3025 -5.88060452073398 1.8994147408285025 1.6320380383289723
3146 -13.77367959878757 -5.85275585903044 -0.7017088779811386
3150 -7.231296108189253 -2.943309824261331 4.092392057434841
3033 -2.7692554168995946 2.3358705411699683 -3.907642506263878
3154 -1.5758662098035623 3.3529807291122973 1.3343888668381156
3041 2.879355327390021 3.6190944408703367 -0.11914128091987514
3158 -1.2375619591338478 -3.925082582110932 0.45593138445995096
3162 -4.864487154135307 4.854297679632327 -0.8553696224321444
3166 -4.666004948109052 0.553476134247594 -3.4484923334181508
3170 6.334354920340819 1.686203774756152 -0.5381721203888599
3027 9.434899168772883 -3.0026247707305815 -11.04011554307544
3028 0.3384165840646272 -0.3983898340853157 -2.9682889715990894
3032 -4.7453933673876705 13.78715555410111 -5.1719458971038605
3174 0.016842203924528853 -0.8772577541479092 9.83095049805286
3031 9.315394802344782 0.4917518761326529 6.531892789737665
3036 -0.12979407484042854 6.138505388259312 2.3186985433322054
3177 0.5257368026926224 2.3560448990800715 -4.499511235495232
3035 -7.3426244599745445 2.168671886855782 -2.43843433089846
3178 9.35306237816028 -1.7419576966646473 -2.5945756870077537
3040 8.817918586035773 -3.5166610768030613 8.847193450948689
3181 -11.449889812780464 4.1465866454178135 -17.0073638572363
3182 -12.878068176282634 -5.163331765953106 0.39530068222931913
3044 0.009184052829566546 -9.871598990405866 7.136449520458099
3039 -5.874709099005939 -5.6581279627257794 3.4036277676607978
3185 6.4827912498358256 0.9517701122090108 0.044525443362351674
3186 -5.491934988106491 4.164353937478672 -6.14718594908934
3048 -8.46416345667417 -3.3291751361854276 3.990999533006107
3043 -1.0532365601657963 -8.851558308766121 4.976932822352097
3189 5.918635953335039 2.5542299073249133 5.73227259829739
3169 6.955796139791125 -4.638890431992521 9.852029384078316
3190 9.714689056783453 2.968131021476191 -1.170183115383162
3047 -0.38201818974821683 -2.909094560964766 -5.715509977024914
3051 6.071649286952173 -2.1426935297296787 6.008443788108989
3194 -4.962565614391987 -4.90010629813782 -6.22168795611128
3052 5.6475406780261475 1.597735544143943 7.926957830001358
3055 -1.0962253494944982 3.044174073576023 2.687399479468343
3056 -8.607233273767037 4.980866565494099 7.0795252817038286
3197 -6.447828288436827 -3.505754911513706 -4.700735967479942
3198 2.6905675173111465 -6.226387958052634 -0.19639358639705254
3060 5.430604369634169 -4.313363887434939 3.9848628855144654
3201 7.204924149638489 9.729051298391662 7.752983586492706
3202 -5.7570884708305865 -2.1744647675610667 1.1521262856402794
3059 -6.943298669831725 -0.14019142380410798 8.174250625261038
3205 -5.425995734587806 -1.208052444334922 -2.3048604625182487
3206 -4.697447033149798 3.0993203350966674 -0.4584761983455733
3063 4.972441296717971 -3.3511902703677867 -7.992699939812824
3068 -5.3719079272862835 -0.8847421963054263 -9.489923518979838
3209 8.072433635473692 6.752462690046921 -5.329484784787409
3067 16.379469927207023 -6.324576993527376 -7.765340511470619
3072 -6.3897410061011675 -1.4572028266246653 -3.2572664478461832
3210 -3.1023058557824794 0.7745778327038098 -8.342159865551071
3213 3.1092546483676924 -1.4268988126770392 5.19329889070313
3193 1.9733939262958502 -7.85502957767732 6.220863404899046
3071 10.840755881461364 -8.783862661332467 -2.305670130997936
3214 -2.29086053776841 -2.877984051970623 9.095610503386773
3075 -7.187142788194615 1.1337347319132238 8.314681955587226
3217 0.244225655187959 -4.13154800552719 -2.1801794266126002
3218 -0.9567835065026592 2.652373951290242 -4.1284680807580205
3079 4.069555095757268 4.172029771138695 -1.231922218985584
3080 -3.251426840389228 0.8657790346258233 -2.585614125673756
3221 -7.230682470455977 3.646003102781081 3.0258431332602322
3222 -3.5813696469603173 -0.8103487659655202 0.888043447383452
3084 4.938403387653354 -7.863495127527163 -4.8379102820049535
3225 6.308148934178347 7.0280994945745485 -6.649159944058173
3229 4.0151580542420575 9.859249948344939 6.3164427265314105
3230 -1.513636122498808 1.254492962749818 2.3568911531186054
3087 3.1535200954600913 0.4390042723345547 -2.8381078472361603
3092 -8.104267531582604 -7.516311674019564 -8.040580606782614
3233 -5.7246257323712815 -3.3567084759537815 0.7801399636792703
3091 0.6254630662736245 -6.496739004367469 -9.067966917629356
3234 -6.510507957457838 9.725819546762912 -4.814038587164911
3237 -2.646033059185832 1.9748906638694315 -1.2440216574875291
3096 -0.8446315234209731 3.662355889257606 0.996187871143661
3095 6.918056025287341 -7.124996737717856 -8.451634006552666
3238 3.151351267078109 4.703222570329139 -0.3190340579319026
3076 -3.808066827557191 -3.1848693217422834 -1.963544005840159
3099 6.776397917824614 -4.092476998258278 -7.69018248587482
3241 -0.1204053208862611 -11.18298125857186 1.8677283716527
3103 4.358868642201661 -1.3791743680336572 -2.1249614743289587
3245 2.4692549109451556 -10.602121471455026 5.484074627838242
3226 -8.189106174307009 -0.373670501298669 -1.34122480673345
3249 -0.8589847167379693 -8.916616735150734 -0.774582369630676
3107 3.323640092430222 3.0679840808744383 1.5636518414438394
3253 -2.282396066341717 3.807346053923261 8.557819169661865
3111 0.6177856030445709 3.443526000485636 4.941873559239272
3257 -6.775768824633361 1.155647134558119 2.0858187106243165
3115 3.42445767552845 4.676330667039319 2.164572415482036
3261 -9.985040313645078 10.909718764056159 -5.450624388632517
3119 -2.4295665801796122 -1.861832066903587 -8.148545490186445
3242 3.989477990702672 -5.898604813579591 5.709746771817067
3123 -6.3493041012757665 -3.9454727033339143 3.702362815235835
3100 18.32409994347278 -9.388087629896877 5.185271162018596
3265 -5.332041119139354 -4.067819177685012 2.233098692420005
3104 -6.071193714205914 -8.498090488571513 -4.937751707198611
3246 -0.7443674163155695 -3.196171248351419 2.5538099537634857
3269 -0.5180890688349535 -8.016748577384801 1.576838682543853
3108 0.6692822474642678 -0.7591479779109308 -6.429987714813248
3250 1.2783491768731081 -0.05681027470270216 6.421857565958415
3131 0.25107480230176143 6.364375236868994 10.89215426098602
3273 -4.831245158342772 -1.554749616535418 3.471910360296681
3112 -1.675171182104246 9.286079361383983 0.21115683890250553
3277 4.924121394497708 -9.613279334634232 1.7735062628476874
3135 -2.7001193230257066 3.3984199715893664 -0.12366231055309566
3254 3.4007946114565573 3.3792229127547495 -6.138725350553556
3116 -0.26402977180158854 9.641641907109959 -4.578875093201398
3281 0.5943263539175919 5.8777114544720535 2.7453297574102242
3139 0.09297983525286507 -9.787364048295663 5.144242020024302
3258 -5.41975813519017 -4.323321689865934 12.760366447839202
3120 -10.316530898976636 2.9139740069986764 6.3452062440301855
3285 -1.822625237339971 2.1126573718998065 -1.5400107350190468
3143 1.8363142949794036 -2.1191587865487875 -1.1092915061196138
3262 -1.7726183741413923 -1.3482809406099883 -1.5364064322518007
3124 -8.569618008619234 4.057256700470545 -1.3886376427941058
3266 4.096805184014158 2.531818474759796 16.789848244106953
3147 -5.219304935809238 -9.901582300798445 -0.02380381298684534
3128 8.867480610681122 8.262111940726614 -0.014120543516096455
3270 0.9812607262942991 -0.6713081010378852 -1.5297207390666834
3151 -4.859982420500083 -0.07695602708901383 0.48785153560433264
3293 -3.89684823149159 4.240629721823565 -8.385469692485724
3132 1.960215145341641 8.835322275538946 -1.804895658998231
3274 -1.3993945720128036 1.9646441753785016 0.17639414106464296
3155 3.527518694071708 0.6560215541102388 -5.955846022578234
3297 5.984625949242886 -3.8524621596020943 -6.278104073684166
3136 3.1602453765025706 0.9326469886533024 -1.2616965960645556
3301 -8.048577698086786 7.1993200384135845 -7.745704901813699
3278 -5.367314329316072 0.5629295014876905 -0.973215509941683
3140 -0.24034743286540616 12.377762938204707 5.803411741995877
3159 6.297558044403159 1.521972426968255 -0.5542167886886088
3305 2.6939336573647146 7.322708648257501 -6.662537492634751
3282 5.796545897210432 -3.200650263296744 -4.694673169312894
3144 -9.736418311210366 0.6386562080030015 3.109173986427104
3163 0.8391527264036123 -1.9836998863418878 4.220189818486518
3309 -0.8308079650802223 2.025610524110332 1.0026505570211024
3289 -0.8493015703343398 -0.25997562229487126 1.083341888172877
3286 6.589944042583706 -1.7040580224924342 -4.6839574973912415
3167 -0.5737245928723809 -1.381700076338545 -2.9153199726414405
3290 -3.6898316886557656 0.4057091877686338 -1.1848012096173441
3173 -2.226229300080673 2.226581625768501 1.0569812694573484
3152 -3.0960077825498398 3.837918100451523 6.633228243081335
3294 0.30638587818263796 0.07684553045972005 -8.333575617118923
3156 -3.979985130894249 4.702637169621024 -2.4855975165037507
3298 2.6821096676818517 3.951563142501048 -8.48901585337096
3160 -4.127054060049199 -2.442703794923029 4.383356609883832
3302 -9.795196290445956 -7.704933721450688 -0.8223018899299317
3164 -1.9188698585503248 -2.0571412111727523 6.475600933002932
3306 2.683315497509175 -4.107658345031201 4.135526216758449
3168 -5.661233869196881 -1.3337135697023819 10.301129347560398
3148 3.068748610973263 4.8671248558167886 -7.798697330271995
3310 3.9721849412165677 -9.208824147957827 0.8712500205541612
3314 -1.878217599026732 -0.4933576724181477 -3.0757375562386042
3176 -0.24337137392467606 -2.498990530726805 7.99654826120079
3318 -4.481737902866908 4.864344377728943 3.3346368525189662
3180 1.196579953361553 11.766885337541176 2.350249276456791
3179 -0.42173827241325695 -4.348119298529294 -10.004049902195073
3322 -3.4605739248600877 -1.3076610063982443 5.384674989327388
3184 2.7493526453923307 5.084785907695856 4.197793400747925
3326 -3.2657064745865583 -2.1116927491921715 -2.9676370003088537
3188 1.926136660000427 -4.448185624778399 -3.315799438816231
3329 4.6042522897661495 0.2185122555987162 -4.165651448788223
3330 -10.871704578237827 -8.416212434141618 -7.543861328622278
3192 11.263992415054485 -1.6494162212962402 -3.023518913302268
3333 4.584997396927363 4.3382399164830066 5.216721556032166
3313 -4.898850321331936 -3.7062467227690297 -0.7892941014389842
3172 1.4940196170481919 9.290261288414733 -2.6175378978418844
3334 10.057539498447442 -5.838259817011008 5.091340380036842
3195 -10.632952893462592 6.132171038069265 -2.0110364920653776
3196 0.15286808748549055 3.5930959877235797 -5.56196975305482
3337 -1.1918607079880392 -0.5507373736512312 3.6279823709944923
3338 -2.528518472564183 -5.231039027816817 -4.693575484118119
3199 -2.248454620246029 -3.6487954405413805 -7.222314165776718
3200 5.85817336263976 6.079009525039085 -4.107851874321964
3341 -6.509556368818788 4.359116093084537 -2.391804189258256
3342 -7.310116962419554 14.612270579618407 3.9683342481919297
3203 1.246760202585106 6.449717514985661 4.932860263924691
3204 -3.47309009960304 4.26960755420913 -3.2069696539172576
3345 0.6778723151064904 -8.159564371792152 2.6587860434043065
3346 1.0768001652695232 4.808351235604576 5.034957918548234
3208 1.286933956145078 14.125732461578336 0.20348221387727133
3349 -3.382471873614491 -4.995258654571277 4.107847120806465
3207 2.73021857816913 2.3327206904283595 -7.746948328287066
3350 5.543975581679145 -1.7342661347359432 -2.8281609070145906
3212 5.301378463344934 7.129981440172457 3.993656535927067
3353 6.924296720790151 3.7208790726977554 2.2252917430245
3211 1.8561167820895774 -5.5418918540829125 -3.9327373581847382
3354 3.3474703842477527 4.606143669112226 6.815522291795993
3216 -1.9677612784450382 3.8863239823276174 1.4221949470448452
3357 -1.619869739466577 2.7102763594565267 -5.919273196899014
3215 2.3972502822959307 0.33140684604790943 -2.928931513956071
3358 4.983452266261703 1.872522399615696 3.2302247071932033
3219 3.3119346010949697 2.549631038881499 -11.626646620905618
3220 0.35725222577055876 -1.9688977394319966 5.638120205481794
3362 -5.716963351498197 -5.700782348734408 -2.2442092953333934
3223 -9.876559105614849 6.409743044757628 3.3205949420253598
3224 -4.573637355449769 -6.4114104382854755 -2.3674383204928233
3365 -2.3614204121908653 -1.831332249866429 0.9499296787535277
3369 3.0486178348256563 -16.961443118691854 -4.111519483491039
3370 -6.594716391489037 -4.431782288858023 1.4478104715345634
3227 3.619193428314212 2.2215064163830447 -2.8735954517524425
3373 1.295309880042653 0.09075571499306732 2.988165019203121
3231 -8.583095582223725 2.863704551340358 -11.616364634011184
3377 -6.028180622538441 9.353354752087323 1.9122056988372564
3236 -2.1695653892194056 -2.9463275958010637 0.09281868679352011
3235 0.9356520574251499 1.3898803304479797 -1.568313596917147
3240 4.432460364674261 -7.916683345931688 -5.906413006570279
3381 6.718704511224815 0.6963657797249834 1.9473166022601305
3378 -4.90447593804335 -2.389427782330594 7.231150784549699
3361 -2.824926334464021 -6.449352099797568 1.145415033463675
3239 -1.411136118276668 0.9093384218981133 -6.664991584634383
3382 -3.9073792214013556 2.572884743556724 -3.4731043316596306
3243 -0.3580268911430664 -0.19945234801328393 -10.597765337700578
3385 -2.836485874498517 -6.696891693083613 3.1701446903544976
3366 -6.960727891957133 -4.509452357933668 10.007029183203796
3247 -6.445004971643264 -5.70391286327275 -3.5151725210978393
3389 -0.11962058210457643 -3.634209021997457 -5.0465080718383915
3228 -4.124119351492089 5.677003667228906 -2.2989954592509605
3251 -1.7563038105741888 3.9807817547538984 10.908915509300073
3393 2.5025490528353647 -3.0408712070049613 2.2286503778964826
3232 -0.8271322497142465 1.4588185329665466 3.9801244402038303
3397 -1.8535840471292535 -3.171352139813555 -4.472864405149273
3374 1.8497443945121785 5.5190456756261685 -1.4832712645874244
3255 -0.6864296239814209 2.821272103369497 1.076941300026197
3401 10.829041430499451 -4.032832807422508 1.2292280475211739
3259 6.71457053572486 -9.405323614039022 5.054667118738547
3405 -3.1104201657410235 -8.627839118372837 -1.9199654991888098
3263 1.72693030821547 -3.1235345893475333 -4.446094609223937
3386 0.6325253678575585 -0.1980565441404643 6.529420254745578
3267 5.064279399750564 7.630674195088892 -6.37348974285843
3244 2.7167369677270474 1.8478728984938193 -1.4055906705213783
3248 -2.257944012765628 -7.532920614066797 1.7978835198403047
3390 -6.875781201079193 2.817055979151834 -10.818677384603745
3271 -1.6195664628713502 5.204158111668491 5.15150869432534
3413 0.18368827979234487 -5.202605727352624 -11.046511086070758
3252 9.85078692921132 -5.000605723533378 4.337996351674069
3417 3.5933571598983964 -1.554110567479314 -3.1062907042515184
3275 -4.2248034795197995 -3.687042532195043 -9.990635764456849
3394 0.6285600600578392 3.393358336055444 3.0916130673575903
3256 -1.867952181212389 -6.733447619693966 0.40832086895015385
3421 0.8569984531835318 3.9913079503557976 2.8023389867207267
3398 2.125106874492642 -7.666061394837632 5.470251662579038
3279 -1.9507536513081256 4.508974054838107 -0.24138474433511534
3260 -4.888077278799406 1.9883455034636581 6.447092079818105
3425 1.844070143615429 -0.6699277527970935 0.11304368549174143
3402 -1.2892891580467911 1.52472691761824 4.243723767297042
3283 1.0929512455260633 5.877473326315477 8.873582256393085
3429 -4.1990377646481365 -7.417157119908758 -1.9414877839593008
3264 6.320757819338479 -1.750533960987239 -5.316317194010387
3406 3.369622833407785 0.5260335296044353 -1.3933129388468433
3409 -3.2758682331217956 5.142895343378871 0.26009557847362597
3287 -5.253034368588897 5.685681932086632 1.0987714146521248
3410 0.6237629926160174 2.700536374413009 3.598760341793117
3291 0.09826242261661389 -7.49102456498694 7.274464351100813
3268 -2.794447258971561 -0.6017542658294948 -7.785013023687073
3272 -1.5470377762762544 -2.668059682623656 1.3017924468606537
3414 4.276688913951628 -7.933144547362808 0.7529206838573987
3295 -1.1534621941325576 -0.5921842106162268 -1.9578728084143087
3437 2.070726973858628 -1.2756808371110921 0.4383304995637146
3276 0.010540660346454183 -4.821887814985687 -12.144890243366765
3441 6.7586793694782665 0.6893805208368113 -1.977999053361304
3299 -1.6807074406637577 0.18448439302524272 -2.0334436309120583
3418 -12.231817370687114 5.259075637488573 -6.256030322369986
3280 -11.455529441169531 0.9598403060480405 3.8175937110467104
3445 1.9496543540441913 -4.103762198545512 -0.3730202367902041
3422 4.74345833425552 -0.8029810299345014 -9.671802187596116
3284 6.910188128178198 -1.439998501577169 -5.670076936839177
3303 1.323341918029165 -4.634215629070864 -2.1256689439049974
3449 -0.7319516132300404 -6.985430329038208 -0.7721571867453312
3426 -7.109596970252187 -6.496492144296706 -1.6679113801725913
3288 2.368520406826721 4.690573307383816 -0.6064946454836991
3307 -7.827613587461942 -6.830031885198278 1.0594625029304063
3453 0.4290693904475513 0.41891466715716535 -0.4021418406596368
3433 5.547838153278852 2.177949698250894 -4.711964683972604
3430 6.45531309040126 -6.434958517343971 -2.2693742647004123
3311 6.18157369003995 -21.38417809429339 9.804004301873139
3171 -0.0927055986463609 -8.059142060565824 -7.865682442486274
3434 0.4317859866760035 8.180716237526786 -4.994526489455897
3175 -1.4938452196015206 -3.405301603510588 9.326609164056748
3317 -4.741699174147518 4.3966512481971485 0.8736419478070121
3296 -10.495749722572038 -0.48258507406866025 -4.508596535122264
3438 1.6427884505698782 -3.0559587557790437 -8.511115420864593
3321 -6.851392986659795 16.256673642852554 5.283819700669692
3300 -0.8583740626694669 3.943918977939719 0.374519033326302
3442 6.299294215169119 -4.156269644525234 -1.8486747196471882
3325 -5.946409486855534 0.6279916652017468 4.4011057570202565
3304 1.8611453781778495 -10.962682423449143 8.732294311489108
3183 3.8983381598569515 3.7919320936772585 2.999265788496924
3446 5.698949318136021 1.7836155686588862 1.185241255999941
3308 -0.7350903408482877 -1.7126210580380283 3.306727674432205
3187 4.94288189086753 2.56045479882123 -2.8471331330800735
3450 5.415236365379707 0.13155847445836233 1.1331217123569248
3312 6.238135664448275 2.863054347018039 5.617286110012116
3191 -0.4586887401638921 -10.549718820772155 7.143355550133276
3292 5.6009199804955045 -10.605506788713972 4.293275349375623
3454 -3.9547206376530455 8.26129124368808 -1.4296840380577032
3315 4.3729083010899785 -5.201288100771383 -6.6302928506056515
9 3.0665054754021983 -12.29858055967277 3.3333755081035497
3320 -3.0226414358503964 6.284460644934294 1.332600753545238
141 2.5054736113401987 -5.861680604774736 8.5552338040682
3323 2.5135322408572605 3.614651888998219 4.182759464134113
3324 -6.360011703926359 -5.509807726739316 3.5593289264558856
3431 0.3547811550483211 -2.784196561335214 -0.4432824601814667
3408 1.0274165237936184 3.6046982447716593 -1.333711195123182
3328 -0.9156448336943945 1.913941758469769 11.508346479588669
3327 -3.4769971655844087 3.431011573717206 -2.7631380724339305
3332 1.569532228022291 -3.6253218862647056 6.571349130493601
3331 -3.3838264055603804 0.29087223479835167 0.7707626795157027
3336 0.9099594634402042 3.2673213690677865 -1.7306384020035412
3427 -6.98830730963924 -3.958329200014861 4.479312440053135
3335 1.5888752666000268 10.422993695165355 -1.1701056855248988
3316 -9.111990010826535 4.83596982109787 -6.149575938570951
3339 9.041372682714954 -7.4820778584676395 -2.3597061147504985
85 0.4568218892418205 0.8509782609041634 5.206374596127142
3404 -0.527642601226437 -1.9103884228434873 -3.275064003444845
13 -6.336835028830188 -8.166648824916274 -0.49746681219593436
3343 -10.141288113176062 -1.1377959112631069 3.197308978068551
3344 1.854669510828704 5.159321189189659 5.2367825376803685
82 -5.0923440343952375 -4.912760821613794 9.030069972469754
3347 -3.345747403942905 -4.1137724292467075 3.3763882722899474
3348 2.4469053666139393 4.694764487887939 5.219350683366371
3423 4.069222896857732 -8.447365387246561 -4.609316428118028
5 0.2166605876823516 8.388724309701269 -1.0824881607124648
3352 3.126449297455213 -5.3869313281221896 -6.29685991516279
58 4.12210947000712 -3.3907610175720935 2.8786099316313
3351 -2.8304365497208868 -2.8016522736584717 4.042643335252787
3356 -1.7775615332119035 -4.374101155126289 -10.72712328442004
3355 -1.960055469730018 4.541942449532804 -1.4567925434349545
3360 7.278228687816016 -0.6646231679281592 -0.03327954098076245
3340 1.0791838683945363 -3.053874763894269 5.004013394552622
3359 0.9890856647205271 6.639960500893184 -7.805876545716651
54 -7.630983031608617 1.2335136779074998 7.8262862983326436
3363 -7.8201221450862 -9.290832703193033 4.205856618456014
3364 -0.03444859074295607 -2.234798902473465 4.554559222400944
3419 0.9854988285215895 -1.350035707860343 2.6488553216638415
3415 -8.135116348951613 -3.7075124441110674 -4.924372129841277
3367 5.8962293265188 5.097208118579648 -8.223306940248037
3368 -4.943219962240284 9.219699415175972 -0.2425043042992222
61 6.310103622079207 0.027503891381949024 8.068924502135415
3392 3.2639461137178576 2.322482028353792 -5.398104212820181
3400 -6.396204717127047 -2.400528632218074 4.440731406106325
3372 -5.862540733829322 -6.958000485747646 6.21337408032666
3371 -4.216467521427783 2.780088477199433 1.9742135260785838
3376 3.2328713664565543 9.055610697288431 -6.407756592062156
86 -13.105636313531996 -1.7174110624393353 7.870225269158697
3380 -2.577507852670403 -0.26994297020526997 0.0025958842019640697
3375 -0.4855983570457748 1.3261309365950154 -5.08910491740599
3379 0.4483109917676049 -2.7586049324364046 6.489063497074192
3384 -4.3007708816227375 -0.17429341212120933 2.7240980871908476
3411 -4.424304907647576 2.7874892309784665 -4.830665876788127
3383 9.140939218328073 -1.5486859166509959 -7.097295146137266
3396 -5.358195984624326 5.345330436258194 -2.209745583543364
117 -4.551124126002093 0.2789264728482455 1.0914398331742088
3387 -5.668958508762409 -4.971139915856227 4.8173099172199185
3391 1.2196669608530886 -11.85407402983864 0.19767681660474326
3388 -2.6556831069543527 2.4212965436304508 -2.044636007956353
3395 -3.78604630700253 -11.375659954730658 -1.1646587345060404
3399 -2.6851770679901636 5.775077338424555 -0.6862396719694879
3403 -0.29632422254387125 -3.4421674466271615 -1.7001037507388645
3407 -3.7416725843863166 0.8631933408992403 5.097415480847431
10 7.255149672633479 -7.945227150695377 -3.4674152038940775
105 -0.2585991644001309 -4.5411162013936615 3.2734185627965062
134 -1.08642329004705 -8.440316044192173 -2.280440058665919
14 5.372327289695418 -0.3567672854129384 -5.936835149323153
122 0.8920065498779587 0.8208117627421497 2.3637022000099983
118 4.33725860524738 1.9530032086757385 6.827466821048574
130 8.382590566512427 -11.386998443262149 -2.2454504878024486
49 2.8210622876765328 -7.320060864822146 -7.889119547609492
89 6.104615530862245 4.052059819253613 -2.4847863014964484
109 -1.6702705499618438 -0.868158652248699 -4.324927619975411
133 -3.635223694269866 1.7923212991931796 3.01527977122854
21 8.064288374725248 -6.421352903704548 0.03232495870382589
142 -2.04668332133915 0.4005098460618596 1.595989338775264
129 -12.066426433901595 3.9946210214180544 0.8416193724778065
57 -8.669651224750508 -3.817940488767094 -3.3390448606117102
18 -0.9673669619501774 -3.1333759322335033 -0.8707795673730296
73 4.380875457168173 8.865069384600936 -4.093645871390079
94 0.004437660229058121 -0.9567175850268417 0.7736651812920526
2606 9.825914072270528 -2.336858469917327 -1.5526852929047021
2693 -2.1794782744638024 11.515536804587578 12.172575944810092
2601 4.988485259502253 4.056402048998866 17.107733499231788
2614 0.883409701045575 4.89910113427049 2.460715424186822
2698 -8.375562567297504 1.9007237854582324 10.302095817721217
2658 -1.4041657217288068 -1.424512735639846 6.034126191746164
2594 2.9521262681153635 -3.798233240237319 5.877340587772204
2665 8.489050441796362 3.501569605325923 5.169134357312938
2626 4.014262173477356 -8.952365716883715 4.171813813425878
2609 6.125696081889387 4.722049289827397 -4.493346728688013
2646 0.9472374953265476 -5.420587222745782 -1.777317675072977
2654 -8.722119233672574 -3.3649316437352836 8.47747792248067
2593 9.061616030295362 -1.5070847287788598 4.064739183222764
2721 0.8227804997304211 -2.621904443055361 0.9039193190778302
