LAMMPS data file via write_data, version 10 Sep 2025, timestep = 5000, units = metal

3456 atoms
1 atom types

-0.31179085520215466 24.5799908552022 xlo xhi
-0.2766081989730562 24.544808198973108 ylo yhi
-0.8791262830524644 97.95192628305243 zlo zhi

Masses

1 26.982

Atoms # atomic

844 1 24.449794082861914 22.536316017457573 21.756767875745354 -1 0 0
8 1 3.7413025873363637 2.238682830217376 1.011091584578577 0 0 0
7 1 5.9131107937006835 24.19163405415211 1.2158231958088588 0 -1 0
12 1 8.16420124651564 1.5311557916778709 1.0621127989930814 0 0 0
11 1 9.907579857072017 24.29459688425502 0.8688937179299261 0 -1 0
16 1 12.600846888515523 1.6570474486817763 1.2109866178782585 0 0 0
20 1 16.87473099849398 1.997140074387055 1.094013341580574 0 0 0
94 1 23.05612526757792 13.911746381351476 -0.6554737066903324 0 0 0
24 1 21.11811369942395 2.1072268220359556 1.312509985885081 0 0 0
19 1 18.704161978050568 24.299609081397925 0.9690026251088932 0 -1 0
4 1 -0.273148439015282 1.81301755162152 1.1389591067514293 0 0 0
743 1 22.140805889543152 -0.0950346953648957 21.761749217742306 0 0 0
27 1 1.8131055760590842 3.8442575526265657 1.0727142680091377 0 0 0
10 1 10.113696025875289 1.6149523478436019 -0.6873303538996615 0 0 0
31 1 6.089533466524827 3.889455738324396 1.2376717114552807 0 0 0
32 1 3.82381566951162 5.79395728148161 1.1787988211725273 0 0 0
739 1 18.364364709080082 -0.00010993130502329196 21.975262420317005 0 0 0
35 1 9.915181009573773 4.03532813483493 1.2417366975415294 0 0 0
36 1 7.8793120284622695 6.258675666277156 1.272300067267861 0 0 0
53 1 3.651537299928112 7.865122814199065 -0.6667223259346259 0 0 0
40 1 11.998946098810157 6.241016473061744 1.085390527261582 0 0 0
864 1 20.342991428739747 22.616988287312566 21.57831958673857 0 0 0
39 1 14.377019008450095 3.7801385266160894 1.2750508507393445 0 0 0
44 1 16.33490528400974 6.035971030791235 0.9257463421094108 0 0 0
860 1 16.401233452129453 22.642088389002453 21.801399888844074 0 0 0
43 1 18.971370111477167 3.674885743543085 1.3334286979638166 0 0 0
48 1 20.961898458686083 6.003265259808079 1.1985506702858943 0 0 0
856 1 12.16480900687766 22.457202037365512 21.429944868684725 0 0 0
28 1 0.03318348407641192 6.0823710310379315 1.1205665587221842 0 0 0
47 1 22.84720076505397 4.224341246888451 1.268473129055395 0 0 0
5 1 4.073100741620294 -0.07474861322597515 -0.6382322588851946 0 0 0
51 1 1.9045197280643404 8.279087437011992 1.2766606469979558 0 0 0
117 1 20.372182353349068 16.470164002913208 -0.5739655192888784 0 0 0
55 1 5.9310397711908 8.252092378300473 1.1530581010974186 0 0 0
56 1 4.093766144640077 10.299141003559448 1.435060747958783 0 0 0
60 1 7.789088424425843 10.184691099301336 1.2072497363800583 0 0 0
13 1 12.205323210483503 24.439777205165164 -0.5096683347131388 0 -1 0
59 1 9.957290594898929 8.272149913381044 1.181975689884451 0 0 0
63 1 14.143497124143167 8.237091882162797 1.012292176748662 0 0 0
68 1 16.497167767166875 9.997937064811529 1.0348071069739009 0 0 0
852 1 8.244102950235991 22.608245564480974 21.563101845102537 0 0 0
67 1 18.427840580931434 8.241151842993098 1.0377760166928416 0 0 0
72 1 20.297063884743032 10.189453414234604 1.081406564058163 0 0 0
52 1 0.09138369740670932 10.365072522030921 1.3648191915200667 0 0 0
71 1 22.92112827644218 8.044697550780544 0.7265018417120293 0 0 0
33 1 7.900792662910245 4.0902850118477865 -0.8531142977270703 0 0 0
37 1 12.182731962909779 3.784500646928551 -0.7841466666517821 0 0 0
75 1 2.2418392545229824 12.198680690562739 1.5223060611550245 0 0 0
79 1 6.166332783355012 12.537021470493906 1.476015997008623 0 0 0
848 1 4.261887088892405 22.947100099161744 22.01572833340588 0 0 0
83 1 9.806500978467456 12.239516384893488 0.7623977892283014 0 0 0
64 1 12.21355120428426 10.205647666930917 1.4264473994354114 0 0 0
87 1 14.216921245321547 12.393767463929333 1.3565264667994548 0 0 0
91 1 18.42090924378158 12.313965134971404 1.5154192777759263 0 0 0
95 1 22.517421931963906 11.93426769308773 1.2779418222658503 0 0 0
89 1 16.491687315008395 11.98215044076766 -0.6682521443022305 0 0 0
76 1 -0.059077821078066584 14.30735969665761 0.9454967592235617 0 0 0
99 1 2.090991828992085 16.385400096756726 1.2750455028064192 0 0 0
80 1 4.120750107520976 14.058267339852398 1.0038190544813184 0 0 0
103 1 6.008084023339926 16.408531922188182 1.0088246828987195 0 0 0
84 1 7.9039393411830225 14.300071648203241 0.765008757325562 0 0 0
107 1 10.14172682995738 16.69525957782715 1.1872677757617809 0 0 0
88 1 11.771669131908277 14.65728733327249 1.4846202496090308 0 0 0
111 1 13.866873654654153 16.37712351659237 1.3337460164460224 0 0 0
92 1 16.19779597550167 14.180409752887888 1.6448746608186204 0 0 0
727 1 6.250714691867406 -0.24855904869047088 21.89092168120179 0 0 0
96 1 20.25497567559467 14.49810262444252 1.0719945776734061 0 0 0
115 1 17.95086998332143 16.426815401622214 1.3128767821974217 0 0 0
119 1 22.466466815953023 16.34599331515698 1.0812581584058882 0 0 0
106 1 10.171416750177356 18.38441276300962 -0.7573364094565197 0 0 0
123 1 1.77442592799598 20.533344224140336 1.241710802181844 0 0 0
113 1 16.279231316386117 15.894320356500666 -0.7168307298790404 0 0 0
104 1 4.257855012906566 18.59150323281162 0.7771631938067753 0 0 0
127 1 6.095242387710793 20.36925182944016 1.2011138425841628 0 0 0
86 1 14.082792067975229 14.252463257382402 -0.7897250632992338 0 0 0
108 1 7.892557986895646 18.69843636295267 0.7995505653735209 0 0 0
131 1 9.947039710214238 20.110339552639303 1.4650481707451144 0 0 0
723 1 1.9134643891463745 0.027545508169268096 22.178403304158614 0 0 0
112 1 12.354103182612992 18.530762846207693 1.0591637171908106 0 0 0
109 1 12.17723215005465 16.39323010823879 -0.8615464377248827 0 0 0
6 1 5.760515388409291 2.0129065931779957 -0.807508027515553 0 0 0
135 1 14.255511821701937 20.42222646057948 1.152220446625829 0 0 0
116 1 16.180494563242384 18.31996267126013 1.0420789812990492 0 0 0
120 1 20.906961334932312 18.455190844923344 1.0920219901486938 0 0 0
139 1 18.304158576779074 20.438376405500478 0.7987237540160508 0 0 0
863 1 22.48216161901824 20.38053872197606 21.824481102682995 0 0 0
100 1 -0.024731642560766876 18.545515128572703 1.1255093105094724 0 0 0
143 1 22.760450487562167 20.350608095241093 1.3572723791371404 0 0 0
3 1 1.8766165356265199 -0.2559081924955038 1.429276104891441 0 0 0
820 1 -0.2784548879635551 18.060755092618216 21.97522709399368 0 0 0
128 1 3.765025098617408 22.088867848158472 0.8910638719809634 0 0 0
132 1 7.812775349576976 22.35744305167679 1.432013796056486 0 0 0
26 1 1.992331078699515 5.863366085334353 -0.737105980185967 0 0 0
136 1 11.83996116981597 22.35548825957376 1.2397659439134934 0 0 0
54 1 5.53178665782287 10.361041875872806 -0.8305389159024277 0 0 0
15 1 14.572605258269581 24.48171351439909 0.9862032636006377 0 -1 0
140 1 16.629590846796212 22.388990877745186 0.7999610094954857 0 0 0
859 1 18.148341667687927 20.16571081062979 21.80877171339419 0 0 0
144 1 20.339656718951208 22.31735906626522 1.2821740383589715 0 0 0
142 1 22.64758116348109 22.287772980295244 -0.5628237513560559 0 0 0
23 1 22.63132788560001 24.45301209080951 1.553597678038642 0 -1 0
124 1 -0.2135581015329931 22.128449892483943 1.2213303837700566 0 0 0
897 1 7.818031786208776 3.537147197575874 23.499326995638764 0 0 0
965 1 4.01061773957126 16.270895092415593 23.77165185362007 0 0 0
146 1 2.042011956736446 1.8606261063036453 3.4446747602938608 0 0 0
148 1 -0.02467445653505651 1.4589433913264926 5.327165288644014 0 0 0
150 1 5.799492548635112 2.1807987948693417 3.282314481469162 0 0 0
152 1 4.061932328023208 2.03083640025668 5.295213913405131 0 0 0
154 1 9.783263723654228 1.7444689339858592 2.9997719181036904 0 0 0
156 1 8.05848389228874 1.7216159326681806 5.035397710496819 0 0 0
160 1 12.147920139615687 1.7310737113116947 5.2661814818030495 0 0 0
157 1 12.111293114942333 24.460382238989915 3.31537336218687 0 -1 0
158 1 14.31542479457676 1.7919373915523225 3.2051128443475445 0 0 0
164 1 16.43292972704521 1.7038964353307922 5.031436931578024 0 0 0
162 1 18.46876157685852 1.924170105698277 3.1164969393862845 0 0 0
168 1 20.759337401342087 2.014055416635629 5.423829908251799 0 0 0
145 1 -0.05969613235033544 24.272468534995973 3.350323436133216 0 -1 0
166 1 23.107412683381998 1.681471261275471 3.3671576203770206 0 0 0
167 1 22.68966814704446 24.468922660301565 5.278540395394639 0 -1 0
169 1 -0.13490625002517362 3.9707128700276044 2.929778234000523 0 0 0
170 1 1.887783598698134 5.827002534147817 3.3414493859785637 0 0 0
171 1 1.8233716999661373 3.750966694878077 5.225935809854075 0 0 0
173 1 3.7512464697044567 3.8829622036418616 3.2597405582933012 0 0 0
174 1 6.001787200548622 6.265527145804611 3.464256448002704 0 0 0
175 1 6.239060441472137 4.121313910304922 5.23654694575688 0 0 0
176 1 3.986427481850945 5.780460062317408 5.136635126819188 0 0 0
177 1 8.122392065665311 4.043561537721798 3.188102279297267 0 0 0
178 1 10.011521508188514 5.991860813626762 3.436378092308934 0 0 0
179 1 9.743486839681623 3.809770967851363 5.19887979437709 0 0 0
180 1 7.919848268841731 6.147639077209502 5.446918949318662 0 0 0
181 1 11.869525614334842 3.6117858274838377 3.3068235133428807 0 0 0
184 1 12.256524982534742 5.853414662239381 5.063784235110069 0 0 0
182 1 14.509831285044928 6.147351563987684 2.839490359168159 0 0 0
183 1 14.273848051110285 3.707855156051252 5.114720555215962 0 0 0
185 1 16.508668176415988 3.9582909527577996 3.2405683766440427 0 0 0
188 1 16.52588004901735 5.77931491698768 5.141906938271073 0 0 0
186 1 18.724477360596083 5.706237745930997 3.4215659639775007 0 0 0
187 1 18.732624675968616 3.759490713935074 4.946866576534575 0 0 0
189 1 20.839679476215338 3.873546610139983 3.1689053928220776 0 0 0
192 1 20.778138119266643 5.8792438768614455 5.338212115156197 0 0 0
172 1 -0.18327442786685122 6.037888143864119 5.174016596812785 0 0 0
190 1 23.019759619964198 6.196242637291952 3.2308952538529416 0 0 0
191 1 22.48345233946526 4.001171641272529 4.978618377307608 0 0 0
194 1 2.2885493861870967 9.947521820461619 3.187292738780325 0 0 0
195 1 1.986022796273387 8.00749899092337 5.188439482737253 0 0 0
197 1 4.020355101872747 7.992868766389458 3.2841128353433513 0 0 0
199 1 6.1893091941956415 7.934837990832689 5.455838476383408 0 0 0
198 1 6.118972101486754 10.4197733696691 3.3679626041306268 0 0 0
200 1 4.0359816371291135 9.844528722588702 5.034482283267725 0 0 0
201 1 8.273495827609551 8.385745450735685 3.173425046805841 0 0 0
203 1 10.103332110253447 8.250413308786234 5.545314301945881 0 0 0
202 1 10.2843752903827 10.123231629602738 3.1550885104886603 0 0 0
204 1 8.350500452035753 10.262537485061836 5.250700322708195 0 0 0
205 1 12.012109162984363 8.41227346253571 3.190811502435589 0 0 0
208 1 11.996390641197236 10.304851025181678 5.319148516038012 0 0 0
207 1 14.128798987638511 7.838047934281546 4.87410978400162 0 0 0
206 1 14.426969018809903 10.016842714125927 3.2548387913503136 0 0 0
209 1 16.72172285387766 8.11981379566123 3.1602718890407484 0 0 0
212 1 16.795849152968387 9.877291473287105 5.06563516738168 0 0 0
210 1 18.406607324538133 10.210461980813145 3.2708488206428497 0 0 0
211 1 18.79193442644483 7.784347312224595 5.193995818095764 0 0 0
213 1 20.834141178755697 8.153064868020627 2.8378752524388333 0 0 0
216 1 20.870629318747667 9.539493796202628 5.168213322936289 0 0 0
196 1 0.06588927202569994 10.085010497335423 5.193959052144763 0 0 0
193 1 -0.12347674788101926 7.93824457824835 3.2896345664609763 0 0 0
214 1 23.02236578358184 10.175436228389254 3.0220154608039147 0 0 0
215 1 22.916807558151813 8.061767779506285 5.357201289977063 0 0 0
219 1 1.9379299258782412 12.220385831055784 5.600616868840523 0 0 0
221 1 4.105724740210841 12.605596184328023 3.554255377818543 0 0 0
223 1 5.897883273731448 12.206748641604877 5.489391555205012 0 0 0
225 1 8.003207730004382 12.214925881898163 3.1996432083619686 0 0 0
227 1 10.093644120469754 12.0766534813636 5.40301695016948 0 0 0
229 1 12.129303750538632 12.272058609336096 3.1398755852437157 0 0 0
231 1 13.9263156672039 12.145950010660995 5.410761408536376 0 0 0
233 1 16.088911031894007 12.072802245239195 3.474980750479255 0 0 0
236 1 16.39902352035768 14.1903937119308 5.45039874602483 0 0 0
235 1 18.740045025060137 12.297454931598912 5.379104562751977 0 0 0
237 1 20.681349937355968 12.432008020390668 3.030486411116448 0 0 0
217 1 0.19129913463143455 12.111926410499176 3.537535071942151 0 0 0
239 1 22.80225236055453 11.878727098631659 5.070841332780961 0 0 0
218 1 1.7029156944022725 14.41691629067056 3.366605968381168 0 0 0
220 1 -0.2676424279992193 14.005446784376677 5.260854523607687 0 0 0
243 1 1.611040363494298 16.23725136611528 5.23399122932326 0 0 0
222 1 5.957524166715584 14.469345015496911 3.1945571520795886 0 0 0
224 1 3.941996726959757 14.559388304430717 5.53340174137683 0 0 0
245 1 3.9904146330060275 16.339331651874573 3.188642342361386 0 0 0
247 1 5.84093830213749 16.47818889080738 5.359979998198105 0 0 0
226 1 9.758266423935277 14.011424728521204 3.482065598784101 0 0 0
228 1 7.56281049370975 14.397468029939324 5.513950619718399 0 0 0
249 1 8.104878350751632 16.23253185186345 3.131179354050592 0 0 0
251 1 9.950246757924665 16.110719273661317 5.5977900288944795 0 0 0
232 1 11.864393680259102 13.99425854981449 5.445268905112948 0 0 0
253 1 12.113232628928994 16.381302510416674 3.5753083014818996 0 0 0
255 1 14.239598123686132 15.980991475267581 5.242723826586474 0 0 0
230 1 14.177506464589406 14.024245232997528 3.5156214565586046 0 0 0
257 1 16.004485839417935 16.616245509802056 3.096420878264706 0 0 0
234 1 18.256248802210088 14.297416453221022 3.2267034278557327 0 0 0
259 1 18.547841914137926 16.108176857512206 5.271681742068817 0 0 0
261 1 20.798495789238093 16.20359340425823 3.1096544865954674 0 0 0
240 1 20.58607912622913 14.21236406227195 5.443577939721165 0 0 0
241 1 24.336011962844246 16.281209264119163 2.9697385224882775 -1 0 0
238 1 22.696039790725923 13.853494896063342 2.950507169062923 0 0 0
263 1 22.58801024239509 16.144503577606258 5.160273558716511 0 0 0
242 1 1.761163077868873 18.351117543678747 3.1582116894516945 0 0 0
267 1 1.6055524890197506 20.591827633539758 5.143816385582125 0 0 0
265 1 24.57713159946261 20.410817980392842 3.486736777627452 -1 0 0
246 1 6.039304123876904 18.11054914751928 3.183479568132614 0 0 0
248 1 3.341918563055557 18.246293329294573 5.760461487451932 0 0 0
269 1 3.7450469005867486 20.14277703456088 3.0951374731423145 0 0 0
271 1 5.841299672408421 19.754971906139495 5.111194642611872 0 0 0
250 1 10.27532170506292 18.451741305370582 3.4375396949802157 0 0 0
252 1 8.143885553847177 18.32532373750515 5.533897536152432 0 0 0
273 1 7.938893509335212 20.258686690378696 3.359161990845954 0 0 0
275 1 9.974422815042185 20.12992461744468 5.250894976021287 0 0 0
256 1 12.218615019677225 18.158247320226224 5.59961054633447 0 0 0
277 1 12.212568306793974 20.39620321125959 3.3869363548413443 0 0 0
254 1 14.092290635888643 18.426434492928756 3.580043055662042 0 0 0
260 1 16.0421910967545 18.60186086670079 5.449571479793275 0 0 0
279 1 14.358683845436968 20.52219465121643 5.064819218398783 0 0 0
281 1 16.126108842120246 20.58225829260885 3.143496757834418 0 0 0
258 1 18.097842449593315 18.502903917159657 2.961207664854703 0 0 0
264 1 20.42311773618849 18.31624722077577 5.398686887988802 0 0 0
283 1 18.60560337681151 20.281386788229042 4.992910518924168 0 0 0
285 1 20.51636143625887 20.361488860701527 3.202540776555164 0 0 0
244 1 0.01415251531389683 18.1696204615993 5.298099613811355 0 0 0
262 1 22.663739802641715 18.469786227248193 3.3278595019607895 0 0 0
287 1 22.48003046094198 20.64553770257691 5.302412484255076 0 0 0
147 1 1.9941410561004087 24.312087321546983 5.23224272555855 0 -1 0
266 1 1.6750329954891272 22.362202160778573 3.3405444065045824 0 0 0
268 1 -0.14158764316332262 22.55379245476641 5.2069467715769315 0 0 0
149 1 4.09259500184195 0.17737383414541885 3.13338174257854 0 0 0
151 1 6.1043634237155695 24.374179992518172 5.272094357966627 0 -1 0
270 1 5.468893813589359 22.364030087813923 3.2427793396209452 0 0 0
272 1 3.7353513664226954 22.400281651070337 5.501791146532082 0 0 0
153 1 8.054505538028977 24.463945053841478 3.0217197122500687 0 -1 0
155 1 10.171553529929596 -0.2016833519630154 4.89500925641933 0 0 0
276 1 8.130555063880877 22.31194062612635 5.252712159486169 0 0 0
274 1 10.089256437466824 22.264420459923713 3.4804149868306844 0 0 0
280 1 12.137645142423837 22.237342603327242 5.770277340772263 0 0 0
159 1 14.325769816198097 24.379932117989547 5.063759081434019 0 -1 0
161 1 16.235973414011834 24.475330270350874 2.8058371723868327 0 -1 0
278 1 14.051073400454705 22.514587240610965 3.103207764850056 0 0 0
284 1 16.192112237697486 22.461930597887076 5.527945819857915 0 0 0
165 1 20.530116475675708 0.29692813199446844 3.32933929221618 0 0 0
163 1 18.49670773065242 -0.22084814591786994 4.819951790615547 0 0 0
282 1 18.373303666101496 22.381912665421446 3.0018688702566747 0 0 0
288 1 20.229674911963684 22.68981228200579 5.002259423038784 0 0 0
286 1 22.560765839528134 22.61811339213166 3.4168257215002473 0 0 0
290 1 1.7900803712655544 1.5622022280034733 7.058660707847254 0 0 0
294 1 5.975220137611194 1.8706482151023538 7.204697364437049 0 0 0
296 1 3.81314187530372 1.6443298163116813 9.230716129573363 0 0 0
295 1 5.739446820774716 24.144200310267045 9.449570159885656 0 -1 0
298 1 10.283784767634488 1.6741335065350604 7.096489131483807 0 0 0
297 1 7.6676249380942725 24.416754323910773 7.410135086411749 0 -1 0
304 1 11.945038673776386 1.8230702225581399 9.06753786665558 0 0 0
302 1 14.106482928955627 2.0699687708431993 6.835968589572484 0 0 0
308 1 16.283719534832795 1.421597367884023 9.358194051418444 0 0 0
306 1 18.344932445680968 1.8704365916804946 6.937999209065572 0 0 0
309 1 20.564724796992067 24.397322920860717 7.137843991810001 0 -1 0
312 1 20.428526916914432 1.7959362931389369 9.402873338927618 0 0 0
310 1 22.70297887933642 1.6795668638611443 7.13431539661428 0 0 0
292 1 24.47841540600679 1.7242729257133669 9.505889091775662 -1 0 0
314 1 1.5852402818688713 5.664406393597623 7.083402377665649 0 0 0
315 1 1.6833684073097803 3.770720704544063 9.245026415270916 0 0 0
317 1 3.813630190128145 3.8222286676766863 7.215977400407187 0 0 0
318 1 5.574680596957516 5.8748092383962645 7.323426951428102 0 0 0
319 1 5.769783566339345 3.71709661959462 9.19055205541111 0 0 0
320 1 3.750420174486604 6.102020508162594 9.281076384453177 0 0 0
321 1 7.832389562409357 3.9952864145147675 7.49095680403644 0 0 0
322 1 10.145700451176246 5.877210869686703 7.031159622677015 0 0 0
324 1 7.8288981558735085 5.884614718263885 9.368210998639583 0 0 0
323 1 9.89194974846192 4.032818070122533 9.292483652148153 0 0 0
325 1 12.193874641901196 4.008311271870944 7.02715221061107 0 0 0
328 1 12.404840867710751 5.926911523547417 9.113812768872215 0 0 0
326 1 14.366052024628654 5.66009159412433 7.281023451324872 0 0 0
327 1 14.109420164870265 3.7154371564694166 9.389824377179597 0 0 0
329 1 16.35370515539222 3.919922231115688 7.4886633675964465 0 0 0
330 1 18.368004703310383 5.748748296297482 7.019547882890457 0 0 0
333 1 20.276460348126225 3.8855560829032205 7.285452419087303 0 0 0
336 1 20.53239112395066 5.8976289090134975 9.192941398634563 0 0 0
331 1 18.244298725618574 3.6370742137231105 9.128723944280535 0 0 0
316 1 24.49995275850485 5.710296476998904 9.182595738291 -1 0 0
313 1 -0.26650645154338903 3.581368274273737 6.895991937650925 0 0 0
334 1 22.87104847507704 6.068138008880654 7.171811449558076 0 0 0
335 1 22.53852538062235 3.806890911046075 9.269412114908155 0 0 0
338 1 1.9170169046802972 9.947804433620206 7.2589153895277025 0 0 0
339 1 1.7333087594475 7.880455146261255 9.201571132234736 0 0 0
341 1 3.9863292380045463 8.277793648433816 7.6850216715236215 0 0 0
342 1 6.146279925917382 10.352835774483443 7.399110718026154 0 0 0
343 1 6.117442543045013 7.988084217069337 9.40643125016909 0 0 0
344 1 3.9626887244912625 10.196920829314488 9.32489770468977 0 0 0
345 1 8.26918134089474 7.807319253926327 7.405353066561178 0 0 0
348 1 8.384148559242323 9.81404395664356 9.082130444252273 0 0 0
346 1 10.260859400619353 9.972769745686513 7.3824408584226315 0 0 0
347 1 10.415466633264058 7.954395495908351 9.01643764432946 0 0 0
349 1 12.238688690935637 8.113484794704712 7.154640969931307 0 0 0
352 1 12.43356443262939 9.918263909192031 9.193824811478827 0 0 0
350 1 14.48192018106303 10.269320251326402 7.024780845881761 0 0 0
353 1 16.704645907678835 7.893238984497087 7.068900086572965 0 0 0
351 1 14.285451623305311 7.635170620204507 9.477980931306728 0 0 0
356 1 16.177310883973785 9.472947146132723 9.314678089612297 0 0 0
354 1 18.781111089429295 10.171484601942753 7.075156422285135 0 0 0
355 1 18.518064191957123 7.657828222538889 9.161833787240814 0 0 0
357 1 20.73261383627443 7.657193239853316 7.25252621564743 0 0 0
360 1 20.85670712710294 9.599568441173824 9.223875868988996 0 0 0
337 1 -0.010691759309085336 8.178794581996662 7.26763358603209 0 0 0
340 1 -0.1460606682412688 9.916065463304555 9.363023378800843 0 0 0
358 1 22.699811953683188 9.860921162841606 7.16184962285938 0 0 0
359 1 22.914642315038392 7.852137668016423 9.304071066075863 0 0 0
363 1 1.5718706796028579 12.069434144977409 9.093376953769832 0 0 0
365 1 4.019708066960665 12.090921727794102 7.498022184476458 0 0 0
367 1 6.048743997712353 12.224656577341433 9.48558068817318 0 0 0
369 1 7.9844086316497425 12.207471779633444 7.441400818503215 0 0 0
371 1 10.14076059731998 11.902073715872085 9.355801645029473 0 0 0
373 1 12.342230783866873 12.029083677784659 7.6269860909477245 0 0 0
375 1 14.356052484927837 12.055625336916798 9.418682929038848 0 0 0
377 1 16.38051929673405 12.1689905016783 7.050053111912013 0 0 0
379 1 18.559303393105008 11.799269814464417 9.52185240844886 0 0 0
381 1 20.541021427750284 11.939287611948002 7.488072116464021 0 0 0
361 1 -0.03797916286923475 12.031291838463437 7.2661196611258205 0 0 0
383 1 22.5749656682102 11.961203150079493 9.896833845247624 0 0 0
364 1 -0.12931121641423765 14.087633249809453 9.77885178892887 0 0 0
362 1 1.9180734016749001 14.254688326322478 7.453049918400101 0 0 0
387 1 1.8445623976094678 15.869014497203557 9.53535435520442 0 0 0
385 1 24.45912268170025 16.204096317192473 7.518919438014688 -1 0 0
366 1 5.7584900828453165 14.28754003064155 7.461634240020903 0 0 0
368 1 4.083914161438422 13.945489863193822 9.796195722770706 0 0 0
389 1 3.846505578675157 16.490623549109408 7.602553951139926 0 0 0
391 1 6.267292447657104 16.106640941208617 9.261873716853017 0 0 0
372 1 8.356930767259614 13.86068029867631 9.848059549949271 0 0 0
370 1 10.082381239357233 13.90588081188142 7.444826731357551 0 0 0
393 1 8.414837511783183 16.14663479015278 7.612700248930455 0 0 0
395 1 10.139644901775437 16.411919284823178 9.511410291263939 0 0 0
376 1 12.188222756849031 14.15887580805064 9.099298210198375 0 0 0
397 1 12.265396054847477 16.30297236201924 7.502694356191318 0 0 0
374 1 14.366623891399843 13.932343265721183 7.224115844406654 0 0 0
399 1 14.703144054961065 15.95246509355278 9.344906247546348 0 0 0
401 1 16.375703834277335 16.368822995016217 7.256280623954115 0 0 0
378 1 18.341909537141248 14.043161777253312 7.488308537490196 0 0 0
384 1 20.4235688271046 13.787320711776816 9.274574427257138 0 0 0
403 1 18.64164034132118 16.191278183636307 9.27459212116227 0 0 0
405 1 20.626824276820553 16.473216102306743 7.326062368536647 0 0 0
382 1 22.602735577402022 14.150253721727275 7.507521553627754 0 0 0
407 1 22.404448942173534 16.062440195849256 9.451848785660287 0 0 0
386 1 1.6276131557715776 18.30382582559084 7.907373997994291 0 0 0
411 1 1.8497611770895097 20.403448741182544 9.560243061925881 0 0 0
409 1 -0.2292195517946945 20.572289938263715 7.488900359370955 0 0 0
388 1 24.29928091474551 18.461158745551423 9.502780164079496 -1 0 0
390 1 5.952105087906361 18.319452356402017 7.602742942733693 0 0 0
392 1 4.155857201925296 18.268939543906896 9.533362403690516 0 0 0
413 1 4.210562364840742 20.39589107345914 7.387597970632372 0 0 0
415 1 5.891533863239363 20.17744470433977 9.495320095817775 0 0 0
396 1 8.25032392328647 18.37877390462102 9.44601172293234 0 0 0
417 1 8.0318503411175 20.325408993891557 7.421363410012258 0 0 0
394 1 10.122949551488714 18.224798298154596 7.472387733576991 0 0 0
419 1 10.073953002037339 20.501565161157046 9.763086766066749 0 0 0
400 1 12.282061002413814 18.206800154940318 9.599689487867929 0 0 0
421 1 11.904589416983162 20.051611528318226 7.660268688287715 0 0 0
398 1 14.357387041430835 17.873776714360453 7.52784260525377 0 0 0
423 1 14.331573602340024 19.99627592723096 9.320640414850152 0 0 0
425 1 16.175044649911012 20.72212576115367 7.1175801560195895 0 0 0
402 1 18.347095037430257 18.458250442271265 6.997997455987776 0 0 0
408 1 20.440242361796656 18.473997721441982 9.268392180256207 0 0 0
427 1 18.264269768026892 20.303614169342033 8.953395025896704 0 0 0
429 1 20.615825313335826 20.53105752385553 7.12415878223778 0 0 0
406 1 22.54769450869827 18.34853511820669 7.235753895866935 0 0 0
431 1 22.530369340065874 20.58036733104653 9.504311880388169 0 0 0
291 1 1.8210022781664366 -0.0702136530303199 9.58399227030313 0 0 0
289 1 -0.2966996650168633 24.386498642592514 7.619913068572222 0 -1 0
410 1 1.7709408728598288 22.491676243110156 7.260761155811959 0 0 0
293 1 3.935519091028767 24.28362080430911 7.642037431283885 0 -1 0
414 1 5.844350694019532 22.529237041787155 6.914817981176295 0 0 0
416 1 3.7801652704420716 22.014678126358007 9.300881794865216 0 0 0
299 1 10.002100617933412 24.316268393104828 9.051323161729657 0 -1 0
418 1 9.908139997714004 22.272598303819294 7.298911978690862 0 0 0
301 1 12.01183631830315 24.44214447917981 7.190555903754415 0 -1 0
424 1 12.041111842738868 22.582587743515496 9.151663933174126 0 0 0
305 1 16.316261158550745 -0.20459063175283632 7.378360507628171 0 0 0
303 1 13.859491829309949 0.05380105401984425 9.20042245324045 0 0 0
422 1 14.119050798733644 22.898762944544714 7.692131123313679 0 0 0
428 1 16.53320082273449 22.64356368018894 9.542451501678542 0 0 0
307 1 18.68648549925187 24.529998776407112 8.966666457002484 0 -1 0
426 1 18.232726119572547 22.566270850600993 7.368145710967312 0 0 0
432 1 20.345068887793218 22.194842578193565 9.256559820097566 0 0 0
311 1 22.255921151340033 -0.22762470954356218 9.316816926717934 0 0 0
430 1 22.502821976339387 22.346953882487327 7.666200754513616 0 0 0
434 1 1.5096364137409983 1.9915578657861008 11.491386621525669 0 0 0
438 1 5.595751979526082 1.7660805107203967 11.04197910062844 0 0 0
300 1 7.963068684866551 1.5023094699903212 9.334371457917246 0 0 0
442 1 10.03932966517227 2.18422568388008 11.657530496577637 0 0 0
446 1 13.989029851408695 1.801699214347758 11.467493132695454 0 0 0
449 1 16.299524221485086 -0.17547099855981424 11.440605256395884 0 0 0
450 1 18.183858675695287 1.7218850552913814 11.550890335498853 0 0 0
453 1 20.392166441012904 -0.06694380923974014 11.255735171869906 0 0 0
454 1 22.196860389296447 1.8915069010991568 11.624910458793853 0 0 0
433 1 24.42442594047849 -0.23050248411944163 11.618335882297966 -1 0 0
457 1 24.453550072672698 3.655835423363569 11.601669289860176 -1 0 0
458 1 1.816714331323663 5.926961494308889 11.644852671551986 0 0 0
461 1 3.5503171279258 3.732444253642729 11.110340300681122 0 0 0
462 1 5.514934697269856 6.198992112309534 11.523888718394831 0 0 0
465 1 7.796834721186773 4.263300964106578 11.53041993536123 0 0 0
466 1 10.172349936751413 5.762456755021924 11.166178237013272 0 0 0
468 1 7.59258328047031 6.122071424002288 13.409857866055457 0 0 0
469 1 12.052317317991587 3.7923953761658282 11.224039754420984 0 0 0
332 1 16.54281394640486 5.967844382148879 9.357460422388526 0 0 0
470 1 14.214794640159099 5.842021727553352 11.281110048058219 0 0 0
473 1 16.192671891970182 4.2238731907629035 11.32835629420279 0 0 0
474 1 18.782075038662832 6.0936411306230465 11.273966818111164 0 0 0
477 1 20.260563636773444 3.460190116625845 11.185912727341549 0 0 0
478 1 22.3615806397522 5.670322141367458 11.560232427515551 0 0 0
481 1 24.531739463234107 7.692902845084934 11.593572140521655 -1 0 0
482 1 1.6501179593496178 9.968057665433076 11.396886145075355 0 0 0
485 1 3.4553331804166136 8.128064737740461 11.051912505285989 0 0 0
486 1 5.798396642245282 10.211149461331841 11.67729593024568 0 0 0
488 1 3.582839305886234 9.86425697547248 13.475103164928427 0 0 0
489 1 8.49728336854551 7.895615705116578 11.134923045700125 0 0 0
490 1 10.430114138430266 9.833870668897319 11.212411138876236 0 0 0
493 1 12.13176409976373 7.676976799725445 11.132019925861899 0 0 0
494 1 13.926480752931683 9.969317907130728 11.543992678755474 0 0 0
497 1 16.603884417692232 7.831629023851129 11.33810168920612 0 0 0
498 1 18.33586849545428 9.770954207503422 11.472494218388913 0 0 0
501 1 20.708298419301993 7.872384574570109 11.04150149446375 0 0 0
502 1 22.392497061751868 9.744323997228957 11.50214838312737 0 0 0
509 1 3.734253762301339 12.007456452157504 11.568079142536826 0 0 0
513 1 8.37236357888357 11.912075902704006 11.626401533701841 0 0 0
517 1 12.213186314900007 12.2239494125528 10.97983528614225 0 0 0
380 1 16.651460628539276 14.041989580831084 9.41837337008378 0 0 0
521 1 16.323113893296092 12.205372153372373 11.489050905872464 0 0 0
518 1 14.17475692316817 14.03231573476292 11.365631739556628 0 0 0
525 1 20.46946720434157 12.04252097342075 11.671750482387209 0 0 0
505 1 -0.16084837505721802 11.838779303233801 11.507203963472639 0 0 0
506 1 2.1143644644586725 14.073572574381428 11.596490120901828 0 0 0
510 1 6.1078255394856384 14.287175110360451 11.623386716583342 0 0 0
533 1 4.23385732050584 16.207547322085354 11.18856364352311 0 0 0
537 1 8.504807632376547 16.005232068720645 11.584223160709275 0 0 0
514 1 10.829059810428221 14.166585689634275 11.741030811309694 0 0 0
516 1 8.476439584097376 14.363489380868646 13.779480670960115 0 0 0
541 1 12.551465414434263 16.07008144771806 11.328586005293827 0 0 0
545 1 16.436365683618483 16.572164107780203 11.452489767673107 0 0 0
522 1 18.412728146961108 14.182392078864895 11.647340950328287 0 0 0
549 1 20.30111931280855 16.286344207191675 11.535704240765032 0 0 0
526 1 22.602258851807093 14.35428979060616 11.536715663791364 0 0 0
529 1 24.42011635207123 16.107862686082704 11.320152382522297 -1 0 0
530 1 1.711708345358752 18.1946838091958 11.025114528191605 0 0 0
553 1 24.326826223817378 20.482320333150952 11.474964683173383 -1 0 0
534 1 6.411338748050373 18.27165398692447 11.277600609783715 0 0 0
557 1 3.838154617379965 20.24901911533744 11.499398961614261 0 0 0
538 1 10.190495534069306 18.632635824997415 11.554687781372134 0 0 0
561 1 8.15452637168849 20.51779569357081 11.468300189333041 0 0 0
565 1 11.955055132379984 20.587476915439815 11.507657039988763 0 0 0
542 1 14.396049419811199 18.444945747212067 11.425494422037714 0 0 0
404 1 16.42289578343473 18.235778319936514 9.296755654638172 0 0 0
569 1 16.668959629586414 20.120801626550914 11.19208976311059 0 0 0
546 1 18.664017566743837 18.355352555395726 11.536418337956738 0 0 0
573 1 20.476547321250106 20.349375589906572 11.673755345585464 0 0 0
550 1 22.434898620271568 18.33310821724423 11.70743506062844 0 0 0
554 1 1.7409825744938376 22.264096034611228 11.709416137318854 0 0 0
437 1 3.7142275052559013 24.496928851365233 11.365363801378722 0 -1 0
558 1 5.799794610618121 22.504741900208494 11.631996342690954 0 0 0
420 1 7.919134643281099 22.191506314367885 9.245523424098145 0 0 0
441 1 7.743284564111903 -0.10875065286385283 11.417323035719836 0 0 0
562 1 10.14199848027895 22.742544017446605 11.128047719897296 0 0 0
445 1 12.081484386551786 -0.20484521328249117 11.33223200037215 0 0 0
566 1 14.126001918933277 22.510657379379815 10.683614103334842 0 0 0
570 1 18.349936452206773 22.561462917253223 11.434717195855265 0 0 0
412 1 -0.04226969924581081 22.77735486150408 9.505480290889468 0 0 0
574 1 22.441837255842284 22.511977997152663 11.803887095110372 0 0 0
436 1 24.296278244094886 1.5272728650858303 13.68531398265018 -1 0 0
578 1 1.9126839785057577 1.7513533807862949 15.571723614054754 0 0 0
435 1 1.9114332693757592 -0.25808096497045646 13.474157998244866 0 0 0
440 1 3.686126219034642 1.7966963144566845 13.471535325534138 0 0 0
439 1 5.566393983732246 -0.21598334380980333 13.568411023620929 0 0 0
582 1 5.823765748570804 2.1775849202194917 15.28454242454169 0 0 0
444 1 7.61883763742033 2.1939653877985124 13.41751240549485 0 0 0
586 1 9.814176502988136 1.936471569705573 15.020006399070862 0 0 0
585 1 7.356806067755317 24.402427717212845 15.65314473067275 0 -1 0
443 1 10.014831460656039 0.03835744653870443 13.205336541198163 0 0 0
448 1 11.91052834619498 1.8205024953599214 13.44849122978545 0 0 0
589 1 12.260034314754282 -0.20192435376253492 15.653877060783167 0 0 0
452 1 15.811050536270201 1.9529739708773444 13.27566049803439 0 0 0
590 1 14.098946457720787 1.718762159568318 15.64453304043099 0 0 0
593 1 16.02268824917284 24.269124626005933 15.379719768985886 0 -1 0
447 1 13.993497352070179 -0.17808766750560348 13.183904406878282 0 0 0
456 1 20.13981565231935 1.7480849036621513 13.584991759942119 0 0 0
594 1 18.329528584311245 1.6703706675105108 15.80034673096791 0 0 0
451 1 18.3483030550656 -0.2602363614353045 13.69726056528343 0 0 0
597 1 20.51007579403788 -0.07555728180334487 15.318697297830898 0 0 0
598 1 22.50206416967631 1.6558891253748667 15.80767134486404 0 0 0
455 1 22.456405976273903 24.29055238900981 13.555415377017864 0 -1 0
459 1 1.9952508671492688 3.8874173301781836 13.62789240150723 0 0 0
460 1 24.49885114336585 5.511455909933502 13.685940299894044 -1 0 0
601 1 -0.17695951595658516 3.568476513982007 15.507812506781278 0 0 0
602 1 1.7411989896846474 6.211232680448398 15.343475679665332 0 0 0
464 1 3.660368449336639 6.516933390700928 13.452923001423782 0 0 0
463 1 5.4353916173511125 4.118634237064101 13.892544207730683 0 0 0
605 1 3.787569577638295 3.9567953963480385 15.814870809552001 0 0 0
606 1 5.8144487549409725 6.2068226926843035 15.448980826422215 0 0 0
467 1 10.077011506645723 4.105993044962991 13.568796290222583 0 0 0
609 1 8.067590467995108 4.211531084290006 15.960362690014154 0 0 0
610 1 10.030355520824735 6.334316340472346 15.211368161354358 0 0 0
472 1 12.362036236992662 6.383804485615239 13.416679425250166 0 0 0
613 1 11.770093073987205 3.6412219040535976 15.95907660993485 0 0 0
614 1 14.357392087472226 6.043922970186573 15.69234137467911 0 0 0
471 1 13.869888485237624 4.000833375249058 13.721769516011097 0 0 0
476 1 16.280502020913403 6.064451625692218 13.499142777621971 0 0 0
617 1 16.252526425049332 3.8640834932633075 15.747029434012632 0 0 0
475 1 18.196123362367743 3.967846744260682 13.371031206561497 0 0 0
480 1 20.62287894230646 6.028837651726543 13.606644538761016 0 0 0
618 1 18.626360793362636 5.898973724377207 15.429218061461231 0 0 0
621 1 20.48127161276019 3.9896481188721635 15.720999300732206 0 0 0
479 1 22.36918402533301 3.7892663977632166 13.908059087889683 0 0 0
622 1 22.479173693348972 5.856771560274534 15.683439268484225 0 0 0
483 1 1.408237800567418 7.912552931044203 13.546968810461303 0 0 0
484 1 24.54821138095285 9.911531646788482 13.416955954452417 -1 0 0
625 1 24.56001923255374 8.184337816829364 15.841139969817899 -1 0 0
626 1 1.3923451237274622 10.365916119016749 15.767037259262914 0 0 0
487 1 5.941853012017696 8.231527501781978 13.550476107211894 0 0 0
629 1 3.797250907878099 7.977233056169862 15.99374100578435 0 0 0
630 1 5.840275259565254 10.223610471955462 15.445704812321871 0 0 0
492 1 8.235661328970801 9.91408526967012 13.40219956085891 0 0 0
633 1 7.99816420484135 8.061448730570415 15.585086881122209 0 0 0
634 1 10.360253794214664 10.566114830575641 15.445303340548996 0 0 0
491 1 10.360702546569199 8.299356930988495 13.326919067864898 0 0 0
496 1 12.350115736099776 10.363218690339549 13.477218465597312 0 0 0
637 1 12.549350553891932 8.381944278223653 15.352685240679673 0 0 0
500 1 16.472759803600663 9.916054053636413 13.497021814354763 0 0 0
495 1 14.38002373828108 8.03512822022287 13.654538918919064 0 0 0
638 1 14.065810099571571 10.330355606729423 15.729670087945898 0 0 0
641 1 16.398821466948363 7.882545202923852 15.464965895892714 0 0 0
499 1 18.390169958789265 7.635815885873568 13.510121401698203 0 0 0
642 1 18.318230333143067 9.795307198194612 15.383931340605493 0 0 0
645 1 20.697059321165163 8.045005726685433 15.748010112934775 0 0 0
504 1 20.56979025948219 10.203860509274087 13.692563844843598 0 0 0
503 1 22.790472831286543 7.720754472320762 13.573561741414748 0 0 0
646 1 22.56827011241286 9.900734337401486 15.594841561066286 0 0 0
507 1 1.873961647503673 11.852802848851324 13.837499025832825 0 0 0
649 1 24.342775248952158 12.100739460659376 15.769553158754057 -1 0 0
511 1 5.96284010319877 12.398152867667317 13.713258617456422 0 0 0
653 1 3.9989057790618983 12.111485181819795 15.661452189432076 0 0 0
657 1 8.028949006973008 12.250964716019617 15.385735096699285 0 0 0
515 1 10.262038138696173 12.179818506801974 13.501332545088813 0 0 0
661 1 12.6397539166494 12.709936033357648 15.806896037289182 0 0 0
519 1 14.443960422234651 12.127834693547161 13.611769021283441 0 0 0
665 1 16.38220649468601 11.894925936716879 15.55873984697443 0 0 0
523 1 18.448471747004696 11.957841076637694 13.32048767069286 0 0 0
669 1 20.18253615771942 11.977449287926692 15.835340769521327 0 0 0
527 1 22.471536913312406 12.105198210580502 13.633375129930537 0 0 0
531 1 1.772794344306324 16.228310835805907 13.155705336358455 0 0 0
650 1 1.829796391079717 13.994276338800356 15.620174882229279 0 0 0
508 1 -0.1989155092710347 13.703811892622461 13.70098652839061 0 0 0
654 1 5.959376116285892 14.242597392557295 15.425977871964538 0 0 0
512 1 3.941679994297684 14.413330298722059 13.554894310536774 0 0 0
535 1 6.234272863292953 16.25539415018914 13.515042723444953 0 0 0
677 1 4.063819154868914 16.39221995978142 15.30744142483746 0 0 0
681 1 8.205753004723688 16.366008768633336 15.325885226697931 0 0 0
539 1 10.747089931092301 16.361660364911927 13.312416476067769 0 0 0
658 1 10.266006336179094 14.346931121214691 15.791026236794977 0 0 0
520 1 12.493015578586672 14.497338195182614 13.631304501353624 0 0 0
685 1 12.244141077158348 16.498740926550532 15.475933478352736 0 0 0
524 1 16.47738902335827 14.072958795503272 13.64592541275542 0 0 0
543 1 14.5338131450752 16.5905953541208 13.632259421445177 0 0 0
662 1 14.581347516483042 14.51785479122499 15.657325133127557 0 0 0
689 1 16.3866881144126 16.674907197996916 15.804424232502772 0 0 0
666 1 18.21265876962797 14.431382362068943 15.626781181160215 0 0 0
528 1 20.451936091720228 14.456302238949352 13.441382610753827 0 0 0
547 1 18.214478220970154 16.376549215239045 13.680330414561316 0 0 0
693 1 20.416577398421584 16.138370124348043 15.806674055071166 0 0 0
673 1 -0.27167671521411707 16.589308438907032 15.15536510971495 0 0 0
670 1 22.157736876510263 14.184243658366961 15.617922608683372 0 0 0
551 1 22.05158573595693 16.342309413830463 13.430881771175923 0 0 0
555 1 2.0191514361469713 20.151978828069062 13.479753225407048 0 0 0
674 1 1.8978869892803343 18.28003480903172 15.846813189215911 0 0 0
697 1 0.011849608142303292 20.164137445054372 15.670968592678907 0 0 0
536 1 3.783684672439204 18.16800242576481 13.10763264424009 0 0 0
559 1 5.629629438134564 20.188926596807185 13.475031019610267 0 0 0
678 1 6.324905273762796 18.35786891534179 15.582873315593847 0 0 0
701 1 4.081174437391734 20.346720889657718 15.787964218902122 0 0 0
540 1 8.184666557387597 18.57531146877173 13.505168728923513 0 0 0
682 1 10.276653207048847 18.497605206473224 15.689467313704725 0 0 0
705 1 8.151870409098967 20.359624257591015 15.53412791389415 0 0 0
544 1 12.203914767333297 18.29888898620861 13.551948874421713 0 0 0
563 1 10.147064918556023 20.88618583681474 13.728262113293534 0 0 0
709 1 12.371764195258093 20.46402334800853 15.517448648815812 0 0 0
548 1 16.331943491596228 18.74912741051189 13.602144995095717 0 0 0
567 1 14.28095614963054 20.435750109393553 13.089854625606474 0 0 0
686 1 14.47581431431068 18.611318053512598 15.831737359393543 0 0 0
713 1 16.734869705002055 20.400564820619735 15.810536509980228 0 0 0
552 1 20.6459051690516 18.491331425678126 13.90023361504541 0 0 0
571 1 18.53584005532366 20.39151030549776 13.619689319150355 0 0 0
690 1 18.63295935300961 18.187364233391946 15.737537435711893 0 0 0
717 1 20.959736707614876 20.771981295185817 15.414073962242771 0 0 0
575 1 22.60649958284381 20.333443939095723 13.530896429532897 0 0 0
532 1 0.02455767219572097 18.450016768267993 13.394471331456101 0 0 0
694 1 22.61185388897499 18.488365071648644 15.4772988748153 0 0 0
698 1 1.9178933900367299 22.256043457620294 15.672001157131547 0 0 0
581 1 3.631830120767461 24.449383530642464 15.930825536859885 0 -1 0
560 1 3.8661261489999905 22.59438664384114 13.699697470653074 0 0 0
702 1 5.788982316669535 22.275641777042466 15.603246085310396 0 0 0
564 1 8.073923038252076 22.920044620426296 13.731779920108147 0 0 0
706 1 10.263161383828677 22.511730196763217 15.568148690487124 0 0 0
568 1 12.364894024090425 22.505652447148854 13.769470362446823 0 0 0
710 1 14.40826135142846 22.3590309855568 15.781092402316375 0 0 0
572 1 16.56667812166922 22.55141378295302 13.620210183770741 0 0 0
576 1 20.42495175762358 22.525095149829028 13.685768949027088 0 0 0
714 1 18.573167837354173 22.669947709160553 15.513698863971719 0 0 0
577 1 -0.05133304535348099 24.480326860482116 15.476563931453239 0 -1 0
556 1 -0.1648468968332263 22.418360199111532 13.677508053888205 0 0 0
718 1 22.663693936930727 22.834503529168252 15.831238299572203 0 0 0
722 1 1.683529769189298 2.126499008597755 20.10440213644037 0 0 0
584 1 3.937686925337581 1.8705585588314668 17.81374448531849 0 0 0
726 1 5.7728168931902 1.7461574167995613 19.702734526423935 0 0 0
588 1 7.566452758466278 1.6013114465884748 17.32137992338065 0 0 0
730 1 10.016405075391777 2.021073729062122 19.552574690371905 0 0 0
587 1 9.962160800078097 -0.2676750737616814 17.561624242822518 0 0 0
592 1 11.772434833333268 1.8952738791542245 17.60441633476371 0 0 0
733 1 12.239913106335521 0.08249431175494587 19.550085424382523 0 0 0
596 1 16.126559260767593 1.638609420978159 17.536714751641167 0 0 0
734 1 14.75266134271232 2.180507892019707 19.557378749124283 0 0 0
591 1 14.156471520158526 -0.055546558513600214 17.83653019290012 0 0 0
600 1 20.57519260516162 1.8672803802666618 17.64612646249126 0 0 0
738 1 18.220019468467882 1.9824849059105603 19.4122749485226 0 0 0
580 1 -0.04674964067371756 1.823400295718463 17.521677450895446 0 0 0
742 1 22.695442312733714 1.8210945121834388 19.893965401414796 0 0 0
603 1 1.6422348028841949 3.9559413586171184 17.6191836868483 0 0 0
746 1 1.7456095529505782 5.930508609541826 19.754377025959467 0 0 0
604 1 -0.04632111123910981 5.961957297719398 17.252776891845162 0 0 0
607 1 6.051532819290051 3.804414916980777 17.94902296461934 0 0 0
608 1 3.393032915020357 5.993424304761839 17.870450326945516 0 0 0
749 1 3.7049453018709144 3.9461657169227573 20.092919359065316 0 0 0
750 1 5.870634738849461 5.954554412659271 19.517466156448855 0 0 0
611 1 10.065360828931436 4.018626069285502 17.73098036176248 0 0 0
612 1 8.044082724104376 6.298004789637422 17.923105310897764 0 0 0
753 1 8.244867108508913 3.836659715351602 19.53012877121731 0 0 0
754 1 9.897438857194283 6.05704490663386 19.781264121892804 0 0 0
616 1 12.067744335336291 6.184865835519373 17.29392026865754 0 0 0
757 1 12.195521848840695 4.232097820790056 19.623288094426645 0 0 0
615 1 14.081932453462326 3.9035444736679885 17.48915888461976 0 0 0
620 1 16.306239362822804 6.14770407594129 17.757309379141656 0 0 0
758 1 14.171817820127963 6.152918485761279 19.786187503544785 0 0 0
761 1 16.337412818289298 4.202296474377692 19.57231415700825 0 0 0
619 1 18.18530881704733 4.272125007897052 17.498544106367813 0 0 0
624 1 20.51841474401144 5.786298911262253 17.71042833598812 0 0 0
762 1 18.44445044056361 6.289900204854438 19.88533540993681 0 0 0
765 1 20.265453121655334 4.005478466149906 19.572303301198048 0 0 0
745 1 -0.16595363524391243 3.8758611560303775 19.266647427423127 0 0 0
623 1 22.68489411088497 3.8818921544361027 17.29570738712595 0 0 0
766 1 22.831439083480657 5.81117481640384 19.640034420148123 0 0 0
627 1 1.5256345778220004 7.950988536158983 17.74899673947738 0 0 0
628 1 -0.12860442811084938 10.180281849966635 17.884717725834744 0 0 0
769 1 -0.014633972281482388 8.172070483932432 19.555041982274055 0 0 0
770 1 2.025978778417265 10.351725137424111 19.63788949280842 0 0 0
631 1 6.1131410822679575 7.997971060140452 17.233550403693023 0 0 0
773 1 3.6855065185483067 8.124251483218593 19.498013641362533 0 0 0
774 1 5.708954860957068 10.106907170747421 19.70244803972461 0 0 0
632 1 3.93460517275041 9.932835117653376 17.69827000073852 0 0 0
635 1 10.306562652209736 8.295046830226624 17.716758122404396 0 0 0
777 1 7.5135514226870805 8.213977584812403 19.80849151003041 0 0 0
636 1 8.036790577738426 10.081245912531417 17.41195732998238 0 0 0
778 1 10.156961355941702 10.184616524961891 19.53809202418888 0 0 0
781 1 12.227330247642772 8.16832551433695 20.042935678578637 0 0 0
640 1 12.359564320103727 10.198232256715531 17.61827409183753 0 0 0
782 1 14.295688334142296 10.042601056775988 19.708578963430927 0 0 0
639 1 14.117227527401871 8.100566143972323 17.793006909106566 0 0 0
644 1 16.368322708798647 9.94435296484238 17.36960301926785 0 0 0
785 1 16.12227811890784 8.199111049605976 19.69739148802403 0 0 0
643 1 17.827456845882203 8.037266622887756 17.780489590496806 0 0 0
648 1 20.331791727282337 9.912031811860892 17.861800390565516 0 0 0
786 1 18.42069764326728 10.355796487561264 19.750370219539498 0 0 0
789 1 20.783691236030684 7.7727795905832835 19.916771048429222 0 0 0
647 1 22.816479337638878 7.790994855133544 17.792982424407402 0 0 0
790 1 22.435985111460127 10.288811612731074 20.040463559227316 0 0 0
651 1 1.734356239776437 12.582744090263418 17.787680030444523 0 0 0
793 1 24.461247232159863 12.291105691386292 19.470453205963413 -1 0 0
655 1 5.807562489320593 12.200271683966868 17.734317225239153 0 0 0
797 1 3.9964714246616113 12.431303199081572 19.838971878657553 0 0 0
798 1 6.078999643588098 14.532285209852319 19.628783974869187 0 0 0
659 1 9.895997784855936 12.094769587053252 17.58303845560341 0 0 0
801 1 8.124629034883222 12.243739485156162 19.94683287470182 0 0 0
805 1 12.01169492727312 12.394709154094388 19.975094445748418 0 0 0
663 1 14.452327600627578 12.457377613342786 17.888961600729708 0 0 0
809 1 16.35596579931054 12.012430748199389 19.60862698063511 0 0 0
667 1 18.41419494477704 12.373219210189598 17.744053046866703 0 0 0
671 1 22.483913943951382 12.101209602080942 17.9825304842666 0 0 0
675 1 1.7669164965833586 16.576992190141887 17.772209395061026 0 0 0
794 1 2.0452928083129747 14.42874388727448 19.78824111207748 0 0 0
656 1 3.9145762811878733 14.776795936083568 17.34744395058175 0 0 0
679 1 6.061375355544586 16.366590623693625 17.846978838619307 0 0 0
821 1 3.9793713114640576 16.348577773829312 20.035310604716333 0 0 0
802 1 9.977987193743541 14.195425084670436 19.678880492916086 0 0 0
825 1 8.07218796746714 16.615143220248378 20.040140410727144 0 0 0
660 1 8.202337330943559 14.289718840589696 17.663235001021523 0 0 0
683 1 10.065390155897944 16.38494264852025 17.778333483477134 0 0 0
829 1 12.121536764226875 16.409699963987897 19.95162214677663 0 0 0
664 1 12.27527139231294 14.315050893978036 17.834871743404253 0 0 0
806 1 14.037731192965417 14.1489730142843 19.966160974147382 0 0 0
687 1 14.234594720206918 16.423248117017614 17.990669014598787 0 0 0
833 1 16.13956707084931 16.51377155650774 20.129566814058858 0 0 0
668 1 16.73346648549941 14.719358479852023 18.77926729939396 0 0 0
672 1 20.413684709962233 14.212337311973293 17.863686239065494 0 0 0
837 1 20.513254122158887 16.4901794748873 19.69143730487767 0 0 0
691 1 18.616108052948846 16.35663474414966 17.858335477303456 0 0 0
810 1 18.604438473206077 14.061208815677237 20.282519729318423 0 0 0
652 1 -0.08799430069047964 14.333948774995452 17.805765569717657 0 0 0
817 1 24.424241772994517 16.689771328110126 19.712002366560974 -1 0 0
695 1 22.530265862233648 16.354024627093573 17.444649479817564 0 0 0
814 1 22.788499093230552 14.378370568765504 19.65663434075678 0 0 0
699 1 1.994387062751927 20.41622049782478 17.566328559808294 0 0 0
818 1 2.142233990472861 18.464182089352505 19.767845915665067 0 0 0
845 1 4.23175393855101 20.723721884157513 20.063659777414102 0 0 0
822 1 5.859699136813671 18.386351250377366 19.822163897373333 0 0 0
680 1 3.9639693313328976 18.468522146062718 17.76007603607679 0 0 0
703 1 5.939709623676772 20.40701669405928 17.64179067198038 0 0 0
849 1 7.784119607854494 20.38027837998866 19.850774647988743 0 0 0
826 1 9.945465735019573 18.583639204340024 19.760513375720535 0 0 0
684 1 8.138427876184759 18.340135487314974 17.701787391983792 0 0 0
707 1 10.101972189745242 20.23706548894748 17.943353310115263 0 0 0
853 1 12.007490275375318 20.692073543374683 19.706473737126966 0 0 0
688 1 12.297890289934324 18.671611868663376 17.770476603843925 0 0 0
857 1 16.079091842852336 20.36209763651233 19.981350947318088 0 0 0
830 1 14.26176672259708 18.644300799751754 20.112970883017766 0 0 0
692 1 16.480239349506213 18.675716167166122 18.103393015317398 0 0 0
711 1 14.113003902333043 20.76492772836651 18.02663739740864 0 0 0
861 1 20.274296105149148 20.525528938508216 19.6723704658996 0 0 0
834 1 18.72582994733083 18.385931040077146 19.515148755777584 0 0 0
696 1 20.690884251663594 18.405621841383486 17.441756187976086 0 0 0
715 1 19.042438884955047 20.496126811690523 17.30062629958013 0 0 0
841 1 -0.15545776726305652 20.24639927987971 20.088824085725918 0 0 0
676 1 -0.19373340701117642 18.427921738961402 17.907986104183053 0 0 0
838 1 22.582895701019247 18.369214285704842 19.90456277245948 0 0 0
719 1 22.79775510357459 20.66500818864548 17.709890602775307 0 0 0
579 1 1.869248928288299 -0.13110710986495414 17.751651260143138 0 0 0
842 1 1.7011576011604448 22.33237234214286 19.684477220377456 0 0 0
721 1 -0.11467665881412256 -0.16186875174904974 19.83608714801922 0 0 0
725 1 3.715772722010562 24.456885156740242 19.743230845051734 0 -1 0
583 1 5.623794782463238 0.1502122244025072 17.471345501788853 0 0 0
846 1 6.0687009256096145 22.484621151539258 19.774784986789566 0 0 0
704 1 4.09751595212244 22.63462504032941 17.790243317856415 0 0 0
729 1 7.8836463321877535 -0.22435796559243215 19.669570979205183 0 0 0
708 1 8.060633732810608 22.222216390431207 17.623721194812795 0 0 0
850 1 10.120288530029445 22.614303447857893 19.58442294725425 0 0 0
712 1 11.924055793243667 22.659798226172725 17.45362762558107 0 0 0
737 1 16.293323910367622 -0.20054999219860903 19.513501078604857 0 0 0
854 1 14.284888551484025 22.845935243551907 20.025709641049456 0 0 0
716 1 16.46826697759732 22.427701722493502 17.690741924001063 0 0 0
741 1 20.324289608545786 0.037866293214349034 19.570617335461723 0 0 0
858 1 18.207116628589407 22.318519107539665 19.544296428395867 0 0 0
595 1 18.522367447274647 24.483999859575846 17.548222390887606 0 -1 0
720 1 20.517606829012983 22.54876471186183 17.75227489670655 0 0 0
599 1 22.633628272170373 -0.06200544985094114 17.936813356912104 0 0 0
700 1 -0.13858475940456252 22.723866183779265 17.800951250475276 0 0 0
862 1 22.46379137261873 22.701431239297328 19.616179366299395 0 0 0
938 1 1.915510244200628 14.307664577654952 23.47630731378882 0 0 0
728 1 3.8154235061414727 1.9252607605966303 21.81395391415464 0 0 0
840 1 20.669940216757674 18.438223853570257 21.7675481529206 0 0 0
110 1 14.292176668099733 18.226880009407992 -0.7522387223208468 0 0 0
731 1 10.390116879436702 0.3231339080865676 21.633884599495726 0 0 0
732 1 8.180954234785322 1.8482599766705676 21.86201689646726 0 0 0
855 1 14.122187748021348 20.683980688002485 22.053409541355126 0 0 0
736 1 12.750419422463558 2.421493424205208 21.29964551169614 0 0 0
735 1 14.285113953177403 0.22549347799178443 22.087593550140554 0 0 0
740 1 16.247965997914278 1.8187795104697937 21.734853436339005 0 0 0
744 1 20.289365402083067 1.8381559556034017 21.502561328149554 0 0 0
724 1 24.57159849851514 1.7802699765813812 21.757972157924137 -1 0 0
93 1 20.545710709801426 12.385209777607361 -0.6418908013720006 0 0 0
747 1 1.3633213951087149 3.7951886957498466 21.994845210788085 0 0 0
751 1 5.797304513335241 3.824884342726837 21.893766889916016 0 0 0
752 1 3.8334621444482835 5.934166531811851 21.77951850490487 0 0 0
90 1 18.301723894553927 14.045627629498208 -0.7805164255242895 0 0 0
926 1 14.197476561268948 10.264737111399171 23.63166563384482 0 0 0
755 1 10.32211896442141 3.9688015940531667 21.733560108982253 0 0 0
756 1 7.973023281736349 5.705114040956479 21.78528773040476 0 0 0
57 1 7.832880591219784 8.056167361157394 -0.7996758574657965 0 0 0
905 1 16.522708579785522 4.134276781315081 23.564599426280672 0 0 0
760 1 12.140078327497497 6.097923777668919 21.758333677016843 0 0 0
885 1 20.22955846958261 24.521276248133198 23.71165898316227 0 -1 0
759 1 14.699311902904908 4.300961106472985 21.61935166024489 0 0 0
764 1 16.35129515462877 6.556754899200098 21.860436978661127 0 0 0
763 1 18.388139610755122 3.9669221645539308 21.456097769213745 0 0 0
768 1 20.303033467972405 6.04661444823747 21.915264047530528 0 0 0
836 1 16.28385768268365 18.470361441934436 21.83876155739212 0 0 0
748 1 -0.05682163407562213 6.738005137430551 21.59503428614721 0 0 0
767 1 22.600313082671654 3.887123741104472 21.608750891580087 0 0 0
832 1 12.061471031400261 18.8144724508864 21.744091636594554 0 0 0
772 1 0.14842130792586078 10.318647601024564 21.83187891569499 0 0 0
771 1 2.3934465513976617 8.400576182691243 21.676385614742493 0 0 0
775 1 5.847592842405915 7.548032374603921 21.760284358644505 0 0 0
776 1 4.395136137231441 10.001708724754279 22.129635683703057 0 0 0
882 1 18.374475705781457 2.026545431649162 23.739459936356962 0 0 0
780 1 7.5523463747258495 10.4529006186485 21.820971702610727 0 0 0
779 1 9.944614561756204 7.97964520801137 21.794585028717677 0 0 0
906 1 18.47632281870112 6.016463056349464 23.745288146235943 0 0 0
828 1 8.43673379309524 18.466460728983726 22.053711754733037 0 0 0
784 1 12.074442117424491 10.045111535438984 21.82567019473888 0 0 0
788 1 16.265478285213174 10.098645815991988 21.64918248057893 0 0 0
783 1 14.119429642067708 8.191225576556626 21.824122435236504 0 0 0
792 1 20.107395562755457 10.377231374519527 21.92428975430588 0 0 0
787 1 18.58141067607006 8.15033202326738 21.87440007239826 0 0 0
791 1 22.75106769996553 8.242412747592546 22.11912085660097 0 0 0
795 1 2.1111546179464997 11.917660761329712 21.83424860892945 0 0 0
799 1 6.099012805725123 12.547214929171538 21.448204158861017 0 0 0
981 1 20.147054294954586 16.32416527273719 23.740779816977682 0 0 0
803 1 10.231345165362697 12.583375455367221 21.71877278395004 0 0 0
807 1 14.019625947766155 12.063756980559528 21.953214625033453 0 0 0
813 1 20.42565291773123 12.126011989127708 19.92016059320909 0 0 0
811 1 18.06006197904118 12.19346558185433 22.10004152348327 0 0 0
815 1 22.84825262865607 12.322435446783468 21.624696759494228 0 0 0
819 1 1.8214512266824734 16.306817497262806 21.670809221491176 0 0 0
823 1 6.100710262600131 16.49491389122555 22.053657263604823 0 0 0
800 1 4.091875113022217 14.257020713548071 21.740879192375754 0 0 0
804 1 8.158534730858461 14.43377226062549 21.920367304574025 0 0 0
827 1 10.360648323870219 16.426692115783915 21.802644209751588 0 0 0
808 1 12.232119234232545 14.445645821372194 22.09625791126699 0 0 0
998 1 14.196761260857322 22.591606523842103 23.74321862376593 0 0 0
831 1 14.127914780756072 16.348505795028636 21.896822117957704 0 0 0
812 1 16.464587851471745 14.307937014368747 21.695095484411496 0 0 0
847 1 6.481193000987686 20.184096013656784 22.085313941718663 0 0 0
851 1 10.10348072404164 20.50664374647043 21.922136853327117 0 0 0
835 1 18.341334227211377 16.49912286873196 21.629438119016868 0 0 0
816 1 20.64878703529965 14.425844323103101 21.93745523095213 0 0 0
839 1 22.58522389382856 16.034339616905022 21.77284626089188 0 0 0
796 1 -0.2740493571128759 14.772261927502095 21.875975373642 0 0 0
843 1 2.0843836588398363 20.60640481309911 22.240878223630546 0 0 0
824 1 4.112020894498553 18.548784189283836 21.768413605539426 0 0 0
865 1 24.290879381128235 -0.17975666414709196 23.684503193768872 -1 0 0
945 1 8.214094880796122 12.047279702962653 23.82815552367666 0 0 0
70 1 22.697202022146712 10.325557747246606 -0.666927331099104 0 0 0
1006 1 22.37639470076466 22.923156777747103 23.71029058298081 0 0 0
934 1 22.422093308657377 10.55628271365862 23.527617558358557 0 0 0
22 1 22.772318338158076 1.7314976580106105 -0.6268756692495865 0 0 0
921 1 8.016916805042227 8.371328104486363 23.70473516708268 0 0 0
878 1 14.337466402420166 1.8902159935953953 23.81387078229762 0 0 0
909 1 20.324127123766527 3.6287253281693737 23.55132709689917 0 0 0
941 1 4.190707829135762 12.288616892296103 23.497353883364912 0 0 0
985 1 24.509393614396316 20.00199596357919 23.500090156515423 -1 0 0
18 1 18.940603261818932 1.718401970595688 -0.8334526938634036 0 0 0
902 1 14.449737842156248 6.08282689003018 23.665537330944577 0 0 0
989 1 4.042019543614139 20.69078579538143 23.778948127210093 0 0 0
898 1 10.080953839829721 5.888674387997171 23.54699295470505 0 0 0
937 1 -0.2003460710785834 12.404662040505757 23.669192909006153 0 0 0
994 1 10.149453277774567 22.638350423694256 23.566715755568563 0 0 0
877 1 11.890654654046708 -0.22578629774771927 23.726437414011773 0 0 0
34 1 10.155747539575808 6.113184124906927 -0.7422196230560916 0 0 0
982 1 22.390017000162786 18.510469016629266 23.77624301939086 0 0 0
929 1 16.375666444376538 8.401248559469444 23.76029617476222 0 0 0
41 1 16.572240427818862 3.7297403906771525 -0.8613594788681667 0 0 0
50 1 1.8380876997096731 10.15970276999975 -0.758203240713641 0 0 0
58 1 9.731981230378405 10.078619831280282 -0.847287364227924 0 0 0
62 1 14.518332957841459 9.99353814763232 -0.8429201330154115 0 0 0
122 1 1.5645337013665346 22.45479510273539 -0.8658584321993601 0 0 0
30 1 5.895140108485246 6.227902077612863 -0.8332119266946449 0 0 0
85 1 12.423694669541245 11.7904834007004 -0.862450245569164 0 0 0
868 1 -0.2877278584220022 1.701226025576754 25.699129283178426 0 0 0
872 1 3.8420004297805797 1.7734462370526414 26.087434107340183 0 0 0
871 1 6.03421285096347 -0.14998990335050477 25.645648178774263 0 0 0
870 1 5.669575763202882 1.694581027766375 23.85770050923221 0 0 0
876 1 7.771739278956025 2.086228124972457 25.836520134181296 0 0 0
880 1 12.002126967575569 1.8553919378551154 25.892572561947368 0 0 0
961 1 -0.2061953360130604 16.3534985255123 24.31168910160078 0 0 0
884 1 16.36466014668746 2.0269301797423633 25.734357705347744 0 0 0
930 1 18.19021743070132 10.300058627081848 24.21034177739005 0 0 0
888 1 20.36398112676356 2.0066987742248097 25.89193064138685 0 0 0
910 1 22.2761495785416 5.956045693786936 24.028005117357452 0 0 0
1607 1 22.610271317049243 24.280739937289752 46.141590350712825 0 -1 0
887 1 22.282436850862737 0.022819051365804754 25.666645682276076 0 0 0
891 1 1.6933509236009776 3.799522876780035 26.396176083258446 0 0 0
892 1 -0.24542312312124182 6.173317010129044 26.14581492351748 0 0 0
1726 1 22.932111964324807 21.947808153185186 44.19119765985098 0 0 0
881 1 16.099952042753216 -0.13053710608719388 23.98427329097567 0 0 0
895 1 5.822297479810481 3.8683568340839365 25.975185929988463 0 0 0
896 1 3.588190877732388 5.714105789737481 26.126508964558543 0 0 0
900 1 8.03015585411489 5.804779049929119 25.56713583438196 0 0 0
899 1 10.044963903581468 3.8208190374029165 26.130741449725036 0 0 0
904 1 12.094983530692822 5.852037887739877 25.73943877773458 0 0 0
903 1 14.346551694339341 3.6082312198851065 26.052673621301814 0 0 0
908 1 16.280679006237005 6.002898315974075 25.880549066295284 0 0 0
990 1 6.144182886832189 22.593193623296635 23.934731792109275 0 0 0
890 1 1.6294985523094283 5.962369833360079 23.840194635541778 0 0 0
907 1 18.322140738568983 3.931447957035509 25.662685783238082 0 0 0
912 1 20.043459500136986 5.789215921272809 25.897486182544448 0 0 0
949 1 12.064608447120015 12.338615852332818 23.884505587432788 0 0 0
911 1 22.522147542221695 4.0663941227439855 25.88448738293314 0 0 0
915 1 1.5177464796237854 8.087778920250395 26.202452655260068 0 0 0
874 1 9.947081280751824 1.900188452395113 24.005127664298904 0 0 0
919 1 5.307656212887581 7.779784336827737 25.99297508831226 0 0 0
920 1 3.603525157316546 9.75899429191631 25.766940331855714 0 0 0
954 1 18.582049240658034 13.981032421507 24.02281949149703 0 0 0
923 1 9.99667506395627 8.06461635313937 25.977707273213962 0 0 0
924 1 8.071058242167952 10.040044535866754 25.91097132966482 0 0 0
928 1 12.256934489574869 9.84513145260296 25.902264300017077 0 0 0
918 1 5.9690979898318375 9.98919122620302 24.217844814832496 0 0 0
927 1 14.200228620593748 7.908773403519604 25.874270534563845 0 0 0
932 1 15.904197182627588 10.226384889443754 25.80071599397293 0 0 0
942 1 6.094527995278737 14.27945293762708 23.99236278451313 0 0 0
917 1 3.6961020913999434 7.803155599969438 23.841894097325934 0 0 0
931 1 18.391173067301388 7.781857534888591 25.777431784068337 0 0 0
936 1 20.359611223065436 10.144770235507616 26.075627019017194 0 0 0
914 1 2.0314454338054535 10.314469251890582 23.88310029772516 0 0 0
901 1 12.304376844914028 3.885518029341603 23.85218144088141 0 0 0
962 1 1.9703759687702767 18.33976322960673 23.97302001009464 0 0 0
916 1 -0.1491540623977069 10.473923652333058 25.615191078026292 0 0 0
935 1 22.219218133181485 8.154479682964537 26.03231229186449 0 0 0
889 1 24.552521461178554 4.062749675928884 23.85925258472777 -1 0 0
939 1 2.0678650273849155 12.291062582397595 25.711658315797187 0 0 0
943 1 5.685652732561665 12.265965419320688 25.87882664900104 0 0 0
947 1 10.007345229495794 11.975291664518192 26.144690884738008 0 0 0
922 1 10.247403699301998 10.218515308940667 23.928397264300354 0 0 0
969 1 8.089437668766479 16.34773510769415 24.095945215837922 0 0 0
951 1 13.915487955788684 12.035985907069445 25.832833899114824 0 0 0
993 1 8.342967137589007 20.781404913888068 24.10500773389583 0 0 0
955 1 18.111251567398657 11.995477858956098 26.1150029762341 0 0 0
1708 1 24.324039265216136 22.112075742614316 46.48231016747093 -1 0 0
959 1 22.214636592752896 12.295257687734626 25.864993884741516 0 0 0
1728 1 20.685080220323616 22.157645701900435 46.75520992164681 0 0 0
940 1 24.426032647382392 14.10983336769142 25.748199221287894 -1 0 0
963 1 2.254809398845459 16.221132521890617 25.815684921310925 0 0 0
1675 1 18.466357020634355 11.865743439515617 46.74018996077223 0 0 0
1671 1 14.060019223113361 12.188498290367363 46.55002708040652 0 0 0
1724 1 16.30619814589972 22.53606080321604 46.619439335278216 0 0 0
944 1 4.11412685610378 14.212184105348888 25.557232724519896 0 0 0
967 1 6.176721809480582 16.25794890801241 25.948376287163953 0 0 0
1668 1 7.843790469374495 14.552218075867525 46.3108164880498 0 0 0
948 1 8.058479488192924 14.09140370660968 26.1315850719398 0 0 0
971 1 9.9488804410878 16.573042611949234 26.00868781497939 0 0 0
1691 1 10.496825617360003 16.502144958428204 46.56500843571891 0 0 0
1660 1 24.566341225682635 14.353936865567919 46.20213218038183 -1 0 0
952 1 11.961293695055046 14.134883314558373 25.997227691309973 0 0 0
956 1 16.025802055661163 14.000833160984929 25.9847103990418 0 0 0
975 1 14.069351818881897 16.5368577437524 25.8424607152161 0 0 0
960 1 20.37118147754083 14.239088647122916 26.022914928154833 0 0 0
979 1 18.175187561432907 16.311266332062438 26.103096492742804 0 0 0
1680 1 19.990781060194223 13.907108801890312 46.72777846702326 0 0 0
1664 1 3.8401312531539 14.61010557753053 46.449918357320705 0 0 0
983 1 22.347840175218046 16.292411731942614 26.033011822444024 0 0 0
1676 1 16.28995180258952 14.414375132472216 46.44292304951323 0 0 0
987 1 1.7544212983855165 20.60582205065736 26.17976225085331 0 0 0
968 1 4.048923959270843 18.29787382946632 26.078798849187347 0 0 0
991 1 5.870943607632875 20.382274987826854 25.857898826261433 0 0 0
1687 1 5.299134923152199 16.599548387800027 46.156637987157126 0 0 0
972 1 8.11753642488921 18.52067698207712 26.05906607954411 0 0 0
995 1 10.46106831988647 20.82128181466716 25.830759407319867 0 0 0
976 1 11.875438244763162 18.508240655051267 26.089502380233395 0 0 0
980 1 16.249279746637892 18.477234732251986 26.242678810169313 0 0 0
999 1 13.807699783176995 20.555812153019282 26.026597845432153 0 0 0
1720 1 11.896192422077762 22.599260400615627 46.771889673353485 0 0 0
1711 1 5.828647333587027 20.309976928002534 46.61430553956016 0 0 0
1716 1 7.802619817024663 22.378604481852257 46.47990014833511 0 0 0
984 1 20.57749258223033 18.31221094429946 25.66418295609735 0 0 0
1003 1 18.251623231006946 20.596202314966725 25.80454337369877 0 0 0
964 1 24.530555040889475 18.380036170150618 25.914100199744386 -1 0 0
1007 1 22.656651123562806 20.851117095993047 25.95190888185355 0 0 0
1595 1 9.811963749429298 -0.10849937268221466 46.41281384993546 0 0 0
867 1 1.6143445371987477 0.12812443184595668 26.288106631594808 0 0 0
988 1 -0.27436839408503744 23.13912044499982 25.92017565648476 0 0 0
1672 1 12.508629834223406 14.412610413526622 46.847021880790635 0 0 0
992 1 3.7504162767018476 22.99254588586087 25.915944003865782 0 0 0
875 1 9.784464918366554 -0.23220460367348816 26.34136232702762 0 0 0
996 1 7.924751582277825 22.472860949110213 26.141310607279507 0 0 0
1000 1 12.067293695115358 22.757964570235963 25.670743052129726 0 0 0
1695 1 14.223971533108546 16.424064975629193 46.28592462430423 0 0 0
879 1 14.203816786606431 -0.08855693511704041 26.130698377210134 0 0 0
1004 1 15.801160624621215 22.847593469974917 25.830213280874844 0 0 0
1683 1 1.5339887493365942 16.35475471269227 46.62647521831574 0 0 0
883 1 18.368848076864285 0.16012146341503558 25.623129842111247 0 0 0
1008 1 20.413516323228777 22.735990926251993 25.861956865731415 0 0 0
873 1 8.355457962202 -0.25861868180294384 24.084878735481606 0 0 0
1699 1 18.36842810172619 16.228332057827245 46.38190208670407 0 0 0
1010 1 1.3162171576926185 1.886922532569673 28.24781176705731 0 0 0
1012 1 24.37125156053441 1.6630601402280358 30.11855720667331 -1 0 0
1009 1 24.121995330031112 -0.02654349442441628 27.86466538596369 -1 0 0
1014 1 5.770679004385165 1.9331676670924578 27.889060212065775 0 0 0
1016 1 3.900208589875171 1.6884732806380467 30.00305145876828 0 0 0
1015 1 5.736051900089476 24.360419437012787 29.850744509821293 0 -1 0
1018 1 10.207763374350368 2.1737325980218576 28.203546878779356 0 0 0
1020 1 7.462644063625405 1.7266809073933511 30.059712664058726 0 0 0
1024 1 11.97915394017975 1.6763368886487813 30.186992301222542 0 0 0
1022 1 13.982802134701148 1.7845639917370555 28.074031943800204 0 0 0
1028 1 16.186674317264977 1.758581296536585 29.882580348071464 0 0 0
1026 1 18.156955515554568 1.9448958189679733 28.068496339619834 0 0 0
1032 1 20.160037493035073 1.9459036592109271 30.20630787944148 0 0 0
1027 1 18.019170936183357 24.399791920877917 30.306572778440085 0 -1 0
1029 1 19.835046442071015 -0.1106811477254882 28.03574717723827 0 0 0
1030 1 22.0807384464327 1.6840563150579357 27.8038246489483 0 0 0
1031 1 22.127045159093644 -0.09590772006209228 30.01549635595331 0 0 0
1034 1 1.7200808254066402 5.919106766491173 28.022069896822053 0 0 0
1035 1 1.5853719003723472 3.9169537810591297 29.915822603069362 0 0 0
1036 1 24.087738166686925 6.096459393300392 30.24279325341789 -1 0 0
1033 1 24.32906153157137 4.078438812628991 28.453187496812905 -1 0 0
1037 1 3.542561887266399 4.012551008047135 28.15461639566802 0 0 0
1038 1 5.809696595619733 5.5830412468259425 28.096061779938175 0 0 0
1039 1 5.536220497804143 3.8071866118251982 30.160942978148935 0 0 0
1040 1 3.530331781445605 6.236204664128455 30.273579139573283 0 0 0
1041 1 7.763295649793502 3.958254717153612 28.028806155956723 0 0 0
1042 1 9.563004508616132 5.814616567652362 27.71356153108412 0 0 0
1044 1 8.084009311897026 5.930973060236333 30.101428253949532 0 0 0
1043 1 10.022101371305233 3.854819643061508 30.085672310035903 0 0 0
1045 1 12.063972474121302 3.9034000183812507 27.858525200126135 0 0 0
1048 1 12.193114151366535 5.701499669250538 29.74714695798242 0 0 0
1046 1 14.100455905604143 5.86495164985759 27.632874653398304 0 0 0
1049 1 16.338782658829103 4.040884752494343 28.036479710580196 0 0 0
1047 1 14.181540822112616 3.6863444263932386 29.93662538296276 0 0 0
1052 1 16.023620089013182 5.573527117829978 29.976634608019292 0 0 0
1050 1 18.07503970817429 5.965072536892589 27.91330286665924 0 0 0
1053 1 20.56308789367658 4.138198829915494 27.91985032361314 0 0 0
1051 1 18.11198341600104 3.812930263789589 29.930808334652973 0 0 0
1056 1 20.072750461422963 5.706180658054655 29.945381513587613 0 0 0
1054 1 22.39981200614745 6.142939411481813 27.935728574841757 0 0 0
1055 1 22.15967649291109 3.7890968042627007 30.3960923839903 0 0 0
1058 1 1.6903067204910291 9.995974492469042 27.987273948731705 0 0 0
1059 1 1.3678124314309608 8.006391732857873 30.19200701179389 0 0 0
1057 1 -0.2969466252315902 8.177624614199585 28.080368703847366 0 0 0
1062 1 5.832514250297798 10.02915354536925 27.678555859707405 0 0 0
1061 1 3.685078270270303 8.307462810997075 28.367521843917057 0 0 0
1063 1 5.63598359761761 8.116981996296863 30.443043451202424 0 0 0
1064 1 3.572897342409473 10.238017737856376 30.38513209748718 0 0 0
1065 1 7.676054573485174 7.63100390439152 27.84955649027494 0 0 0
1067 1 10.214439090597 7.87510499197159 29.93399018561431 0 0 0
1066 1 9.675791814171745 9.883096983736932 28.129745886002546 0 0 0
1069 1 12.003208590071662 7.937550612102509 27.568783669159423 0 0 0
1072 1 12.185427705943217 9.731468314025353 30.046000549567914 0 0 0
1071 1 14.260208633229437 7.644512691040802 29.723575876646656 0 0 0
1070 1 13.954826079488512 10.021475478133429 28.20720852767793 0 0 0
1073 1 16.139029074596227 7.654372404672648 28.139190250279743 0 0 0
1076 1 16.226378792875487 9.817847281237327 30.335691136527224 0 0 0
1074 1 18.369232207517022 9.988594477137523 28.14174001007841 0 0 0
1077 1 20.225920922177504 8.143413513893714 28.13357621147481 0 0 0
1075 1 18.1406409408875 7.7652881923583905 30.198887820454964 0 0 0
1060 1 -0.20317712320943238 10.18384246402983 30.153304859198744 0 0 0
1079 1 22.60318871823618 8.195633543844599 29.853888481959036 0 0 0
1078 1 22.53550077220833 10.25732650400389 27.985135877338948 0 0 0
1083 1 1.6934625635655602 12.2715107266215 30.459436480545058 0 0 0
1081 1 -0.24176996657421412 12.204235433916201 27.99121568441064 0 0 0
1085 1 3.871721012240582 12.083078851823924 28.268474735353454 0 0 0
1087 1 5.761277816372398 11.859390466989042 30.31658928474766 0 0 0
1068 1 8.062304016982795 10.102395109108489 30.302798210557796 0 0 0
1089 1 7.9368770015997345 11.951390552820621 28.135614285622143 0 0 0
1091 1 10.019668434855774 11.952518338805081 30.240451536774195 0 0 0
1093 1 11.846768119594273 11.810998061829958 28.21856489405338 0 0 0
1095 1 14.213681049207143 11.854526435816283 30.3249172735663 0 0 0
1097 1 15.843312567727576 11.864112214153737 27.78551080255314 0 0 0
1080 1 20.691109370442685 10.024496320965884 29.915532359961713 0 0 0
1101 1 20.202603657001973 12.060945245246659 27.849265890844592 0 0 0
1099 1 18.338917356416403 12.064790008891947 30.04827606749461 0 0 0
1103 1 22.472567223836975 12.286651493892807 29.68367355750613 0 0 0
1082 1 2.0505484401958314 14.078698432846677 28.192005836526278 0 0 0
1105 1 0.05567896422893792 16.025823539030142 27.6338925339117 0 0 0
1107 1 1.5479119881921373 16.32982891754743 30.2027262467235 0 0 0
1088 1 3.717833410937197 14.12736978629487 30.285593571189764 0 0 0
1086 1 5.929020407035224 13.925490542653549 28.37846843941743 0 0 0
1109 1 3.903136911598204 16.18181769029389 28.32399894449379 0 0 0
1111 1 5.8714202192971205 16.049190290199668 30.095814567217893 0 0 0
1092 1 7.657986751026408 13.99984306415795 30.070777076285086 0 0 0
1090 1 9.804112429627612 13.859474483924659 28.103012226836565 0 0 0
1113 1 7.940639311824016 15.917663625552025 28.167820264379944 0 0 0
1115 1 9.964276099358004 15.87575193714512 30.227573799709994 0 0 0
1117 1 12.137497947706052 16.21854272210834 27.876118934529963 0 0 0
1096 1 11.939239607689874 14.157997884155444 29.970406093537306 0 0 0
1119 1 14.237348881440107 15.760631645754005 30.377028979442287 0 0 0
1094 1 13.876378136783233 14.351404308556933 27.85206456620279 0 0 0
1121 1 15.895756591294724 16.378416364444924 28.26741895479821 0 0 0
1100 1 16.385631157351007 13.732442979195296 30.114092764562034 0 0 0
1098 1 18.163650302342454 14.271896848093597 28.048519589154647 0 0 0
1125 1 20.212773387503468 16.300061739419945 27.97618851721211 0 0 0
1104 1 20.182883939497515 14.099833608327287 29.703322654015846 0 0 0
1123 1 18.093648028664447 16.18275550326301 30.023884452091973 0 0 0
1084 1 24.575505682745728 14.480205295181838 29.814802858285677 -1 0 0
1102 1 22.473386606428065 14.545450515816597 27.809525290389047 0 0 0
1127 1 22.267582088506003 16.24641822827924 29.958676311525036 0 0 0
1106 1 1.961608894669837 18.27677429107178 28.074812832610643 0 0 0
1131 1 1.7282328521860202 20.47274614821999 29.89660198279434 0 0 0
1110 1 6.057443154435441 17.924416890497312 28.207747305910384 0 0 0
1133 1 3.7068671679247114 20.433316436374334 27.87586277890038 0 0 0
1112 1 4.163216084223533 18.278430276678073 30.231268468936957 0 0 0
1135 1 5.858172031475434 20.3319428006551 29.860508393061977 0 0 0
1114 1 9.797578070270584 18.42401858157266 28.120650496813266 0 0 0
1137 1 8.078140600806226 20.36423914459568 27.94935277103108 0 0 0
1116 1 8.15370318246951 18.25512781089843 30.48606825997386 0 0 0
1139 1 10.287552620604036 20.272120330218208 30.11947458357594 0 0 0
1141 1 12.037815153140661 20.472126860504034 28.086869156081676 0 0 0
1120 1 12.491704998926364 18.148426598010694 30.05753340942249 0 0 0
1118 1 14.048254834772802 18.344956521572655 27.73457697395058 0 0 0
1145 1 16.17067993201965 20.41843843897321 28.074895387978867 0 0 0
1124 1 15.816402436499615 18.56935788943943 29.99013913668424 0 0 0
1143 1 13.931849658951363 20.646458359371536 29.890468408612016 0 0 0
1122 1 18.070361790354745 18.164296728661036 28.01188247121741 0 0 0
1149 1 20.40538896726518 20.438954625840935 27.96426763478073 0 0 0
1128 1 20.549845371868177 18.325462059277207 29.947359438106748 0 0 0
1147 1 17.967344214409145 20.74031523665699 29.981930264599235 0 0 0
1129 1 -0.13786397675349565 20.583914424689986 27.958323712665127 0 0 0
1108 1 24.368102426361055 17.630471476275574 29.651837198236375 -1 0 0
1126 1 22.69570384737927 18.982188877804603 27.638549593562033 0 0 0
1151 1 22.562484213363035 20.267032315418703 29.931704666274218 0 0 0
1011 1 1.9317184523117699 0.16870860004268845 30.1871810545107 0 0 0
1130 1 1.879961930623987 22.798450851481718 27.931669780204484 0 0 0
1013 1 3.849103721184485 -0.1220734681455522 27.738251504311215 0 0 0
1134 1 5.685118987720362 22.256600067506092 28.26397234294226 0 0 0
1136 1 3.651920228346763 22.55007226280849 29.884538937749113 0 0 0
1019 1 9.903503505582613 0.0027020459394441754 30.182701379743257 0 0 0
1017 1 7.733381765029792 -0.21781415066144025 27.868074726547828 0 0 0
1138 1 10.146441055671335 22.346875241757935 28.372451235052868 0 0 0
1140 1 7.984234386270135 22.479423103769946 30.049118594963545 0 0 0
1021 1 12.202618748571904 -0.02907134626801894 27.9837504712875 0 0 0
1144 1 12.207320201703377 22.487534208626258 30.58866382138481 0 0 0
1023 1 14.257114404678395 -0.2302362770883641 30.02572389429727 0 0 0
1025 1 16.30109581357518 -0.0952874247395134 27.800573845671 0 0 0
1142 1 14.041084717811303 22.72637090108737 28.007962611586425 0 0 0
1148 1 15.991019975832526 22.59759874687886 30.004863717075303 0 0 0
1146 1 18.022179508894922 22.59969792692602 27.918341027202498 0 0 0
1152 1 21.138045435487975 22.383257632318724 29.789609129904846 0 0 0
1132 1 -0.22165829475192464 22.718693703085115 29.857765396521327 0 0 0
1150 1 22.210116729896036 22.78862601404628 27.56683362132315 0 0 0
1154 1 1.6369527924199112 1.920941657460392 32.06965912869966 0 0 0
1156 1 24.45219461890259 2.0352496893676255 34.0869946218798 -1 0 0
1153 1 24.33355679611209 -0.15835392640390644 32.087824008209274 -1 0 0
1157 1 3.614555544491769 24.319747456386956 32.22875099264116 0 -1 0
1158 1 5.865579613187261 1.557575496507808 32.19684034117978 0 0 0
1159 1 5.685074860835691 -0.22013836987939897 34.20925126801859 0 0 0
1162 1 10.196024295056237 1.9483229394887296 32.26230355716252 0 0 0
1164 1 8.030876590296915 1.6017489087367172 33.883742105122124 0 0 0
1161 1 8.063017764748428 24.457828159247583 32.23984016589295 0 -1 0
1163 1 10.15378454634758 24.481391403597456 34.1172696312793 0 -1 0
1168 1 12.009587767982076 1.920544443523156 34.11828496998749 0 0 0
1166 1 14.212972787528614 1.5143638108168305 31.950251935730066 0 0 0
1172 1 16.064765032690907 1.8322919658334378 34.005057657049214 0 0 0
1170 1 17.78028702803314 1.806401537573778 31.91696464831103 0 0 0
1176 1 20.01949710295832 1.9443503261989754 34.053301434986096 0 0 0
1171 1 18.5025511981157 -0.2085455225731696 33.96506143701621 0 0 0
1174 1 22.159796312049703 1.896634722113609 32.02719830404797 0 0 0
1175 1 22.406107947340764 -0.006165558942847316 34.15805928139653 0 0 0
1178 1 1.635334434526535 6.117054207009732 32.34682474802204 0 0 0
1181 1 3.8730250566051643 3.7888600306111293 32.11480620444011 0 0 0
1182 1 5.8772901169513405 5.51662752810264 32.336631949206414 0 0 0
1184 1 3.8768790071660106 6.144497366640796 34.172266391890126 0 0 0
1185 1 8.215904904028216 3.840238375222798 31.907464547368058 0 0 0
1187 1 9.883205039586338 4.081491087919387 34.19835753127551 0 0 0
1188 1 8.024823216131315 5.871859018897577 34.16641930707717 0 0 0
1186 1 10.001745298197084 5.899553993310537 32.09859137700656 0 0 0
1189 1 11.79150759647985 3.876337343280097 32.37752010896287 0 0 0
1192 1 11.956832807915237 5.894498082981353 34.10722020303024 0 0 0
1191 1 14.014086813770271 3.9092200770603247 34.111978169584326 0 0 0
1190 1 14.381877938867662 5.758271730325662 32.12728048857422 0 0 0
1193 1 16.093465104185857 3.863173009947803 32.19972530496446 0 0 0
1196 1 16.338893201070455 5.960077192173826 34.17266257257734 0 0 0
1194 1 18.51631854282651 5.78582680383879 32.35976055594043 0 0 0
1197 1 20.10521060773869 3.733089739207239 32.14987728507082 0 0 0
1195 1 18.185978936667258 3.9874069203672455 34.25525348397293 0 0 0
1200 1 20.470905320427402 5.710920318440945 34.2082699560999 0 0 0
1177 1 24.446707282736508 4.176606775625221 32.077269582256385 -1 0 0
1180 1 24.448196440479418 5.973608766537812 34.21944883967034 -1 0 0
1198 1 22.361321201933915 5.864697522715239 32.28174392115636 0 0 0
1199 1 22.538758094417407 3.8594295600756787 34.06891434142055 0 0 0
1203 1 1.7718030822521498 8.125335196876565 34.206914237796475 0 0 0
1201 1 24.31444250276898 8.039416958801137 32.016017031508525 -1 0 0
1205 1 3.581793679543147 8.15389271621057 32.251941690616086 0 0 0
1206 1 5.772512957286464 10.19219374824218 32.30355825974633 0 0 0
1207 1 6.117282947084024 7.619612394667795 34.66716579271806 0 0 0
1208 1 3.805444890904285 9.8851294211624 34.30390978441155 0 0 0
1209 1 7.728387324032299 7.7467658161264605 32.136208950588546 0 0 0
1212 1 7.52444117536249 10.055655933784536 34.45573164295319 0 0 0
1210 1 10.242128832405621 9.492281848384787 32.275063672396286 0 0 0
1211 1 9.975714160246559 7.858509668395827 34.19312710087526 0 0 0
1213 1 12.127795254434124 7.815043439258613 32.00460280140773 0 0 0
1216 1 12.104259486867317 9.723655825800067 34.33453768553647 0 0 0
1214 1 14.059716728881765 10.136669101384014 32.13858688862781 0 0 0
1217 1 16.525781073130002 7.701795890108732 32.15361291029831 0 0 0
1215 1 13.910042632150795 7.723887284388702 34.58528732722897 0 0 0
1220 1 16.212521990857425 9.753150176641258 34.25515865000089 0 0 0
1218 1 18.46303231088822 10.059745257709288 31.989665840632817 0 0 0
1221 1 20.52427025514731 7.844282018804819 32.16307435377555 0 0 0
1219 1 18.353602122356136 7.8996757651693414 34.279776401299536 0 0 0
1204 1 24.42419099576651 10.125402458531743 33.99020079006527 -1 0 0
1222 1 22.511763941925356 10.45864409630892 31.79275509218111 0 0 0
1223 1 22.40128748583871 8.288351067701177 34.2443670626479 0 0 0
1202 1 1.4753490469217703 10.196195286909424 32.50556091488299 0 0 0
1227 1 1.4776127023680885 12.227227781550551 34.40479438216792 0 0 0
1229 1 3.4726482430835977 12.300370041939225 32.40694470454381 0 0 0
1231 1 5.503377899602267 12.439307512489439 34.46477323150363 0 0 0
1233 1 8.055236173479026 12.155997151472805 32.25471348780563 0 0 0
1235 1 9.88691620377925 11.785991277693485 34.61247604590136 0 0 0
1236 1 7.957139278563698 14.31865669152673 34.519940468053974 0 0 0
1237 1 11.956885609166003 11.818250413311578 32.42505592106866 0 0 0
1241 1 16.040923238111418 12.000877732796365 32.19176777591498 0 0 0
1239 1 14.077776706664146 11.767479839290207 34.467716762020444 0 0 0
1224 1 20.47233671216562 9.948474579943474 34.05234229031937 0 0 0
1245 1 20.527987459876034 12.323411705237008 31.939254939877337 0 0 0
1243 1 18.388647038171577 12.169922121217255 34.155577806941906 0 0 0
1225 1 24.565105565628684 12.40973665115614 32.05132379643623 -1 0 0
1247 1 22.307589473435637 11.93727255772016 33.95496652525438 0 0 0
1226 1 1.5012134239715156 14.33477015175515 32.24925331467508 0 0 0
1251 1 1.8431735585834823 16.520010690424876 33.882258366792996 0 0 0
1228 1 0.02413062939638877 14.69098626479029 34.50890466070685 0 0 0
1230 1 5.6362560504804655 14.015502962464476 32.145842891381044 0 0 0
1253 1 3.6603515294386493 16.265399707497174 32.3344156592362 0 0 0
1255 1 5.797172831826758 16.18320462418678 33.98620183083347 0 0 0
1232 1 3.436506702264099 13.966990814903152 34.329901311301256 0 0 0
1234 1 10.177956805844559 14.019639269162571 32.27987138382625 0 0 0
1257 1 8.003972270878688 15.881516962042918 32.15261029838507 0 0 0
1259 1 10.26081708940859 15.985228778738199 34.34650611230706 0 0 0
1240 1 12.415719515605876 13.815451948065173 34.51002130939505 0 0 0
1261 1 12.311955602754114 16.101549654583266 32.24959070913145 0 0 0
1238 1 13.591937408455957 13.725848905749142 32.277530042888095 0 0 0
1265 1 16.257957139055375 15.984069013387236 32.2546991325427 0 0 0
1244 1 16.26997213121445 14.048905273215832 34.208864557226036 0 0 0
1263 1 14.245086350020456 15.999947016894454 34.133046716510414 0 0 0
1242 1 18.30341200722401 13.762798809689308 31.90260031697276 0 0 0
1248 1 20.433147102622424 14.245679743734726 33.8569042069828 0 0 0
1269 1 20.28959605045627 15.978285080691249 31.930736389478113 0 0 0
1267 1 18.238817802554514 15.97935139671044 34.09357994413281 0 0 0
1249 1 24.509081049975265 16.10580388550497 32.213833236476354 -1 0 0
1246 1 22.520671037062694 14.296370641168313 31.766709110463594 0 0 0
1271 1 22.30247813791083 16.3400581269766 34.155118118313965 0 0 0
1250 1 1.7871485041929733 18.202367455382387 31.889085656283626 0 0 0
1252 1 24.422545137771433 18.470495841839096 33.99533790414421 -1 0 0
1273 1 24.3585984214373 20.24917334910532 31.612225553727086 -1 0 0
1275 1 1.5859646798353284 20.57430598855312 34.17550805672904 0 0 0
1254 1 5.987843737097145 18.555248833319645 32.13278217673391 0 0 0
1277 1 3.6310356326482536 20.554130641065143 32.2020647515645 0 0 0
1256 1 4.051338486375234 18.42580418336481 34.1243400793856 0 0 0
1279 1 5.7038390990429715 20.553841031104575 34.16448560514617 0 0 0
1281 1 7.617024589216766 20.66522895285511 32.15347762460799 0 0 0
1260 1 7.853894137962598 18.58389444122821 34.27956559845871 0 0 0
1283 1 9.979062305838616 20.06104640813401 33.956887108702546 0 0 0
1258 1 10.260670739364391 17.831405681952738 32.132854648540835 0 0 0
1285 1 11.827297166233148 20.425876676078474 32.205277117868775 0 0 0
1264 1 12.084388832859888 18.02443378114876 34.317667807565094 0 0 0
1262 1 14.237631483311286 18.236229462571693 32.081883778692976 0 0 0
1289 1 16.037580529904417 20.343462045965786 32.109941602131784 0 0 0
1287 1 13.911931237305435 20.359044185475867 34.332031295762555 0 0 0
1268 1 15.894219770866073 18.333877445375954 34.23864160404766 0 0 0
1266 1 17.817234538068977 18.47268506789805 31.626425026807574 0 0 0
1293 1 20.243719561313316 20.815181611263057 31.79246866996663 0 0 0
1291 1 18.1710270551519 20.247640779159987 33.693689017251025 0 0 0
1272 1 20.094667825170575 18.17201037910195 34.34241136709472 0 0 0
1270 1 22.453779058771268 18.40061587168998 32.02091513655987 0 0 0
1295 1 22.166459788668156 20.387906689451214 33.92483251579927 0 0 0
1274 1 1.5124999205215255 22.291311639200075 31.814321172275307 0 0 0
1276 1 -0.23153924078021754 22.191416506908254 33.56053245670135 0 0 0
1278 1 5.664913440320273 22.31303227748861 32.08312806461738 0 0 0
1280 1 3.622447862402256 22.57358264691151 34.1257019028692 0 0 0
1282 1 9.917505517161572 22.227953868718956 32.241979941018045 0 0 0
1284 1 7.775447463458914 22.601967912115455 34.15611603894617 0 0 0
1165 1 11.974190850499477 -0.19544816615972993 32.15011111926975 0 0 0
1167 1 14.048620668921833 -0.24898481386609655 34.30182660411073 0 0 0
1169 1 16.290797175970514 24.37100611972965 32.29127194254871 0 -1 0
1286 1 14.25916810165454 22.703299251892354 32.4917363461362 0 0 0
1292 1 16.0477224930934 22.3413501815078 34.15314752447816 0 0 0
1173 1 20.13808313312026 24.122694343638905 32.02033550616905 0 -1 0
1290 1 18.302150591097988 22.385122200650613 32.30451859817641 0 0 0
1296 1 20.228149625309328 22.34418229824024 34.40155854392642 0 0 0
1294 1 22.417371366669805 22.466330842687277 32.12349157791179 0 0 0
1155 1 1.7480530461875512 24.14970719708799 33.9041418904604 0 -1 0
1298 1 1.5857658341329612 1.8326862192761668 35.77587044535879 0 0 0
1160 1 3.4954140656324433 1.5097745025211793 33.9495530471067 0 0 0
1302 1 5.6891975059840405 1.8429973180898571 36.24395224834012 0 0 0
1306 1 10.147799500007714 1.4686887608845394 36.02894536775663 0 0 0
1310 1 14.129723983506533 1.651383545602228 36.25874988285727 0 0 0
1313 1 16.3023842882254 -0.13670647759171403 36.17863701655799 0 0 0
1314 1 18.312933919170113 2.0802412831583337 36.34195305080687 0 0 0
1318 1 22.301663773900973 1.915030601515857 36.13686849661704 0 0 0
1297 1 24.482333325360127 0.06727755795415585 35.966306122092774 -1 0 0
1179 1 1.961336026238751 3.846337257914768 33.63892242933304 0 0 0
1322 1 1.7836692444634097 6.105443462892466 36.17111329657874 0 0 0
1183 1 5.846105331327329 3.3682891811169395 34.05968382017238 0 0 0
1325 1 3.9861313029612253 3.7840700849758946 35.75782139722461 0 0 0
1326 1 5.921730966102073 5.354559768267658 36.58771090602565 0 0 0
1329 1 7.855108080214817 3.5116214929930205 35.985356196501826 0 0 0
1330 1 9.702757846920862 6.021406221853799 36.14983202454353 0 0 0
1333 1 12.088822030327172 3.73475579573622 36.156365181629624 0 0 0
1334 1 14.066085195877163 5.508163830667031 35.95883457036751 0 0 0
1337 1 16.198350917182786 3.7534189135512 36.35282876433385 0 0 0
1338 1 18.520148094916223 5.896187179597939 36.138894975521076 0 0 0
1341 1 20.562611473284406 3.6735758108582854 36.47900045979128 0 0 0
1321 1 24.48356854288726 3.9184070953079457 36.126834980882926 -1 0 0
1342 1 22.71325304656178 5.909816761662654 36.137066062634084 0 0 0
1346 1 1.4672496125479184 10.053242539257694 36.091346129922044 0 0 0
1349 1 3.6688301227010838 7.958578668099429 36.275659722156476 0 0 0
1350 1 5.906214853255138 10.11338335973476 36.57659755507429 0 0 0
1353 1 7.865677193613907 8.128828898734834 36.41513000696822 0 0 0
1354 1 10.238154629368392 9.63722251244609 36.426233404840666 0 0 0
1357 1 12.07699034462231 7.848436708551505 36.403152969746984 0 0 0
1358 1 14.275829259338051 10.035109993769435 36.53681731344043 0 0 0
1361 1 16.33539263117684 7.895242184882237 36.39836444585931 0 0 0
1362 1 18.55681228515513 9.802281248404942 36.13108034548876 0 0 0
1365 1 20.71673905024262 7.934684526925015 36.497515874999145 0 0 0
1345 1 24.505018769849247 8.174571737684758 36.450111983796006 -1 0 0
1369 1 24.323998428917033 12.021420711149215 36.27363049096189 -1 0 0
1373 1 3.593996349730376 11.820760941940591 36.475033960132954 0 0 0
1374 1 5.767838965719339 14.15195313813044 36.17695976452795 0 0 0
1377 1 8.026054434108358 12.106837646805472 36.27915964962859 0 0 0
1379 1 9.950405519514364 12.17838229705834 38.408809432036826 0 0 0
1381 1 11.936619982174555 12.002423650128577 36.36094804650375 0 0 0
1385 1 16.551671691822733 11.976637450842048 36.5463303030319 0 0 0
1389 1 20.551172472007774 11.840939117233523 36.46123313967057 0 0 0
1366 1 22.52463935612327 10.00517818766422 36.281005010752914 0 0 0
1370 1 1.3707450220842794 13.937758004212458 36.27685896167433 0 0 0
1397 1 3.837888495389893 15.912808630590023 36.051477604446625 0 0 0
1399 1 5.669170228125451 16.063890340732733 38.29694376400485 0 0 0
1378 1 10.421620909027675 13.923252901035339 36.46341962889137 0 0 0
1401 1 7.667086805795047 16.54146831850054 36.06623265685001 0 0 0
1405 1 12.374368331222735 15.981615733676302 36.141688843144735 0 0 0
1382 1 14.376532542180094 14.036446376971892 36.600132014657014 0 0 0
1409 1 16.196919558096702 16.17029757217024 36.29350013207484 0 0 0
1386 1 18.582727719361763 13.961419197590391 35.9645261005077 0 0 0
1413 1 20.31584293102734 16.097292084531098 36.47526892048314 0 0 0
1393 1 -0.30881677772916305 16.65729809451451 36.16268491501012 0 0 0
1390 1 22.529329803403307 13.998950973122652 35.60369544621948 0 0 0
1394 1 1.7333444514095517 18.159327468164705 35.99921939803897 0 0 0
1417 1 23.918834437715876 20.33474341086201 36.193201164160755 -1 0 0
1398 1 5.761702591635688 18.4396269436101 36.08228018284786 0 0 0
1421 1 3.7819181669108968 20.472170447591417 36.18327594945603 0 0 0
1402 1 9.976295148700938 18.19517046622211 36.36553254976343 0 0 0
1425 1 7.610400791023103 20.21941168558738 36.274853661259534 0 0 0
1429 1 11.996547175548676 20.028188442906824 36.32420587297615 0 0 0
1406 1 14.226815070500528 18.51380347627716 36.43232094789363 0 0 0
1433 1 16.183206419205387 20.34872195877314 36.15660313978784 0 0 0
1431 1 14.292551423109927 20.00735445299523 38.49298951949821 0 0 0
1410 1 18.185069772482677 18.111772513447633 36.43368488523287 0 0 0
1437 1 20.280541191655665 20.341629329746688 35.79855143269743 0 0 0
1414 1 22.13452309958226 18.412278963466512 36.36170084101561 0 0 0
1418 1 1.4448406841856587 22.292700139390455 36.25723604217457 0 0 0
1301 1 3.4408269995604996 24.36754055213661 35.994611857946914 0 -1 0
1422 1 5.665314212257669 22.53859970201109 36.22549855365935 0 0 0
1305 1 7.813203216386176 24.448651596350025 36.12749295239583 0 -1 0
1426 1 10.114845202340423 22.364436902467475 35.91857793858246 0 0 0
1288 1 12.046672622831787 22.486543424853473 34.379895604675106 0 0 0
1309 1 12.256555073823776 24.26195962312547 36.32192571938566 0 -1 0
1432 1 12.026312594268118 22.202369260522765 38.51685412793448 0 0 0
1430 1 14.428505681273284 22.41794695684687 36.31367481676448 0 0 0
1317 1 19.95293358206808 -0.165873088849289 36.08875791523761 0 0 0
1434 1 18.312663083649312 22.565015178144264 36.29054322503642 0 0 0
1440 1 20.199897561905875 22.338784321299315 38.04648005586338 0 0 0
1438 1 22.923021990026026 22.70405192967589 35.90025964821876 0 0 0
1319 1 22.470482288587142 24.326015818816636 38.04591245799573 0 -1 0
1442 1 2.0048913169268467 1.5765322896082572 40.360337907722744 0 0 0
1299 1 1.510812530393111 24.322507420169906 38.181710843588604 0 -1 0
1300 1 -0.07989570505054278 1.8565184818749976 38.30715965897872 0 0 0
1304 1 3.6285132996472003 1.2894555652773445 38.00314615658545 0 0 0
1446 1 5.944988398750439 1.5817323402057442 40.32960530900926 0 0 0
1445 1 3.665302351469897 24.426028648096043 40.28729806261042 0 -1 0
1308 1 8.164838063354757 2.029524980319003 38.16137564634564 0 0 0
1450 1 10.016845122433148 1.3198722533311302 40.161762355992146 0 0 0
1312 1 12.287150690406245 1.2401546674395905 38.46956165516071 0 0 0
1453 1 12.23522122975891 24.179720615416286 40.55995490056135 0 -1 0
1454 1 14.580710514932292 1.259678632563378 40.4386311225558 0 0 0
1316 1 16.23007705371359 1.6998144644991102 38.17618038426776 0 0 0
1458 1 18.0095579000245 1.860607857504363 40.376198476250536 0 0 0
1320 1 20.36955075552102 1.6958976033239157 38.2141266479377 0 0 0
1461 1 20.317399426661243 24.5367153554048 40.11507079390334 0 -1 0
1315 1 18.204847565338934 24.42194695406929 38.135409295788726 0 -1 0
1462 1 22.097165090097977 1.8403587701358957 40.257984923378864 0 0 0
1323 1 1.6179151032227652 3.915038731840223 38.54655518922882 0 0 0
1466 1 1.7304844211671804 5.833634547273414 40.77599984021678 0 0 0
1465 1 24.191041053332988 3.529652275960514 40.59969957860095 -1 0 0
1327 1 5.494024669502737 3.5302648700377905 38.412442870959005 0 0 0
1328 1 3.973754924292802 5.855706140140569 38.58195627718384 0 0 0
1469 1 3.8478540572646303 3.5957599935288527 40.25962084289191 0 0 0
1470 1 6.072794549772434 5.637701762254437 40.30378080158142 0 0 0
1332 1 8.042310328383687 5.939551323147082 38.32028862183158 0 0 0
1473 1 8.119048946603485 3.7130869848413925 40.23628704292271 0 0 0
1331 1 9.981106564140692 3.82945762769185 37.74342618944428 0 0 0
1474 1 10.162839354459111 5.679670330035765 40.15505007473665 0 0 0
1336 1 12.110224844596534 5.943852142200541 38.10256428946072 0 0 0
1477 1 12.454641976916353 3.9727536091167712 39.87360700224364 0 0 0
1335 1 14.311851565546043 4.044114835923208 38.170068126312884 0 0 0
1478 1 14.307415436823153 6.166272393550485 40.425821427859546 0 0 0
1340 1 16.317236687512253 5.797536338599199 38.4283344733289 0 0 0
1481 1 16.68676091240878 4.0308368210656464 40.1829391993934 0 0 0
1339 1 18.462503310463028 4.024817642684463 38.40293743466223 0 0 0
1482 1 18.557426395672355 6.143784198802317 40.23664431392531 0 0 0
1344 1 20.50211630928089 6.149937411647628 38.04316929289345 0 0 0
1485 1 20.68249551235323 4.353770794687278 40.37276347929629 0 0 0
1343 1 22.623270662664194 3.7812076715724245 38.22429731175976 0 0 0
1324 1 -0.21862856906288308 5.66821821729824 38.03254081382914 0 0 0
1486 1 22.727471064581867 5.848913988552169 40.121603766579945 0 0 0
1347 1 1.7728881749592582 8.096709485923448 38.63897168602764 0 0 0
1490 1 1.8461770869269487 9.99266527423519 40.50611494857464 0 0 0
1489 1 -0.2645469957927433 7.908960673726632 40.54644455104884 0 0 0
1348 1 0.09496334421847352 10.503169770842373 38.52027489703094 0 0 0
1351 1 5.890929126761724 8.000757006430891 38.330508845161255 0 0 0
1352 1 3.653734551270532 9.723058621835174 38.23873451526091 0 0 0
1493 1 4.033474954665953 7.891355705183402 40.23890746004063 0 0 0
1494 1 6.057661751281903 10.229028422691036 39.96509383245182 0 0 0
1356 1 8.098193784448037 10.144828737535173 38.003432522926005 0 0 0
1497 1 7.984766753506975 7.90456921371813 40.03723573472707 0 0 0
1355 1 10.038631208068635 8.235332906919048 38.64663934471809 0 0 0
1360 1 12.517388517282486 9.889851428119485 38.519423082168345 0 0 0
1498 1 10.445185249135811 10.184313854770952 40.25592098118551 0 0 0
1501 1 12.220227015406598 7.7296607761682665 40.359367870890864 0 0 0
1364 1 16.33553583215912 9.963623960231967 38.24090158941727 0 0 0
1359 1 14.485323551235851 7.710749453602186 38.02664610055966 0 0 0
1502 1 14.336560838074584 10.147311138029693 40.57819701068814 0 0 0
1505 1 16.34663414586549 8.078312415745705 40.38489660404185 0 0 0
1363 1 18.43375559687152 7.937643599055805 38.3077659837216 0 0 0
1368 1 20.564983614267483 9.986795781695513 38.367756287968234 0 0 0
1509 1 20.669147091879562 8.022161703354747 40.91492341794198 0 0 0
1506 1 18.449992500424415 10.167476563649815 40.183438691079175 0 0 0
1367 1 22.781494646641136 7.7984929821763895 38.2943125406723 0 0 0
1510 1 22.639723570213004 9.837482132629436 40.2001931973021 0 0 0
1371 1 1.9254183216827054 12.157148186022782 38.82034748657298 0 0 0
1375 1 5.751197936996397 12.10622321509307 38.310221141410864 0 0 0
1517 1 4.057906866682898 12.038983980846863 40.20734549515051 0 0 0
1521 1 7.9397661510030915 11.987255912265136 40.2300033636902 0 0 0
1525 1 12.328287704466051 12.346520916933999 40.4780210964175 0 0 0
1383 1 14.393701957549265 12.094761926022853 38.60266740522238 0 0 0
1529 1 16.52757234540644 12.017329850646782 40.83375679163196 0 0 0
1387 1 18.581628402683695 12.036335009983476 38.44873802556614 0 0 0
1533 1 20.760580766259444 11.899307051020582 40.471568871595586 0 0 0
1513 1 0.034895196961234165 12.341527686808725 40.67215356619466 0 0 0
1391 1 22.43934632933908 11.87172418487782 38.2688230987793 0 0 0
1372 1 24.39152421805865 13.88478605986539 38.48963687581411 -1 0 0
1514 1 1.978995005377583 14.24405962123295 40.43125066288831 0 0 0
1395 1 1.5192518977402072 15.988790928262423 38.14055282205485 0 0 0
1376 1 3.7486286154944395 14.054531862616228 38.264653616562754 0 0 0
1518 1 5.989996468733437 13.856934330304501 40.227247079925014 0 0 0
1541 1 3.9210185500533967 16.021365740559098 40.358108262907834 0 0 0
1380 1 7.683719117825008 14.259629059236964 38.212515718462235 0 0 0
1522 1 10.143984644587393 14.128277129256047 40.246668587770486 0 0 0
1403 1 9.831238343717708 16.017180345951793 38.19988529439629 0 0 0
1545 1 7.864383966926125 16.168952894847962 40.378114895692114 0 0 0
1384 1 12.232736579312741 14.286271081980882 38.25265293352019 0 0 0
1549 1 12.120607023886189 16.335557667847482 40.38971556686401 0 0 0
1526 1 14.425581642516422 14.10464047617929 40.30922828506003 0 0 0
1388 1 16.61325469035097 13.860418543888361 38.239621216379795 0 0 0
1407 1 14.342798720324065 16.25171747781578 38.769287049479466 0 0 0
1553 1 16.441684160612283 16.16173766674836 40.52339284861356 0 0 0
1392 1 20.487891930683357 13.83787509980452 38.690363656843104 0 0 0
1530 1 18.307176111467975 14.171707678724596 40.75635553351178 0 0 0
1411 1 18.306585711869097 16.04925764986732 38.25140081325304 0 0 0
1557 1 20.061923313932137 15.8677119594384 40.84230251142178 0 0 0
1537 1 24.464312980056643 16.132175722571453 40.230127724101486 -1 0 0
1534 1 22.638896565401062 14.165722428964834 40.47903553226327 0 0 0
1415 1 22.540314189821927 15.679351906583072 38.07464637171694 0 0 0
1538 1 1.6279014501140778 17.99051472803282 39.93994537008482 0 0 0
1419 1 1.85373603937148 20.286454827098204 37.8270361934823 0 0 0
1396 1 24.349829450886254 18.206780008889787 38.02263821760933 -1 0 0
1561 1 24.496936241227058 20.39439545541432 39.98762669536333 -1 0 0
1400 1 3.9526289817067966 17.90851652219581 37.79084021700162 0 0 0
1542 1 5.5822492753941635 18.28112410765823 40.254349508666515 0 0 0
1423 1 5.800266943633533 20.267137924415763 38.44006240678035 0 0 0
1565 1 3.616397825922055 20.196560917264485 39.91211483802919 0 0 0
1404 1 7.899761643665576 18.273696445407474 38.053201956330454 0 0 0
1546 1 9.724298094738357 18.11417095697302 40.30118209042193 0 0 0
1427 1 9.75820499281491 20.42163540453464 37.948387394336606 0 0 0
1569 1 7.5373912842010276 20.116978050369703 40.30099460611968 0 0 0
1408 1 12.134217160883278 18.45710970416677 38.636849412403905 0 0 0
1573 1 11.991426228334909 20.305842773181 40.62236462578581 0 0 0
1550 1 13.928658240445301 18.35229802417154 40.66689580301394 0 0 0
1412 1 16.33022908786071 18.162571904758067 38.46768179052954 0 0 0
1577 1 16.470645828680677 20.215702706120055 40.45059170896712 0 0 0
1554 1 18.278674743573337 18.036216192097505 40.42813886389467 0 0 0
1416 1 20.21726713033194 18.425589020835503 38.61216611238921 0 0 0
1435 1 17.989152471239976 20.43974490980846 38.17466760493763 0 0 0
1581 1 20.328048604471665 20.307992899986964 40.48978721265177 0 0 0
1439 1 22.457919730770964 20.205532480667834 38.50324430205664 0 0 0
1558 1 22.40591175830643 17.824296509175504 40.32132116732235 0 0 0
1562 1 1.6264423736089397 22.51227110495728 40.1974590497231 0 0 0
1303 1 6.062828068779814 24.50019409185493 38.391001677763015 0 -1 0
1424 1 3.7184723169313196 22.56592755038941 38.2538550854446 0 0 0
1566 1 5.5978451767899005 22.245056302853015 40.02173891375794 0 0 0
1307 1 9.705936416672609 24.297813742409176 38.02269118611695 0 -1 0
1449 1 7.666686433018317 24.274122809427837 40.44218064314925 0 -1 0
1428 1 7.949058163250308 22.13848945984524 38.33458987583579 0 0 0
1570 1 9.683282749453474 22.180523283832926 40.39459669833741 0 0 0
1311 1 14.23540274563669 24.315815657850116 38.32598961200916 0 -1 0
1457 1 16.433704825889773 24.24957946364659 40.443824810159796 0 -1 0
1574 1 14.147992018064393 22.100602807110384 40.41379517173508 0 0 0
1436 1 16.156752333658734 22.417232773547333 38.38427784893301 0 0 0
1578 1 18.333393711259948 22.329584955740202 40.27143324238382 0 0 0
1441 1 24.369582511479887 24.54159578943717 39.92477567442257 -1 -1 0
1420 1 24.356054776573362 22.048782303101902 38.23877192050649 -1 0 0
1582 1 21.930450720935323 22.540581898021784 40.073705780949155 0 0 0
1585 1 24.290072238832938 24.25655442016835 44.11641160372133 -1 -1 0
1586 1 2.037406453554704 1.4358576847872675 44.340837714753775 0 0 0
1444 1 24.53323344677925 1.583067891578452 42.268611989190845 -1 0 0
1443 1 1.750949599139671 24.193082655010528 42.28076778636191 0 -1 0
1448 1 3.873148810309014 1.3491583108601735 42.151639387823124 0 0 0
1590 1 6.220535430826349 1.4837307960191912 44.86182229771529 0 0 0
1447 1 5.7164803959950365 24.08552951791946 42.25564879208845 0 -1 0
1452 1 7.848400756834563 1.580815861232208 41.94162354324785 0 0 0
1594 1 9.705171599947382 1.7522373782651472 43.87453725225906 0 0 0
1456 1 12.287215488937846 1.912970567991274 42.37891215378753 0 0 0
1597 1 12.111805054276148 24.283716372873037 44.4032069736449 0 -1 0
1455 1 14.266399099719289 24.22093841005752 42.55994006793508 0 -1 0
1598 1 14.053520974170041 1.5534707400810865 44.240398448366506 0 0 0
1460 1 16.26668250662964 2.0371319236813195 42.643364375959905 0 0 0
1601 1 16.21359845499518 -0.2535194721575969 44.214856242476536 0 0 0
1602 1 18.198703143254942 1.300947373417567 44.36635744634023 0 0 0
1464 1 20.19253619210344 1.8140060193714946 42.13628849125516 0 0 0
1606 1 22.493240644458798 1.4816816668115356 44.19966566402848 0 0 0
1467 1 1.7287451424579343 3.3918495626269065 42.3055327122143 0 0 0
1610 1 1.5100153828202707 5.571127183357951 44.33877749466107 0 0 0
1471 1 6.079554077992461 3.8673196788259245 42.22561541534578 0 0 0
1472 1 4.191067946804784 5.54245896587939 42.503045304412424 0 0 0
1613 1 3.9386003839474117 3.6088813195970704 44.1679813159736 0 0 0
1614 1 6.22825860179286 5.881915908324313 44.31865479271976 0 0 0
1475 1 10.185736968724047 3.736077198899168 42.21541094686559 0 0 0
1476 1 8.25966429214785 5.8058650402430345 42.299118078870194 0 0 0
1617 1 8.245962829990304 3.90529614369835 44.4881459167812 0 0 0
1618 1 10.486478686818582 5.961213745509208 44.30903082927902 0 0 0
1480 1 11.992890299545152 5.888303061965521 42.082541208476 0 0 0
1621 1 11.910137051727883 3.6091467346428607 44.343440422196075 0 0 0
1479 1 14.296763590606735 4.058235064635426 42.380116843722895 0 0 0
1622 1 14.231284587393334 6.150985841582027 44.32348003836047 0 0 0
1484 1 16.014090679034556 6.382263019454472 42.33465189097534 0 0 0
1625 1 16.19291607462104 3.6936716031502295 44.64231047518987 0 0 0
1483 1 18.45599698267227 4.1894751595493895 42.322679740559664 0 0 0
1626 1 17.889829687932945 5.818801931135149 44.57309356751084 0 0 0
1488 1 20.170998182750346 6.037248453397396 42.66727047197564 0 0 0
1629 1 20.363648771978074 3.5153388826877325 44.21269269629899 0 0 0
1468 1 24.563731154054377 5.63468033287613 42.3415353999613 -1 0 0
1609 1 24.29652787964194 3.5591029519322808 44.29608411695642 -1 0 0
1487 1 22.296658446325488 3.7874051492696346 42.473361307212635 0 0 0
1630 1 22.334542649209904 5.812286040492607 44.51489702304347 0 0 0
1491 1 1.8723403292922698 7.9013274594880745 42.690730336526656 0 0 0
1634 1 1.9639725222176465 10.035038467300186 44.40507739430186 0 0 0
1495 1 6.093472806369351 7.970673763169707 42.548777029560355 0 0 0
1496 1 4.048771103958767 9.72457690378078 42.216171171081875 0 0 0
1637 1 4.033708499336159 7.822174283289733 44.25583171403052 0 0 0
1638 1 6.154228863611843 9.991870197089266 44.46927903371819 0 0 0
1500 1 8.516290528770783 10.204367589618345 42.06543558493408 0 0 0
1641 1 8.227816849731285 7.766600534369623 44.3433615415137 0 0 0
1642 1 9.855363811323048 10.122615950900304 44.63318943440849 0 0 0
1499 1 10.28976594041062 8.335163915945133 42.56477144140328 0 0 0
1645 1 11.9801960420014 7.999348900108968 44.45208443780676 0 0 0
1504 1 12.177735370814984 10.194922118000816 42.49191926203491 0 0 0
1503 1 13.954527458869821 8.202357807771826 42.23817001460174 0 0 0
1649 1 16.057808215338657 8.009842115935855 44.535962292359415 0 0 0
1646 1 14.214815566433495 10.262973908034375 44.47526701649934 0 0 0
1508 1 16.06060476668134 10.110400293859875 42.72766623891811 0 0 0
1507 1 18.11415316482025 8.19823924386124 42.286480408692164 0 0 0
1650 1 18.23604713112588 9.887190377244169 44.76082351055834 0 0 0
1653 1 20.521928798906995 8.148012318867458 44.59647405820696 0 0 0
1492 1 24.56257154033679 10.0586401834584 42.46999776998549 -1 0 0
1633 1 -0.2948390466221831 7.772185200579708 44.45679190162552 0 0 0
1511 1 22.62662296599633 7.871239335293106 42.53156354675106 0 0 0
1654 1 22.91682954133537 10.05258262880126 44.424383581633194 0 0 0
1515 1 2.1039117876413567 12.192379911097225 42.413812775942056 0 0 0
1519 1 5.854074833371025 11.800671371740323 42.09357786943958 0 0 0
1661 1 3.9105356341957886 12.04978118784713 44.383003288055704 0 0 0
1523 1 10.390449339369196 12.372357373014042 42.32344664616471 0 0 0
1665 1 8.134122432186585 12.601340083726233 44.752082537868844 0 0 0
1524 1 8.258515151616402 14.115045550504988 42.54873289025545 0 0 0
1669 1 12.104767682261246 12.241695862598547 44.65817146131088 0 0 0
1527 1 14.059477908950049 12.057314435025317 42.6530634203081 0 0 0
1673 1 16.463460978843873 12.030744701700787 44.77428710169977 0 0 0
1512 1 20.58118841892749 10.084364542256399 42.82383970230584 0 0 0
1531 1 18.469647320608665 11.979262876428432 42.65916727493038 0 0 0
1677 1 20.579056048677145 11.54753476025263 44.52075384657512 0 0 0
1535 1 22.665483243917265 12.164388854321542 42.42078968296966 0 0 0
1657 1 -0.11113526407604188 12.231660542254211 44.54248533194068 0 0 0
1658 1 2.0624531859530992 14.268287918023272 44.0840438447727 0 0 0
1539 1 1.7277299298495281 16.072159089700428 42.0430612763685 0 0 0
1681 1 24.328103472648152 16.347258678983472 44.543265966883034 -1 0 0
1516 1 24.501694984648967 14.264342572676389 42.67787429232459 -1 0 0
1520 1 4.144770942462697 13.98296271464669 42.34135512525967 0 0 0
1662 1 5.689658323832479 14.233630614176652 44.263553677933764 0 0 0
1543 1 5.959286483077088 16.05471485653932 42.135299661525444 0 0 0
1685 1 3.6697858420707807 16.46179127536162 44.33738902056657 0 0 0
1666 1 10.201595276698393 14.485316330543087 44.85090967984193 0 0 0
1547 1 10.246920280388409 16.00197260927584 42.81054380801428 0 0 0
1689 1 8.324238126204017 16.167953174956494 44.40325029770128 0 0 0
1528 1 12.30438726860409 14.31545902015401 42.384742449407234 0 0 0
1693 1 12.30019093181924 16.103819993008095 44.71137346986792 0 0 0
1551 1 14.084018508685608 16.012730695069436 42.41262640210052 0 0 0
1670 1 14.10693919260705 14.247936788773869 44.567730153771215 0 0 0
1532 1 16.130054775298387 14.154613183279329 42.61093079930198 0 0 0
1697 1 16.05578417064768 16.333896148125348 44.2436809788706 0 0 0
1674 1 18.600940171139847 13.779169672315986 44.45160706460808 0 0 0
1536 1 20.513369610068672 13.794053422994388 42.30315763310224 0 0 0
1555 1 18.271109541386842 16.116798165368024 42.90304751299824 0 0 0
1701 1 20.36929394134851 15.660632591988154 44.59065568824233 0 0 0
1678 1 22.250011061212216 13.650597975448154 44.70174486033156 0 0 0
1559 1 22.382706010512475 15.930290133629091 42.61523345292076 0 0 0
1682 1 1.7446113136877117 18.306280414931642 44.20932259807109 0 0 0
1563 1 1.5919797441252705 20.294269115416682 42.1389988873463 0 0 0
1544 1 3.350493955779986 18.04745897395116 42.0583061179008 0 0 0
1686 1 5.554867638549629 18.485407149243265 44.017123064836206 0 0 0
1567 1 5.772670025327353 20.245413817520912 42.13040034274159 0 0 0
1709 1 3.481915877013729 20.28591708851824 44.24966808922023 0 0 0
1548 1 7.643541864384822 18.148288729939196 42.31118384737879 0 0 0
1690 1 9.895542450581862 18.633213275448888 44.567073926664875 0 0 0
1713 1 7.965747505382048 20.460148535472662 44.45382221563217 0 0 0
1571 1 9.638820145910978 20.40357553088007 42.26987434564102 0 0 0
1552 1 12.096627111943864 18.36006456012631 42.864925669257005 0 0 0
1717 1 11.89657161508197 20.603494502936314 44.49911376088006 0 0 0
1694 1 14.300571068436506 18.30885927328609 44.59652631946965 0 0 0
1575 1 14.227179130452576 20.25653893320476 42.50608721538641 0 0 0
1556 1 16.023928475458206 18.473484423058018 42.324545489594946 0 0 0
1721 1 16.312848115356232 20.313988238103803 44.40807673983472 0 0 0
1698 1 18.01429930672682 18.52688370333952 44.26202835256643 0 0 0
1560 1 20.455818236144946 18.205258083432156 42.19113693386014 0 0 0
1579 1 18.376715589287663 20.679342631085113 42.45190429474017 0 0 0
1725 1 20.534460984845317 20.410085427985393 44.042931791984195 0 0 0
1540 1 -0.15163763036681224 18.14220999454035 42.02776808106911 0 0 0
1705 1 24.4251146401858 19.790653330450027 44.3181798035637 -1 0 0
1702 1 22.036644650473658 18.007902359945582 44.27242035225983 0 0 0
1583 1 22.61767922049519 20.459100585753568 42.08186928641825 0 0 0
1706 1 1.369485752551047 22.13214451527179 44.081714840710085 0 0 0
1589 1 4.1649843600990595 24.35371595751306 44.460974626742164 0 -1 0
1568 1 3.789692374997588 22.137961641661676 42.513780846436276 0 0 0
1710 1 5.607322880494143 21.96982681258104 44.7770244384565 0 0 0
1451 1 9.788265692950002 24.540450102287558 42.08590037651 0 -1 0
1593 1 7.489229945611421 24.35485787966538 44.20275177672819 0 -1 0
1572 1 7.449378396610003 22.40302986549377 42.47011760565115 0 0 0
1714 1 9.843458838709706 22.515067320407418 44.043643468811965 0 0 0
1576 1 12.05400061591461 22.3895102148365 42.278408689878106 0 0 0
1718 1 14.041086704365217 22.249087434590493 44.636398265651074 0 0 0
1580 1 16.100095898889148 22.364780929068786 42.40162749132592 0 0 0
1605 1 20.835483154775897 24.134406175563377 44.10275631427592 0 -1 0
1459 1 18.43752046130442 24.145657901918995 42.374928525753205 0 -1 0
1722 1 18.530704060609164 22.551647825867143 44.64774234144806 0 0 0
1584 1 20.43573537871178 22.463472964504334 42.06305671557828 0 0 0
1463 1 22.72310097339944 -0.20081574477426756 41.77852730646976 0 0 0
1564 1 24.282906284877924 22.47882152663705 41.84310361113498 -1 0 0
1688 1 3.672182479905003 18.36200507133355 46.455974100873156 0 0 0
1592 1 3.9139825652434324 1.7050547307630144 46.28706862126092 0 0 0
1704 1 20.264358466070057 18.255655301964218 46.41552607111596 0 0 0
1596 1 7.918164623326156 2.0585993300215617 46.81564266797556 0 0 0
1723 1 17.971818004589448 20.45476799681542 46.69398796490666 0 0 0
1600 1 11.804353122796996 1.7392611781536291 46.68683623473421 0 0 0
1599 1 14.201851192021556 -0.2478028483349534 46.569932743075434 0 0 0
1604 1 16.08807768547622 1.5276275140769244 46.43771764302696 0 0 0
1712 1 3.425181212953096 22.205891829447367 46.65857261037425 0 0 0
1603 1 18.447039271277166 24.330684037867385 46.629290717896886 0 -1 0
1608 1 20.332127663594008 1.5849312545597998 46.12881942610185 0 0 0
1588 1 -0.13998780038928615 1.6133597709771288 46.17218546642399 0 0 0
1611 1 1.993835437554977 3.2652797930201145 46.30404898235597 0 0 0
1700 1 16.222479700104245 18.15474086255923 46.61343999311246 0 0 0
1616 1 3.814832160950311 5.516393661001905 46.246537047151925 0 0 0
1615 1 5.924770780377105 3.8806849359300184 46.1837906656527 0 0 0
1620 1 7.888187149087004 5.7087753041103415 46.631585782203366 0 0 0
1619 1 10.326946762526582 3.8691414477417814 46.64560130033234 0 0 0
1624 1 12.375933319288475 5.710748689313165 46.39107396945718 0 0 0
1623 1 14.055850992561966 3.5412608398031336 46.81070751377147 0 0 0
1628 1 16.68777425067929 5.6992173022141035 46.922576692345665 0 0 0
1632 1 20.434073669603556 5.7390086782810865 46.59031145273075 0 0 0
1627 1 18.44457369189177 3.583538448810966 46.30513018438061 0 0 0
946 1 9.97003660808245 14.439652132411924 23.927467028619645 0 0 0
1719 1 14.077883633627136 20.640533844551143 46.57758214267425 0 0 0
1612 1 24.555429398044087 5.804195781352582 46.22204014818608 -1 0 0
1631 1 22.637341316093558 3.7479082602072094 46.242412477001594 0 0 0
1679 1 22.550305804527316 11.794915869588557 46.530927456406964 0 0 0
1684 1 24.347751166148473 17.982799351759112 46.70951485230937 -1 0 0
1635 1 1.8165680509458562 7.832917842758068 46.76864178194065 0 0 0
1591 1 5.697547658412675 24.09982023306187 46.808393983086155 0 -1 0
1639 1 5.956036101831511 7.905129304371563 46.02617106338266 0 0 0
1640 1 3.871584727261011 9.652842726444158 46.41115527273926 0 0 0
1696 1 12.1395321871459 18.602952496819505 46.30498739072248 0 0 0
1644 1 7.796738465340756 10.171537834943646 46.390143363431456 0 0 0
1643 1 10.103138971156044 7.801858030957714 46.70104156059734 0 0 0
1648 1 12.095997947083132 9.942964073610113 46.42507002807013 0 0 0
1587 1 1.8971792496697764 24.206135155649555 46.211522821722454 0 -1 0
1647 1 14.256388763361482 8.15254480361881 46.35198103124179 0 0 0
1652 1 16.156120342351223 10.098580893930519 46.6218851551866 0 0 0
1703 1 22.001625896395403 15.887200848133075 46.707262045044395 0 0 0
1656 1 20.579782826740377 9.992388884961494 46.87569229073118 0 0 0
1651 1 18.542317239615347 7.564053490634853 46.41943848203868 0 0 0
1707 1 1.4797401606242218 20.51101165797686 46.02014487514884 0 0 0
1636 1 -0.0904829576985774 9.720551124091998 46.28893372181821 0 0 0
1655 1 22.425212950247765 8.059071653332374 46.31856238382093 0 0 0
1715 1 9.856293142223493 20.638514306869112 46.35240560405636 0 0 0
1727 1 22.320383079964607 20.07773781090792 46.26665313675166 0 0 0
1659 1 1.8972541378814105 11.862764273916568 46.370944148593935 0 0 0
1663 1 6.026604758621419 12.324029772235301 46.348243602977 0 0 0
1692 1 7.647796592169062 18.395348106849426 46.172604311266255 0 0 0
1667 1 10.014803634982266 12.127487123160092 46.52713032111321 0 0 0
966 1 6.167400105608097 18.59389847676139 24.030704702387197 0 0 0
1002 1 18.374668059938656 22.785838966518092 23.97125624494027 0 0 0
913 1 24.570346306249014 8.165643615078247 23.90198272801942 -1 0 0
957 1 20.441911676184517 12.105935535061928 23.938323203162785 0 0 0
973 1 12.204177423776784 16.477310965779445 23.959920205944563 0 0 0
978 1 18.330764259775176 18.50666031896033 23.86261222341965 0 0 0
1005 1 20.4676054846669 20.526074981351165 23.961311500082157 0 0 0
1729 1 24.53136018899377 24.260368708645842 48.298953274572426 -1 -1 0
1745 1 15.994575119179675 -0.22905323336228117 48.44210829874921 0 0 0
1001 1 16.052063071827607 20.218863719643366 24.114026438330974 0 0 0
974 1 14.497447892634272 18.311182367355443 23.890079127091102 0 0 0
894 1 6.15170100996723 5.850828635101708 23.897941855535432 0 0 0
950 1 14.480642975902313 14.458706532464262 23.905877766229878 0 0 0
1774 1 22.57052295312657 5.580072103625247 48.19801353862234 0 0 0
886 1 22.525804953252983 2.1354706821095477 23.87925353722078 0 0 0
866 1 1.755584806856342 2.1401384249918354 24.108681785070697 0 0 0
1750 1 22.546002994082897 1.2960993293715457 48.15329960403259 0 0 0
953 1 16.32039934436436 12.213073081609473 23.902672228634305 0 0 0
1758 1 5.823807376892917 6.151648987807335 48.42207753007696 0 0 0
970 1 10.238350152691977 18.548557927452528 23.96340148443917 0 0 0
1834 1 9.728270698752517 18.45986540400566 48.205206284145895 0 0 0
1730 1 1.820162279539455 1.2238673157598863 48.31247240096601 0 0 0
1849 1 24.478433842176553 20.254771515668907 48.48103228238891 -1 0 0
1773 1 20.42475279743985 3.4926914344966127 48.16312615459553 0 0 0
925 1 12.162926555883423 8.142653054143597 23.90850480456992 0 0 0
1805 1 3.7231130409114668 12.053241770059739 48.440007291284445 0 0 0
1746 1 18.177386545021104 1.944108066086414 48.32689573861993 0 0 0
958 1 22.70310322817528 14.380838344420173 23.91246214278065 0 0 0
1762 1 10.294062907694071 5.819485755012382 48.49849399770684 0 0 0
1817 1 16.288367076665033 12.132284696821328 48.52682067553722 0 0 0
1830 1 5.774911693029946 18.24363361519154 48.35183156038895 0 0 0
1782 1 5.912401367902908 9.956295225062991 48.03536414280845 0 0 0
1802 1 1.8717075684079894 14.259453879440816 48.43703770993415 0 0 0
1790 1 14.121248328976185 10.017269282694825 48.531530745021534 0 0 0
1862 1 13.898764093321867 22.573574521366403 48.49859285729284 0 0 0
893 1 3.8490319998908316 4.072286058322737 23.92566527858773 0 0 0
1809 1 7.859801158855197 11.965855803294403 48.41184556068837 0 0 0
1749 1 20.337725939214806 -0.18029360370480904 48.09672738714748 0 0 0
1822 1 22.57047298692923 13.880674209864491 48.53119853330356 0 0 0
1798 1 22.868880314258778 9.940946000381535 48.49651872598362 0 0 0
1838 1 13.903890667505339 18.093057000893495 48.511139472563606 0 0 0
1858 1 9.707335839941079 22.704576390402764 48.46560114516948 0 0 0
1766 1 14.578401242573038 5.795005800686572 48.33872577073252 0 0 0
1785 1 8.287147248541862 7.979524447487137 48.43213403663168 0 0 0
1757 1 3.8007876912136096 3.6845357576362776 48.3553601095349 0 0 0
1734 1 5.989811830720639 1.3710201177435866 48.448927222329516 0 0 0
1789 1 12.211040527770104 7.9231638846159775 48.09234041580702 0 0 0
1813 1 12.021100118317246 12.178986785175587 48.28294753298644 0 0 0
1793 1 16.089598930606805 7.92880427573361 48.51270913770664 0 0 0
1846 1 22.362539050923203 18.288568907996456 48.51771783407025 0 0 0
1781 1 3.945595969606397 7.657890054545481 48.51459969216084 0 0 0
1814 1 14.564604778197834 14.438935842235153 48.50209564268357 0 0 0
869 1 3.744514120856924 -0.23020839489636316 23.88885219491672 0 0 0
986 1 1.7025424507248865 22.448989553098713 23.876785780273096 0 0 0
977 1 16.498368698320803 16.184809426841426 23.96732092680911 0 0 0
997 1 12.239686416085856 20.54505515577945 23.871591220438166 0 0 0
933 1 20.332905364684333 8.738985140608367 23.88100598330648 0 0 0
1732 1 24.452397072376026 1.369476188746943 50.63140151391038 -1 0 0
1736 1 3.8148458798233458 1.782819888021737 50.15939990131646 0 0 0
1735 1 5.770400938607171 -0.02363204398300295 50.93520182470722 0 0 0
1740 1 7.668796047747598 1.9154738500942212 50.80790158652285 0 0 0
1744 1 11.940961738861283 1.9379884698173635 51.123522593294055 0 0 0
1748 1 16.338721463290938 1.3002624530845448 50.77736117842803 0 0 0
1743 1 13.964899509882878 -0.13615660060220763 50.84854936777105 0 0 0
1752 1 20.378862585722295 1.7273276705913423 50.36161627974378 0 0 0
1869 1 20.559356177639437 20.2636306579615 48.58117784615871 0 0 0
2592 1 20.16290957404405 22.49557265865168 71.27142824446642 0 0 0
1751 1 22.396895891977366 24.461334771645205 50.51938778501345 0 -1 0
1842 1 18.362787467175103 18.125682499013713 48.63506288582015 0 0 0
1755 1 1.6652344550784501 3.4283692325628503 50.39000146990156 0 0 0
1756 1 24.282047723514342 5.420698421550639 50.41938481785069 -1 0 0
1759 1 5.676712505417858 3.7664992003290667 50.69123022437044 0 0 0
1760 1 3.689638631987253 5.737764910619743 50.092505470639765 0 0 0
1818 1 18.285370549217582 14.093774282482507 48.96707298555252 0 0 0
1826 1 1.9032191726355858 18.22585506842961 48.95055472192619 0 0 0
2588 1 16.43346221897876 22.763369876363527 70.84579999668867 0 0 0
1763 1 10.01206522502238 3.851335202257391 50.797139491850935 0 0 0
1764 1 8.29594411234945 5.986730546384956 50.5556162307452 0 0 0
2584 1 11.819678788086621 22.71099262816803 71.29858734353115 0 0 0
1768 1 12.055906975297885 6.107265896508817 50.600303584171655 0 0 0
2463 1 13.872141611983462 -0.2698266820608737 71.27298497832476 0 0 0
1767 1 13.934814823269207 3.8626066057950537 50.63116802770137 0 0 0
1772 1 16.378977062982347 6.043397924065098 50.594273509258365 0 0 0
2580 1 7.856863908867144 22.529336998273948 71.2271132593697 0 0 0
1810 1 9.907913920745067 14.38203124138711 48.764382046219325 0 0 0
1771 1 18.14339945633387 3.6380814142254216 50.63186745041568 0 0 0
1776 1 20.551262203899274 5.717654544336462 50.46036107165648 0 0 0
1775 1 22.413802640959027 3.4813622079136737 50.38688393199336 0 0 0
1779 1 1.9135509910458386 7.71498131726768 50.423643957134914 0 0 0
1780 1 -0.09805937147817675 9.611005759576388 50.39781749040153 0 0 0
1806 1 6.164796511479868 13.854990918705791 48.81688643650098 0 0 0
1783 1 6.378217406130167 8.175512959229293 50.32583701152386 0 0 0
1784 1 3.78519923744675 9.70483306821092 50.485651094943016 0 0 0
1787 1 10.261483459858498 7.904731058395461 50.552561280011304 0 0 0
1788 1 8.000103553590654 9.995884032939115 50.60970451969252 0 0 0
1845 1 20.423057993027165 16.039846269796243 48.72033302459597 0 0 0
1761 1 7.951444867213857 4.12517507789441 48.77305727366585 0 0 0
1792 1 12.178807255352691 9.878869161616954 50.15477976804639 0 0 0
1791 1 14.199960241600715 7.932371243336647 50.53902946565355 0 0 0
1797 1 20.526536982566636 7.9781393411 48.706789353750985 0 0 0
1796 1 15.978937310187 10.106731629197288 50.59914620933938 0 0 0
1795 1 18.312039119692706 7.857528339162755 50.79245959714419 0 0 0
1800 1 20.897752101386317 9.901663741830923 50.60308406944053 0 0 0
2576 1 3.779087459585077 22.564279048908638 71.26760838766907 0 0 0
1799 1 22.810370897732575 7.733017223022637 50.30839973851472 0 0 0
1803 1 2.105101796785471 11.670790875113713 51.0278495546187 0 0 0
1807 1 5.909232953340482 11.612279615713067 50.65737014359892 0 0 0
1778 1 2.021409957088092 9.874553633554944 48.59158629184061 0 0 0
1811 1 9.961628793093668 12.279205614136638 50.607330796552425 0 0 0
1866 1 18.155158558752348 22.236915767908684 48.65486772105137 0 0 0
1854 1 5.812583888797506 22.503347949564514 48.70498993762769 0 0 0
1815 1 13.591701388860951 12.520949952194151 50.411813509469845 0 0 0
1819 1 18.471720802125706 12.170101558472318 50.66062275427862 0 0 0
1823 1 22.70432692901954 11.758648462035342 50.529679693063 0 0 0
1827 1 1.794592114362251 16.124734665879785 50.52706025195963 0 0 0
1808 1 3.782064971611753 13.696961382013907 50.401794494309414 0 0 0
1831 1 5.858334880011473 16.407493846986625 50.476359393224676 0 0 0
2572 1 24.483184308000727 22.71226273694991 71.27745640681542 -1 0 0
1812 1 8.170932697975953 14.671865423445047 50.746612445162306 0 0 0
1835 1 9.864029251390907 16.54726333634089 50.58177465514563 0 0 0
1816 1 11.544010770426379 14.61421681153104 50.96643277180205 0 0 0
1765 1 12.133028313590874 4.031286344397818 48.74664987310584 0 0 0
2591 1 22.470332826743014 20.414663063479637 71.11815404911891 0 0 0
1839 1 14.104306921252233 16.032214550386726 50.43950266713575 0 0 0
1820 1 16.275438297739694 13.848274435159531 50.68574179775706 0 0 0
1861 1 12.112539378610059 20.358622860885504 48.74684405155017 0 0 0
2587 1 18.246313502044625 20.14332715637903 70.88682285001198 0 0 0
1824 1 20.66179487930201 13.685757517782935 50.59460503775983 0 0 0
1843 1 18.46939871874333 16.077710870163138 50.92553280846739 0 0 0
1786 1 9.930655432614058 10.158830116167962 48.581438133712005 0 0 0
2568 1 19.91290985880581 18.2869845159775 71.30553724660825 0 0 0
1804 1 0.2545453111111944 13.883593409603915 50.643490981877534 0 0 0
1847 1 22.5045605432332 16.291361338248436 50.57210813137499 0 0 0
1851 1 1.991686065225256 20.564657138339896 50.74944116000367 0 0 0
1832 1 3.7717820031034712 18.336639261965104 50.76059768974455 0 0 0
1855 1 5.964226792928748 20.348933333020327 50.51589669077263 0 0 0
1825 1 24.465268998845534 16.18048265687809 48.739239211074825 -1 0 0
2583 1 13.926212313550568 20.496638725023885 71.04601198666717 0 0 0
2564 1 16.247291935435832 18.062026040672464 71.24353095840573 0 0 0
1836 1 7.73850985110645 18.25094008841156 50.79947489970296 0 0 0
1859 1 9.856408875197946 21.06232396986932 50.88847307507035 0 0 0
1840 1 12.012443859902165 18.59709293665646 50.81604751935622 0 0 0
1844 1 16.259550504286988 18.5823275394416 50.166955773115646 0 0 0
1863 1 14.02897054288685 20.573737610200233 50.56294630981475 0 0 0
1848 1 20.190084698061238 18.343080588728235 50.69016953447966 0 0 0
1867 1 18.076655711079184 20.692202981992153 50.91649155537576 0 0 0
1794 1 18.167878855728052 9.875674802000102 48.741046959545784 0 0 0
2560 1 12.09918730897593 18.4958320846034 71.33635542097298 0 0 0
1828 1 0.23025065905203124 18.133278487072303 50.67018917791572 0 0 0
1871 1 22.655243873267 19.8967275767598 50.56359112490839 0 0 0
1801 1 -0.049863042837290816 12.092177853765541 48.67151879797385 0 0 0
1731 1 1.647589386613943 24.30005718949087 50.409785094988415 0 -1 0
1852 1 -0.2888533311202366 22.418801206904888 50.32095818186025 0 0 0
1856 1 3.8359346044880622 22.621202086717382 50.87184451394683 0 0 0
1739 1 9.856928392572637 -0.03368854246506078 50.70461751837799 0 0 0
1860 1 7.721088484917477 22.676607916440368 50.50425544107808 0 0 0
2579 1 10.01128616514698 20.312200030152695 71.3644328809311 0 0 0
1864 1 12.128067288212751 22.681222086255204 50.773401757221514 0 0 0
1868 1 15.955214509507087 22.677380777599296 50.25938728334399 0 0 0
2556 1 7.850236248917756 18.318018677280406 70.9927799175421 0 0 0
1747 1 18.3582938474948 24.49067272446137 50.598733927403956 0 -1 0
2575 1 5.699202845469379 20.489071156773406 71.11895389852344 0 0 0
1872 1 20.37310174192924 22.317410261292366 50.3109419720393 0 0 0
2552 1 3.969356234902434 18.415821578144424 71.25539578576723 0 0 0
1874 1 1.4922500749493457 1.7890756596682218 52.3433572685426 0 0 0
1875 1 1.7898392152968219 24.495178403517123 54.76128271312062 0 -1 0
1878 1 6.0573347190573745 1.7373000399326322 52.94720305312423 0 0 0
1880 1 3.9300351340373263 1.9154594049200129 54.76042326867736 0 0 0
1882 1 9.897046960874539 1.8468544854803426 52.764029985863665 0 0 0
1884 1 8.123170020207777 1.9302817583626184 55.06981747616954 0 0 0
1888 1 11.778787912448667 1.8776986267633293 54.50069829971713 0 0 0
1886 1 14.14028529031131 2.131030667934882 52.51454285284805 0 0 0
1892 1 16.34412159486913 1.8640787164723953 54.84869905445161 0 0 0
1889 1 16.217525804129128 24.41632028395634 52.82463449606963 0 -1 0
1890 1 18.2819425710647 1.6976832302662561 52.70433007526519 0 0 0
1896 1 20.550782395542697 1.6972136339303647 54.54862363611535 0 0 0
1893 1 20.3119199155176 24.040535270744577 52.51850499541282 0 -1 0
1876 1 24.527334410752264 1.5926132047283497 54.60514488682849 -1 0 0
1894 1 22.546187269706046 1.6330093453806096 52.43241027991803 0 0 0
1873 1 24.466887537542394 24.17712542717817 52.66504553895666 -1 -1 0
1895 1 22.579530027783314 -0.2710564501858793 54.461678726749554 0 0 0
1898 1 1.892424951667134 5.706507115211885 52.177819545430886 0 0 0
1899 1 1.7386380781788295 3.8448350664631725 54.64975913824209 0 0 0
1901 1 3.7840187434931885 3.7395932170225095 52.34158932914328 0 0 0
1902 1 6.361063561841564 5.860389970359923 52.800030480798235 0 0 0
1903 1 5.8615547280264355 3.951555018389552 54.49801988004994 0 0 0
1904 1 3.853166275697048 5.67550780174915 54.28440755720861 0 0 0
1905 1 8.182559976268294 3.907343573920345 52.967826293040154 0 0 0
1906 1 9.921790417772195 6.156856080508534 52.7554484092955 0 0 0
1907 1 10.084452206370681 4.027775774706333 55.003600196933476 0 0 0
1908 1 8.06200174223036 5.732756423205369 54.838030824100606 0 0 0
1909 1 12.23497063271346 4.126547115139672 52.955760202193204 0 0 0
1912 1 12.0159265180399 6.351250215576741 54.78437414548223 0 0 0
1910 1 14.29659740614569 6.109182004682856 52.72676719902828 0 0 0
1911 1 14.23658134232312 4.028330351263821 54.65989833205397 0 0 0
1913 1 16.568678882324743 4.055493708709123 52.63681362643927 0 0 0
1916 1 16.229470872800107 6.348624030638017 55.12878046133647 0 0 0
1914 1 18.566526680815706 5.867772291468073 52.66178518884288 0 0 0
1915 1 18.387455482401005 3.9378076086428404 54.40809440348455 0 0 0
1917 1 20.481921883753007 3.6900656109479533 52.53115006929705 0 0 0
1920 1 20.737130359329214 6.347379694752775 54.5083044288424 0 0 0
1897 1 -0.22539918622680594 3.476672631003826 52.4678451002773 0 0 0
1900 1 -0.05795117920061138 5.671409003107985 54.22734466093273 0 0 0
1918 1 22.46633838024972 5.608013423710619 52.676199906798 0 0 0
1919 1 22.455714118766053 3.771955829395841 54.3699997105384 0 0 0
1922 1 2.0453915040704573 9.36189636278506 52.728795508434494 0 0 0
1923 1 2.3265321073074317 7.686558121160254 54.87756137468054 0 0 0
1924 1 -0.2982159636167836 9.878668643967064 54.59338625041741 0 0 0
1925 1 4.2434482061607826 7.573033287146037 52.264082480649456 0 0 0
1927 1 5.748596330346249 8.072986269066622 54.741224643390225 0 0 0
1926 1 5.717426213429895 9.916114285076024 52.75765808160414 0 0 0
1928 1 3.908365925551296 10.318459912645027 54.65146528973834 0 0 0
1929 1 8.10472753500676 8.208764584353306 52.741748738711664 0 0 0
1931 1 10.207989816390194 8.180046168175389 55.09305435871514 0 0 0
1930 1 10.554615101397609 10.227249485587262 52.54163152780423 0 0 0
1932 1 7.6198330439216075 10.317617267648975 54.36250620609456 0 0 0
1933 1 12.233122969585793 8.083007088517009 52.67134589403792 0 0 0
1936 1 12.078128279978324 10.225931196002604 54.68063594980849 0 0 0
1934 1 14.007656055737456 10.249574872589903 52.171701719598076 0 0 0
1935 1 13.753129100834277 8.129972864483344 54.959934312265936 0 0 0
1937 1 16.649964634324654 7.7726970331857554 52.639721073498215 0 0 0
1940 1 15.816446648741543 9.72782285116178 54.56491689534226 0 0 0
1939 1 18.148747739948828 8.108028499984345 54.75326703239956 0 0 0
1941 1 20.799766853049633 7.908232977910668 52.26354250038761 0 0 0
1944 1 20.604966660133847 9.842518382998163 54.37002191615237 0 0 0
1938 1 18.621480739143045 9.966292020719868 52.381821820123534 0 0 0
1921 1 0.02183757835642386 7.8351870314579894 52.68290895882522 0 0 0
1942 1 22.793935473692134 9.483026517392128 52.63662181857144 0 0 0
1943 1 22.59586756061874 8.025462665993572 54.885889992630844 0 0 0
1947 1 1.8471328821103064 11.981598445102835 54.50714250751903 0 0 0
1949 1 4.289552305850203 12.235314974088027 52.59321405050192 0 0 0
1951 1 6.012893721879379 12.396321673335981 54.49646888083615 0 0 0
1953 1 8.015047903173755 12.365435178471063 52.26825799710325 0 0 0
1955 1 9.885550835951111 12.006463342553612 54.633545773343414 0 0 0
1957 1 12.198487286181003 12.079585070840887 52.911512085162904 0 0 0
1959 1 14.121383248221786 12.175316639648843 54.82134466266842 0 0 0
1961 1 16.365782379805843 11.912424553750968 52.56961043342859 0 0 0
1958 1 13.895041686076684 14.2755832358861 52.742821378476116 0 0 0
1964 1 16.43559200082114 13.97070479610101 54.93776261295714 0 0 0
1963 1 18.24834654575948 11.984762153847011 54.51595941809229 0 0 0
1965 1 20.70318314800419 11.806977155477526 52.65673667507608 0 0 0
1945 1 -0.16919155647338457 11.676846684986065 52.6236532844636 0 0 0
1967 1 22.687367167964638 11.987100223073723 54.429928882622605 0 0 0
1946 1 2.051143926116053 13.927073954571554 52.73246445243955 0 0 0
1971 1 1.5747057715130799 16.057611704846302 54.679037725115315 0 0 0
1952 1 3.6902894637903767 14.250045633031364 54.93675006144133 0 0 0
1950 1 5.961203582259511 14.440604390957047 52.63417021011677 0 0 0
1973 1 3.8149142207145657 15.961995443393876 52.862526483610395 0 0 0
1975 1 5.762834793641721 16.558693605217655 54.82480041361868 0 0 0
1956 1 7.861920090360638 14.546318566989028 54.770925991985074 0 0 0
1977 1 7.9617300144348295 16.490491827190475 52.82214943612788 0 0 0
1979 1 10.371244607480872 16.439170570918634 54.76698226547434 0 0 0
1954 1 9.881061408630222 14.324237866839526 53.11988617624351 0 0 0
1960 1 11.99772786615656 14.047539074965316 55.00030326029933 0 0 0
1981 1 12.189569857170632 16.631568885106603 52.56361087133484 0 0 0
1983 1 13.95806117901261 16.354810481716434 54.669677281984804 0 0 0
1985 1 15.975689177013148 16.194828245899195 52.869114220013174 0 0 0
1962 1 18.708510008077653 13.947517313181761 52.56836875506416 0 0 0
1968 1 20.61558790363459 14.05262826483091 54.520151952564376 0 0 0
1987 1 18.24456127550847 16.31805367127052 54.501852082811645 0 0 0
1989 1 20.38550959787612 15.928855774724864 52.64361974880675 0 0 0
1948 1 -0.11723756810142053 14.044867259367631 54.54071390481113 0 0 0
1966 1 22.6783937028875 14.025655680095339 52.62545741091078 0 0 0
1969 1 -0.008444790511817901 15.723177167854441 52.639410738238055 0 0 0
1991 1 22.184198637041845 16.08470955546523 54.64538334982962 0 0 0
1970 1 1.917209488840033 17.948637829445083 52.70447144127586 0 0 0
1995 1 2.0455574500493467 20.704430269975852 54.744215135145296 0 0 0
1974 1 5.738907225307582 18.478791928823604 52.76733550032674 0 0 0
1976 1 3.649689729613991 18.258630985318412 54.563847978886685 0 0 0
1997 1 3.6466148832078464 20.376639150785095 52.56459702015268 0 0 0
1999 1 5.843085654798056 20.423838142503605 54.7918344470353 0 0 0
1978 1 9.85916231186518 18.638706537886712 52.61846914809722 0 0 0
1980 1 8.134108555801227 18.460245183296017 54.80828959127465 0 0 0
2001 1 7.911960021549419 20.47876229684772 52.88437601649473 0 0 0
2003 1 10.225713587097687 20.771897964635144 54.913700779471974 0 0 0
1984 1 12.209040432224095 18.630557463158354 54.660677305706955 0 0 0
2005 1 12.058774174024405 20.893633163190067 52.82351551621475 0 0 0
1982 1 14.291357181215206 18.40580199397654 52.41210247781665 0 0 0
1988 1 16.23782739278452 18.12167755718005 54.9123423764008 0 0 0
2007 1 14.344845897134405 20.463088635840705 54.42065510408777 0 0 0
2009 1 16.346411516431953 20.50050484676722 52.78876615562968 0 0 0
1986 1 18.31693190806354 18.348601293293214 52.70342209548071 0 0 0
1992 1 20.242409639696387 18.197999089919797 54.52038048772662 0 0 0
2011 1 18.373093194450554 20.341303880095005 54.99082996297574 0 0 0
2013 1 20.301775084803154 20.501194168062263 52.72536340597235 0 0 0
1972 1 24.35342406176477 17.8149790219935 54.6960271997869 -1 0 0
1993 1 -0.14388652270200994 19.873063467941975 52.466791582349366 0 0 0
1990 1 22.146202043322546 18.130743940682258 52.52687945050884 0 0 0
2015 1 22.333087900830392 20.210459199160653 54.19586606945271 0 0 0
1994 1 1.8488987066216533 22.661095295893055 52.73145088490366 0 0 0
1996 1 24.3676399280738 22.431913170961067 54.781272049873124 -1 0 0
1877 1 3.5848415272575043 -0.14220733117161427 52.59258379103074 0 0 0
1879 1 6.076674461275667 24.36714583216318 54.971193846221745 0 -1 0
1998 1 5.890294789019688 22.851463592288994 52.909374644655564 0 0 0
2000 1 3.915702138064094 22.461878623592256 54.807331204661786 0 0 0
1883 1 9.851781171821647 -0.03597312459074681 54.900529943257474 0 0 0
1881 1 7.805952689877824 24.487394510884812 52.56770507168046 0 -1 0
2004 1 7.86793958864058 22.43620239307684 54.904129671664194 0 0 0
2002 1 9.838536589727651 22.803549718830652 53.26477818179327 0 0 0
1885 1 11.815697167210859 -0.04833005552244787 52.74815296755266 0 0 0
2008 1 12.40027574080522 22.978645000858748 54.466231444056824 0 0 0
1887 1 14.059852331654934 0.14505838749682026 54.78931478688107 0 0 0
2006 1 14.402124222362206 22.538560155870222 52.44224326320223 0 0 0
2012 1 16.12141554152905 22.386678087805294 54.7706980127321 0 0 0
1891 1 18.252097289422945 -0.2113266297946625 54.75795252386084 0 0 0
2010 1 18.361212491997204 22.37444636610239 52.97914969010881 0 0 0
2016 1 20.1147496831948 22.387435215282068 54.79121396544577 0 0 0
2014 1 22.634673562502638 22.206807536822843 52.222071088878764 0 0 0
2018 1 1.907440154993128 1.7628734994308974 56.6171710500282 0 0 0
2019 1 1.1877198627694368 -0.248539925888583 58.56435375367309 0 0 0
2017 1 24.05315176910252 24.4723553654051 56.70895804029285 -1 -1 0
2022 1 5.844815806864008 1.6799394088632424 56.98198623556321 0 0 0
2024 1 3.7311627044050653 1.3158105566918865 58.999117283316345 0 0 0
2021 1 3.6902693633717005 23.992041342054158 56.62313348730318 0 -1 0
2023 1 5.888685022593508 24.28269653024143 59.41614364799737 0 -1 0
2026 1 9.868403517318457 1.968785612437315 56.921041524384236 0 0 0
2028 1 8.005095713067536 1.7925861180591505 58.828381897088015 0 0 0
2027 1 9.723141316281612 24.39693567919273 58.9787455547564 0 -1 0
2029 1 11.697546007364107 -0.20374729528398206 56.9643984770219 0 0 0
2030 1 13.851354372813752 1.9253311402987658 56.39375257472383 0 0 0
2036 1 16.247788290031174 1.6819321837897623 59.11732796391476 0 0 0
2031 1 14.290693216972208 24.355779159058827 58.56275865115798 0 -1 0
2034 1 18.341379236588253 1.8379862098818522 56.70082969496346 0 0 0
2040 1 20.1332423411891 1.8687467650727414 58.733893803425694 0 0 0
2037 1 20.54829358491308 -0.1348980030182727 56.508436716577 0 0 0
2020 1 24.194174816489845 1.7725245998209544 58.564902329702306 -1 0 0
2038 1 22.125225626018985 1.9553401880446581 56.6015936532891 0 0 0
2039 1 22.199050949235914 24.42789373536896 58.78919213189427 0 -1 0
2042 1 1.6205230284957772 5.649645393307417 56.48931476733885 0 0 0
2044 1 -0.30261619003043094 5.748935324988184 58.303873928504004 0 0 0
2045 1 3.9689166643563007 3.7266993129753168 56.951699600442254 0 0 0
2046 1 5.873878311805584 5.879974179617187 56.63181439348536 0 0 0
2048 1 3.3323582856725324 6.245830464146871 58.665475498500214 0 0 0
2047 1 5.919235732236012 3.851265224043317 58.83469875009116 0 0 0
2049 1 7.7389013044909785 3.6774953372094243 56.93586092002751 0 0 0
2050 1 10.120751302564955 5.82576053304486 56.94143886986676 0 0 0
2052 1 7.921954313448358 5.986371422656734 58.792743931211945 0 0 0
2051 1 9.86487534153031 3.80863998687796 58.98914149315871 0 0 0
2053 1 12.225507832569978 3.8313541171465832 56.52157888839831 0 0 0
2056 1 11.879665159446441 6.053829190777863 59.16767933418879 0 0 0
2054 1 14.422487191952865 5.835953538494355 56.82446410141987 0 0 0
2055 1 13.856659479375791 3.9737720688042266 58.798324884849876 0 0 0
2057 1 16.433082776359914 3.859122132722127 56.825058800370606 0 0 0
2060 1 16.312280916629206 5.767420158827768 58.9176709603101 0 0 0
2058 1 18.455363549848148 6.058512151999165 56.94173838929839 0 0 0
2061 1 20.171491183333565 4.046349291236049 56.398825682316236 0 0 0
2064 1 20.65911030734038 6.190792549957606 58.456370248855706 0 0 0
2059 1 18.654328542245562 4.0094426074079745 58.7717793754116 0 0 0
2041 1 24.466388750448534 3.602952800629654 56.57712443288816 -1 0 0
2062 1 22.696556031646924 5.953157843241734 56.67111299355349 0 0 0
2063 1 22.013552677632912 3.9275657882088826 58.58711597461544 0 0 0
2066 1 2.0051168150909504 10.225071687470754 56.89914875680409 0 0 0
2069 1 3.97532481708832 8.29747734989474 57.08387561201705 0 0 0
2070 1 5.8243909712897945 10.026363709536968 56.6486181707633 0 0 0
2071 1 5.971577040418748 7.937320241421368 58.87790051880016 0 0 0
2072 1 3.871675395389774 10.259059856948422 58.97284098556038 0 0 0
2073 1 7.832414023122324 7.832133650622646 56.83319318869106 0 0 0
2075 1 9.962806548083943 8.25109227921808 58.65478230859487 0 0 0
2074 1 9.49855250826871 10.049077906975208 56.750944725149694 0 0 0
2077 1 11.975052201167587 8.307971261875354 56.98795947754838 0 0 0
2080 1 12.128248956552532 10.104456481810214 58.68148615790302 0 0 0
2079 1 14.092996140843717 7.958219838195323 58.617743933046036 0 0 0
2078 1 14.652531462325973 10.208890832891328 57.05313597438105 0 0 0
2081 1 16.638032732982477 8.25880349491373 57.05298644516505 0 0 0
2084 1 16.892795648739284 10.368162584219297 58.91180954517965 0 0 0
2085 1 20.398174041230234 8.190305274950662 56.57537667511274 0 0 0
2088 1 20.59615629240819 10.272645036504287 58.760140864040295 0 0 0
2065 1 -0.033516363251225145 7.678117240175681 56.596481049465034 0 0 0
2068 1 -0.24058451264560798 9.887777388919606 58.49566688180317 0 0 0
2086 1 22.650740176295262 10.009702760801193 56.684070168860295 0 0 0
2087 1 22.54443794424143 7.915732003100844 58.6394176243843 0 0 0
2091 1 1.8422254785267542 12.213435095553882 58.88389729219372 0 0 0
2093 1 4.180262011988539 12.123131424421892 56.840227817307635 0 0 0
2095 1 5.708243678178594 12.417583073724844 58.709112440441 0 0 0
2097 1 8.072823500117462 12.261911973965049 56.987761491118476 0 0 0
2099 1 10.142588783884902 12.305757939327437 59.21387775687345 0 0 0
2101 1 12.136489067398168 12.005490012020946 56.90304260750919 0 0 0
2103 1 14.246632855182842 12.671576011087026 58.74532589334448 0 0 0
2105 1 16.596940206111217 11.84480051713492 56.62875335739259 0 0 0
2082 1 18.85055893775658 10.163843911175453 56.80320093845288 0 0 0
2107 1 19.014620725430923 12.41300797992944 59.00091834413082 0 0 0
2109 1 20.64779740419819 12.046326669177887 56.50115596812578 0 0 0
2089 1 -0.09165320489211293 12.130433875458467 56.69487488778249 0 0 0
2090 1 1.8019383295699405 14.319522837279031 56.74822637856169 0 0 0
2115 1 1.7681586247303613 16.11527465922552 59.0939977796916 0 0 0
2113 1 -0.06202443471447677 16.043544700281075 56.76176612799427 0 0 0
2094 1 5.959716999110858 14.576342305653613 56.742648178738946 0 0 0
2117 1 3.8545360083333327 16.389250790129097 56.90951200038224 0 0 0
2119 1 5.802154268982745 16.253462357584553 58.94861451790387 0 0 0
2098 1 9.88882353175594 14.185056221288422 56.870329380020316 0 0 0
2100 1 8.080930071468266 14.118654405880502 58.80296814664381 0 0 0
2121 1 7.9652477718267924 16.681719050803977 57.07243464641552 0 0 0
2123 1 10.038276052487976 15.999324264209301 58.67438898211124 0 0 0
2104 1 12.10108948576302 14.302387726889704 58.47141196209035 0 0 0
2125 1 12.317880054845645 16.18684234765663 56.352177116955474 0 0 0
2108 1 16.73527131225286 13.792550706194662 59.05183997348769 0 0 0
2102 1 14.68482389841924 13.981360886297404 56.88361255916875 0 0 0
2127 1 14.390348049031942 16.18327035215391 58.946796028726 0 0 0
2129 1 16.56392696451156 16.170555854246253 56.9577953276597 0 0 0
2106 1 18.511716416129914 13.917596462388913 56.891809023273645 0 0 0
2131 1 18.861765665412047 16.517332810496264 58.75479139473927 0 0 0
2133 1 20.33189436291372 16.29490837660108 56.6292168886115 0 0 0
2112 1 20.777679161585095 14.201009797742635 58.756954587152514 0 0 0
2092 1 -0.17829039265442842 14.197001088272865 58.63145372654712 0 0 0
2110 1 22.779259187160413 14.036169646475434 56.58975939324864 0 0 0
2135 1 22.640958089593177 16.53093032853844 58.34237135713292 0 0 0
2114 1 1.768871235509648 18.230613147013557 56.66924652754815 0 0 0
2139 1 1.6285722376440204 20.636056571661527 58.63039607951931 0 0 0
2137 1 -0.2520020663381395 20.168967468438602 56.58901053179834 0 0 0
2118 1 5.864900888821329 18.673179308088258 57.0604899685281 0 0 0
2120 1 4.027624829950705 18.426081137119006 59.101024456834644 0 0 0
2141 1 3.806263077472405 20.52319859605553 57.15944877421413 0 0 0
2143 1 6.086121095453547 20.31400247493638 58.99534442057158 0 0 0
2122 1 10.274960379363321 18.236952202008872 57.05242568972124 0 0 0
2124 1 7.942044976007876 18.491498269045202 59.208095415238304 0 0 0
2145 1 8.298946559555464 20.027500614740113 56.805672934334616 0 0 0
2147 1 10.319508177672756 20.02873991171547 58.95204151549575 0 0 0
2128 1 12.538823659409768 18.017799061051875 58.72217898791814 0 0 0
2149 1 12.319641625288371 20.550029055010214 56.66846083630123 0 0 0
2126 1 14.474944082207305 18.351301911978467 57.040614429084876 0 0 0
2132 1 16.53481192145566 18.31883836305171 58.94461489127244 0 0 0
2151 1 14.242473449257258 20.25912529592626 58.816868881194864 0 0 0
2153 1 16.19379803889162 20.495307940530743 56.708251287686736 0 0 0
2130 1 18.301736072057903 18.423805242852765 56.811223252831454 0 0 0
2155 1 18.261840514701014 20.606353211615335 59.022257897579685 0 0 0
2157 1 20.20390938214092 20.237145160413483 56.74894943155681 0 0 0
2136 1 20.65703674011737 18.628399247452002 58.83230485268402 0 0 0
2116 1 24.566688345811706 18.178427571466187 58.676245103497735 -1 0 0
2134 1 22.62964712914713 18.30313467522962 56.63596853315843 0 0 0
2159 1 22.55419880779301 20.380526482539622 58.46359276228463 0 0 0
2138 1 1.4448584108351035 22.318254810927357 56.608637346490355 0 0 0
2142 1 5.714646512824515 22.470941099836324 57.14496629128421 0 0 0
2025 1 7.728257960188028 24.326968823834868 57.06886804199993 0 -1 0
2146 1 9.973303426222005 22.758209709854782 56.85270336575894 0 0 0
2148 1 8.049515006435344 22.247609048596658 59.053908560932584 0 0 0
2152 1 11.836024821730135 22.176033096516264 58.63501607089028 0 0 0
2033 1 16.116172519282078 0.14854048111075896 56.74168517594125 0 0 0
2150 1 14.034558696103463 22.472019786081432 56.566198748184235 0 0 0
2156 1 16.230157713770975 22.465114733843805 58.60446035760868 0 0 0
2154 1 18.079151381432666 22.508781062870206 56.81424378880714 0 0 0
2160 1 20.136382075473524 22.69914524126451 58.5550164835524 0 0 0
2035 1 18.274261105479145 -0.055279812960553815 59.04536035492812 0 0 0
2140 1 24.439226420657384 22.39296566977817 58.55660916875924 -1 0 0
2158 1 22.218752785396152 22.210267255993095 56.429483531193824 0 0 0
2162 1 1.6182618411120837 1.9005728508371709 61.02724520288343 0 0 0
2161 1 24.143825701107257 -0.13098363869605767 60.52639409755657 -1 0 0
2166 1 5.803211652278963 2.000076072915152 60.77964524242366 0 0 0
2165 1 3.966082411328318 -0.25895835869796 61.08673442398801 0 0 0
2170 1 10.017733685655736 2.063483865896439 61.39728920648311 0 0 0
2169 1 7.840174663456136 24.527116848125836 61.354274767916536 0 -1 0
2032 1 12.1120135801129 1.9813887633860463 58.754652864566374 0 0 0
2174 1 14.221919088415858 1.578638698513563 60.77557774479888 0 0 0
2178 1 18.589187922341004 2.1306803121997753 60.76679686939638 0 0 0
2181 1 20.48991131508476 -0.23463901769890122 61.05549720844646 0 0 0
2182 1 22.28636771748769 1.893214234777862 60.53358603432381 0 0 0
2043 1 1.459142366511485 3.5189900256528133 58.72221789432474 0 0 0
2185 1 0.025123861162861083 4.139036942524731 61.08601688756624 0 0 0
2186 1 2.1291318045512777 6.365923687880828 61.09784243787656 0 0 0
2189 1 3.619938261511586 4.040810590973431 60.57252929891181 0 0 0
2190 1 5.8226447449157295 5.753756678048571 60.393051335760106 0 0 0
2193 1 7.813677716861832 3.8521818632122793 60.76270101924004 0 0 0
2194 1 10.030850716384156 6.285818451734483 60.85051647052183 0 0 0
2197 1 12.024613750570245 3.9767703498349682 61.02822948454488 0 0 0
2198 1 14.336314884369056 5.97530768543032 60.868611804613316 0 0 0
2201 1 16.053291990510914 3.73128280170911 60.85991127948582 0 0 0
2202 1 18.358531106517535 6.098924303137455 60.504238831653375 0 0 0
2205 1 20.752723136860748 3.9345111821612484 60.72541498787708 0 0 0
2206 1 22.80978318732382 6.004280143108372 60.360876431752345 0 0 0
2067 1 1.5846043835242132 8.091104952152499 58.76876785432997 0 0 0
2210 1 1.7921029621185327 10.070480952090085 60.94511916165409 0 0 0
2213 1 3.901232127232375 8.339057436998722 60.84224273078904 0 0 0
2214 1 5.944680970201815 9.868494537494977 61.14537778328787 0 0 0
2076 1 7.783294206754309 10.366947133285626 58.93568959256967 0 0 0
2217 1 7.988211136391929 7.930776438815872 60.84089543583748 0 0 0
2218 1 10.283555156380304 9.887356053801232 60.77285527781002 0 0 0
2221 1 12.282803940620877 8.380514374101363 60.71147933932393 0 0 0
2222 1 14.22058617850862 10.525640947706059 60.521331448400595 0 0 0
2225 1 16.139877518827713 7.930380158172561 60.73840062712697 0 0 0
2083 1 18.57858882224114 8.0166350021335 58.96015428543541 0 0 0
2226 1 18.404398211068937 10.078017695842128 61.02687952749659 0 0 0
2229 1 20.546656923386582 7.77007545242947 60.89073066395411 0 0 0
2209 1 24.331552977560772 8.233496797122601 61.117532834692256 -1 0 0
2230 1 22.532957626934255 10.134769635893337 60.65288762159346 0 0 0
2233 1 24.41734326170697 12.105203845225068 60.70794503220063 -1 0 0
2237 1 4.085364358724151 12.401019123184719 61.01451509577805 0 0 0
2241 1 8.089549201448362 12.253009105103787 60.74840615136826 0 0 0
2245 1 12.340489108806937 12.317513809573384 61.06858799006773 0 0 0
2249 1 16.365654293775222 12.29017553149853 61.419888248757616 0 0 0
2253 1 20.842540879310278 12.25288190739577 60.898303891619456 0 0 0
2111 1 22.419215767118292 12.306022704857904 58.687112383046184 0 0 0
2255 1 22.36339156686511 12.167171919757036 62.92831910502198 0 0 0
2234 1 1.2933833621139916 14.055964220368534 61.09529459973719 0 0 0
2096 1 3.780004255354024 13.999735937328175 59.00729606315025 0 0 0
2238 1 6.111331672438207 14.144576875559038 61.15811300421852 0 0 0
2261 1 3.8966816182000503 16.192672190046117 60.89899887975917 0 0 0
2242 1 10.308051541503056 14.493474832112303 61.00645906425173 0 0 0
2265 1 7.941963675717714 16.276056333978204 61.200966840282234 0 0 0
2269 1 12.269412855684696 16.40918179247287 60.722259592362555 0 0 0
2246 1 14.23810724502832 14.37525007487074 60.86284309502852 0 0 0
2273 1 16.86654258383367 16.64356945633719 60.928550949827596 0 0 0
2250 1 18.69341109818693 13.922990971835185 61.428646693454866 0 0 0
2277 1 20.54282405993678 16.24884071861115 61.0895174495368 0 0 0
2257 1 24.359142529461035 16.418319121185355 60.918366183888985 -1 0 0
2254 1 22.83474515411342 14.344525373035628 60.67741070506026 0 0 0
2258 1 1.8903342604832596 18.404562268452025 60.848932745637825 0 0 0
2281 1 -0.15570380262060055 20.594487472137274 60.8012876712462 0 0 0
2262 1 5.7365484449106985 18.302079062522566 61.35769470277726 0 0 0
2285 1 3.950335941107295 20.47267537415138 60.8822423059102 0 0 0
2289 1 8.300705196863484 20.252675556965052 61.19703732173541 0 0 0
2266 1 10.264169716248292 18.272873855297988 60.86739364218474 0 0 0
2293 1 12.166401028111697 20.241036494877 60.82347820079065 0 0 0
2270 1 14.615821883671707 18.50928889927156 60.810913945249226 0 0 0
2297 1 16.305079932326432 20.584240099438063 61.15096219157502 0 0 0
2274 1 18.606922475756786 18.613860129746662 61.11225305616286 0 0 0
2301 1 20.36043810843625 20.45505611987373 60.937466339737306 0 0 0
2278 1 22.553391493972754 18.479759928939245 60.674100975465464 0 0 0
2260 1 -0.204168952620308 18.406257366959224 62.82919646328036 0 0 0
2282 1 1.632335697647745 22.666648632125472 60.82189238600418 0 0 0
2144 1 3.5701591092239426 22.428941761797937 59.20281310520346 0 0 0
2286 1 6.0143524722947586 22.480273791863837 61.15606302014219 0 0 0
2290 1 10.224675452031263 22.452934478122636 61.279553130013625 0 0 0
2173 1 12.129393256723143 -0.2537690374267487 60.646490039957946 0 0 0
2177 1 16.353560843060585 24.355842876232202 61.05990326256257 0 -1 0
2294 1 14.00927507148833 22.490817524014524 60.52131303987333 0 0 0
2298 1 18.47552549439846 22.416062876373537 60.86088387548538 0 0 0
2302 1 22.605162729137994 22.362512959062038 60.74090334623145 0 0 0
2306 1 2.1342369679652258 2.0821720250096543 64.9759429145627 0 0 0
2164 1 24.476978221759243 1.8984531382656487 63.187521644296034 -1 0 0
2305 1 -0.11093902699292713 -0.14987158297340694 65.10720272982235 0 0 0
2168 1 4.064716051232195 2.215473911270087 62.91329971484208 0 0 0
2310 1 5.762205100824479 1.818911986376813 65.16233224325359 0 0 0
2309 1 3.538773274984663 -0.19043733554939063 64.9189200142144 0 0 0
2167 1 5.600297334478574 -0.2537768109736831 63.15455614105357 0 0 0
2172 1 7.7887598571773875 1.7209143143539447 63.122256538067454 0 0 0
2313 1 7.526225441279769 -0.14928808494995435 65.0441136718668 0 0 0
2314 1 10.18415660889764 2.0021046176437207 65.102860329674 0 0 0
2176 1 12.466729735389709 1.4445021599500218 62.74212684887748 0 0 0
2180 1 16.402670130826998 1.7637921706825392 63.01001123102952 0 0 0
2318 1 13.958743125474053 1.6462595359608174 64.86611350841346 0 0 0
2184 1 20.45174695639895 1.7878636114252195 62.767708721958456 0 0 0
2322 1 18.20706015177828 1.9083605789378137 64.77697479649166 0 0 0
2179 1 18.2840659142232 24.474894848777506 62.73699126947586 0 -1 0
2326 1 22.488645247135874 1.6701112794928081 65.43615297981108 0 0 0
2183 1 22.650183895029198 -0.17101129642480828 63.03272654998561 0 0 0
2187 1 1.6598401716634417 4.1500873065961015 63.19582612826316 0 0 0
2330 1 1.7690850333507084 6.598861740311587 65.04605941803877 0 0 0
2329 1 -0.18235300653225733 4.154037688980215 65.11404550728432 0 0 0
2191 1 6.013940559347919 4.0250277952543545 62.607590065161936 0 0 0
2192 1 3.879474882055841 5.504093581670621 62.705438763366644 0 0 0
2333 1 4.1189595426408685 4.169035908972606 64.91484721570308 0 0 0
2334 1 6.033411260646176 6.1349748219117055 65.01055570295895 0 0 0
2196 1 7.8779386055253475 5.931681282231115 62.88340249776928 0 0 0
2195 1 9.808119095628411 3.7094925138911012 63.116012535297244 0 0 0
2337 1 8.093693627724305 3.8241543374251386 65.05714065920796 0 0 0
2338 1 10.149505276812638 6.028661367319232 64.79718770287167 0 0 0
2200 1 12.343655314289757 6.2142811791659955 62.877487101402004 0 0 0
2341 1 12.328790500316924 4.033794916325314 64.64659904808619 0 0 0
2199 1 14.099272724851431 3.709648383463198 62.63415767520453 0 0 0
2204 1 16.42116942575395 5.970344324117662 62.94006350466586 0 0 0
2342 1 14.122506421125044 6.03762550768403 65.11771892933422 0 0 0
2345 1 16.126535404734053 3.933659908990249 65.14275896670063 0 0 0
2203 1 18.56983525323744 4.034635057756647 62.992669052988546 0 0 0
2208 1 20.4219219680896 5.948520316829187 63.00432151624298 0 0 0
2346 1 18.416730421878434 5.911154627519867 64.84189777237336 0 0 0
2349 1 20.345460227592806 3.93544923071366 64.91055218926815 0 0 0
2188 1 -0.2853052055514089 6.213894160271231 63.095919344649666 0 0 0
2207 1 22.818266961667845 3.8589858799717067 62.95914204284618 0 0 0
2350 1 22.758671102565785 6.360954911663266 65.17984513520378 0 0 0
2211 1 1.6528786792481693 8.259364835423833 62.93672381560888 0 0 0
2353 1 -0.12377005025328863 8.316537148582464 65.06703385590328 0 0 0
2354 1 1.6212992036094465 10.556175103692473 65.21236204896206 0 0 0
2216 1 3.631896505922496 10.352166769531076 62.84806371527094 0 0 0
2215 1 5.490134064581453 7.675342724525095 63.16638382212344 0 0 0
2357 1 3.7690002016157846 8.484568097213936 65.05081985524515 0 0 0
2358 1 6.069124974365371 10.113498422992468 65.06111656251755 0 0 0
2361 1 8.07851479191871 7.852620030896146 64.74996347838592 0 0 0
2362 1 9.87652050295658 10.323054935553785 64.74143901013784 0 0 0
2224 1 12.519243084360571 10.310014673176639 62.662329700073364 0 0 0
2219 1 10.058419926408765 8.180460585540205 62.787028632507976 0 0 0
2365 1 12.251354833930039 8.232669847439581 64.67999822360377 0 0 0
2223 1 14.294581700623068 8.224394331888922 62.742782256416426 0 0 0
2366 1 14.5041706906435 10.104250208914255 64.96642665826934 0 0 0
2369 1 16.32789529307976 7.9964449293736095 65.00556402098584 0 0 0
2228 1 16.211945147544014 10.170814663228079 62.886556267212086 0 0 0
2227 1 18.471484332204152 8.229273539817049 62.98117909082447 0 0 0
2232 1 20.359035358149946 10.677315272636951 62.91962864600745 0 0 0
2370 1 18.259864681717353 9.877973086987343 65.15797523599011 0 0 0
2373 1 20.445725877169153 8.018090691714596 64.91899304611039 0 0 0
2231 1 22.24662876308989 8.05471889995427 62.800713169775236 0 0 0
2374 1 22.72827522028028 10.015468989362116 65.22918198352536 0 0 0
2235 1 1.8733202315458768 12.281994175032773 63.09747036655042 0 0 0
2239 1 6.162359274878862 12.107711254273072 62.90979832854881 0 0 0
2381 1 4.031831250973235 12.098068764723818 64.81460377607692 0 0 0
2220 1 8.048359860262174 10.211630294759154 62.91529742728304 0 0 0
2243 1 10.272484813033513 12.663857545689266 62.91045804516512 0 0 0
2385 1 8.133115138924913 12.371661046534983 64.68257365782634 0 0 0
2389 1 12.063888510252005 11.94757324625294 64.73960537200136 0 0 0
2247 1 14.032679820332007 12.617469002242439 62.9970466096525 0 0 0
2393 1 16.033541566325642 12.368440311388712 65.49346211541837 0 0 0
2251 1 18.06910541549729 11.959992895399735 63.36975827959494 0 0 0
2397 1 20.376073215742558 12.226071029125459 65.23010108696118 0 0 0
2212 1 -0.2687411435092848 10.047529410995265 63.16835597320743 0 0 0
2377 1 -0.2539852778399964 12.463955708401462 64.85757682218812 0 0 0
2259 1 1.9724034744569847 16.19463510337239 62.7379956040361 0 0 0
2378 1 1.8849170742267232 14.304358289001671 65.15253185378364 0 0 0
2401 1 -0.3059313056229443 16.3959906384329 64.71267216671606 0 0 0
2240 1 4.117354121329823 14.294999547374797 63.347367936958825 0 0 0
2263 1 5.701430435965333 16.243469791589696 63.04284412962706 0 0 0
2382 1 5.685798038653327 14.149714402615377 65.45807205572473 0 0 0
2405 1 3.9077434433808884 16.56395998287106 64.93668692173983 0 0 0
2386 1 10.048908117059812 14.244127034999094 65.20588007412871 0 0 0
2244 1 7.824997864071001 14.287869732580928 62.89669896339844 0 0 0
2409 1 7.604148516783718 16.295703928469962 65.45853458590057 0 0 0
2267 1 9.619130977082825 16.42044756513185 63.391890942984936 0 0 0
2248 1 12.366262829081142 14.709806706523008 63.01688089776893 0 0 0
2413 1 11.73213028985066 16.18195135564283 65.07993257294166 0 0 0
2390 1 14.224296815171737 14.559032140752723 64.9825217664633 0 0 0
2252 1 16.329400884724066 14.331883362391675 63.08218250814493 0 0 0
2271 1 14.459723961805853 16.237718036219988 63.13296118206009 0 0 0
2417 1 16.581040864648454 16.305593055804785 65.16390531207543 0 0 0
2394 1 18.42831134980191 14.200697846714052 65.05083290535993 0 0 0
2256 1 20.742419699741554 14.51795812798038 63.375808383575595 0 0 0
2275 1 18.663132149088046 16.530390021627177 63.21122846875358 0 0 0
2421 1 20.830138791617706 16.54026526278065 65.317026912187 0 0 0
2236 1 24.527277621142307 14.409467617398683 63.067205376765216 -1 0 0
2279 1 22.640437044889918 16.371150526241628 62.76986168424526 0 0 0
2398 1 22.77155648421077 14.318280318462287 65.27873931776642 0 0 0
2283 1 1.7903277755709972 20.547833117646647 62.90832006079851 0 0 0
2402 1 1.7492873545573433 18.400804527842276 64.98470908783881 0 0 0
2264 1 3.7417778729150983 18.616664813106333 62.996372994749656 0 0 0
2287 1 5.760764338220646 20.49549886504942 63.377115659908675 0 0 0
2406 1 5.84980713754362 18.325933188770065 64.98473669687104 0 0 0
2429 1 3.735035297080186 20.48179880466047 65.49357674105272 0 0 0
2291 1 9.996463252433934 20.44849850303303 63.10850885437666 0 0 0
2268 1 7.619857990811349 18.39354388633651 62.965745178544125 0 0 0
2433 1 8.145277900901526 20.350232371985904 65.30229339749044 0 0 0
2410 1 10.159941229288467 18.59000967065122 64.81948726722916 0 0 0
2272 1 12.291728125415498 18.323728019347236 63.02478818362303 0 0 0
2437 1 12.171676872901518 20.26374179752304 64.93743397380229 0 0 0
2295 1 14.337600360198818 20.461366089205107 63.04176281219041 0 0 0
2276 1 16.066610476853686 18.524187481700586 62.94917425282137 0 0 0
2414 1 13.871130817415718 18.198085196672267 65.03638443944203 0 0 0
2441 1 16.375548541041315 20.27295546502274 65.02593732683209 0 0 0
2280 1 20.568999793475548 18.179039665835788 62.84465637880537 0 0 0
2299 1 18.46416292792412 20.62439358863844 63.07546352519272 0 0 0
2418 1 18.687511132942902 18.615367092400227 65.058927276367 0 0 0
2445 1 20.526979777124808 20.43748860794428 64.79582199946341 0 0 0
2303 1 22.600086106471267 20.445599860008485 62.71975771844336 0 0 0
2422 1 22.528873438417172 18.58062112622048 64.94961195786107 0 0 0
2163 1 1.9757575844844153 0.02412682642080194 62.86068792163062 0 0 0
2426 1 1.9007282018090503 22.457393787606144 65.05128299806657 0 0 0
2288 1 3.651369285036703 22.606235268437068 63.04469600376619 0 0 0
2430 1 6.072702924615426 22.579939240162872 65.79989392392983 0 0 0
2171 1 9.848305184848932 -0.11147440734084904 63.41823652755486 0 0 0
2292 1 7.93369867872835 22.327462678971976 63.39078647383146 0 0 0
2434 1 9.881247540174567 22.271518547005 65.19178476862089 0 0 0
2317 1 11.86127941610804 -0.1711041987831763 65.28445964170126 0 0 0
2296 1 12.444001875430816 22.759047964886832 63.303627727503205 0 0 0
2175 1 14.219941303138315 24.021474249110334 62.50444739158116 0 -1 0
2321 1 16.0526893652577 -0.1620647599795223 64.67193784694075 0 0 0
2300 1 16.59835841958291 22.145588559486477 63.67775116384957 0 0 0
2438 1 14.249205655983937 22.453190539295285 65.27222288356108 0 0 0
2304 1 20.63339654406151 22.496311865489517 62.96192239262753 0 0 0
2325 1 20.28855021057192 24.542517928234265 65.15275475023952 0 -1 0
2442 1 18.253729664099613 22.9106282727358 65.11124199558938 0 0 0
2425 1 -0.13565961591696343 20.473433082854918 65.14761971716601 0 0 0
2284 1 24.47673703417549 22.557424725237915 62.97292552191195 -1 0 0
2446 1 22.327958968710227 22.551353748217373 65.17077335225372 0 0 0
2307 1 1.912576781708779 24.502889421481655 67.11756532156892 0 -1 0
2308 1 0.08801450991309995 2.110394523013769 67.08266421156873 0 0 0
2450 1 1.8334910854732316 2.532633972686398 69.00900079439188 0 0 0
2312 1 3.785499858233182 2.040185500971019 66.91192089196505 0 0 0
2454 1 5.855025962129964 1.9615808078664343 69.24691379309897 0 0 0
2453 1 3.558783041436672 0.2607768715430464 69.11422799870437 0 0 0
2311 1 5.799400806342509 -0.06640740830847469 67.16694728752594 0 0 0
2316 1 7.84723527757415 2.008388478473877 67.26142733514232 0 0 0
2458 1 10.138960279975578 2.2887442920901107 69.19114145491088 0 0 0
2315 1 9.764878809273705 24.528152878466116 67.02757370901494 0 -1 0
2457 1 7.957888450370298 0.1004240567941812 69.24586220709037 0 0 0
2320 1 11.845226397134056 1.5489863274293398 67.08940647230736 0 0 0
2461 1 11.768573759603399 -0.02709450669153704 69.29637310528392 0 0 0
2324 1 16.25982360321465 1.8964984228670918 66.88063023539851 0 0 0
2462 1 13.897179321889762 1.8932392027117997 69.17610682435895 0 0 0
2465 1 15.91595319738623 -0.0042938750711479234 68.78375605967565 0 0 0
2328 1 20.17144141610216 2.0084097635073235 66.86927572894052 0 0 0
2466 1 18.279612909696176 1.8245919826158268 68.71624869836052 0 0 0
2469 1 20.599403413406126 0.11056256561493105 69.21061296254754 0 0 0
2470 1 22.471589311108527 1.9714524872642771 68.84794130917012 0 0 0
2327 1 22.941858160303216 -0.17775246856769655 67.11977336169454 0 0 0
2449 1 -0.20656221635808747 0.33681922778127404 68.93358053402363 0 0 0
2331 1 1.950396936449497 4.248177387618557 66.9536904393598 0 0 0
2474 1 1.5911633277994637 6.016627672626529 68.8354036964545 0 0 0
2473 1 24.48021188166722 3.928886000229043 68.80822233736293 -1 0 0
2335 1 5.8949296791582135 4.140494599601364 66.77944656309393 0 0 0
2336 1 3.779469087775759 6.219718094677361 66.96815060738254 0 0 0
2477 1 4.127141122590693 4.250358844249996 69.21695673869914 0 0 0
2478 1 5.9459303229898355 6.263204629455795 69.22421531024199 0 0 0
2339 1 10.139818386354229 3.8732337424205188 67.02690270965124 0 0 0
2340 1 8.106916152236607 5.6758853866059615 67.09048114978162 0 0 0
2481 1 7.683787627578996 4.24488072555583 69.0925089830614 0 0 0
2482 1 10.049621179215244 5.844292669437689 69.22448378763536 0 0 0
2344 1 12.131005287479885 5.874506580450173 67.18069730723556 0 0 0
2485 1 12.26165972942624 3.7455384145862274 69.19870726076363 0 0 0
2486 1 14.094056027550954 6.127971570650245 69.10235873025928 0 0 0
2343 1 14.053612479173308 3.65636679411461 67.01375092622155 0 0 0
2348 1 15.971031767268109 5.95837389987948 67.10645268357877 0 0 0
2489 1 16.032658570925637 3.9237288381576567 68.93393335275763 0 0 0
2347 1 18.115710930301624 3.9746731195295553 66.83820052825473 0 0 0
2352 1 20.42885784491106 5.937231827242674 66.87874619024188 0 0 0
2490 1 18.274372996790188 5.725403956292401 69.03818085951119 0 0 0
2493 1 20.024476542030538 3.952858224002929 68.82931470492525 0 0 0
2332 1 -0.2650015609033929 5.957836121532071 66.94443210110174 0 0 0
2351 1 22.267110987588808 4.048356851702761 67.04261787887145 0 0 0
2494 1 22.697507585693575 5.808303911501534 69.16478958046378 0 0 0
2355 1 1.690194917656814 8.259624210438094 67.2155982887075 0 0 0
2356 1 24.373182715071295 9.800184637956876 67.16305654462556 -1 0 0
2497 1 24.21203251748504 7.636003506796255 69.00540647519242 -1 0 0
2498 1 1.5694089781732068 10.616364512657663 69.03888355547699 0 0 0
2359 1 6.0078988143382395 8.056789109816107 66.7611985037305 0 0 0
2501 1 4.152051244198788 8.25673254909362 69.13372096391484 0 0 0
2360 1 3.9974170673929645 10.035552043185719 67.0034261724575 0 0 0
2363 1 10.00523461304621 7.858849518550317 66.7791235521851 0 0 0
2505 1 7.888514121091729 8.029112228423681 68.8535480061989 0 0 0
2506 1 9.658630447129367 10.012868523616609 69.0170451392857 0 0 0
2364 1 8.176289882228556 10.261466208848235 66.79080167855474 0 0 0
2368 1 11.862567881082402 10.130627442753285 66.6136012318868 0 0 0
2509 1 11.907864064659451 8.207528227075727 68.76540948233813 0 0 0
2510 1 13.667944893876376 10.202471296230874 69.25317857072935 0 0 0
2367 1 13.98190352311798 7.88131739157369 66.96279070815797 0 0 0
2372 1 16.10460430281595 9.740401108998176 67.07901302290628 0 0 0
2513 1 16.21273112953466 7.869899898944965 69.09315580923328 0 0 0
2371 1 18.423498928053256 7.829071117311196 67.0053615914172 0 0 0
2517 1 20.462031917085184 7.684552792808557 68.97768442714494 0 0 0
2514 1 18.087120549570386 9.643569700946998 69.13876390167664 0 0 0
2375 1 22.270926836694024 8.202672671718283 66.92356976242223 0 0 0
2518 1 22.149920790162426 10.026337311529163 69.08185899760795 0 0 0
2379 1 1.8023513675114704 12.658542724454906 67.11924251158433 0 0 0
2521 1 24.222042636801216 12.026778134771078 68.91321049977464 -1 0 0
2502 1 5.716118827390686 10.484661644578289 69.20298579945887 0 0 0
2383 1 6.535289152755039 12.172577586063456 67.02488161237645 0 0 0
2525 1 3.647805411992074 12.349666105338793 69.4199475771552 0 0 0
2529 1 7.865582521842313 12.120360622943506 69.41112583881815 0 0 0
2387 1 10.273763715408185 12.474975653772395 67.15299285486469 0 0 0
2533 1 11.857867869627459 11.935798770009258 69.56062436370675 0 0 0
2391 1 13.67983030136314 12.33417574091315 67.25644909104483 0 0 0
2537 1 16.490050205305018 11.94713740597608 69.22293095663292 0 0 0
2376 1 20.431011405723385 9.965381378849024 67.09778940020956 0 0 0
2395 1 17.782667066762272 11.927368503241812 67.09881628385537 0 0 0
2541 1 19.789930273355846 12.264575718370692 68.83899294912928 0 0 0
2399 1 22.332405229344886 12.30113193084773 66.9723065316698 0 0 0
2522 1 1.525097829317227 14.413977855475453 68.8825697293351 0 0 0
2403 1 1.5208590460561695 16.209585618044045 67.11537057053482 0 0 0
2380 1 -0.2832317692008672 14.448575801370852 67.04554103245897 0 0 0
2545 1 24.37240488113646 16.42121684318078 69.20135321237717 -1 0 0
2384 1 3.8268955186434592 14.654722727632677 67.21952785291768 0 0 0
2549 1 3.7297400106784417 16.32328319868339 69.28196499554758 0 0 0
2407 1 5.842096222654961 16.39556404926936 67.25144694968435 0 0 0
2526 1 5.805716099814472 14.065574918581442 68.9090872909747 0 0 0
2553 1 7.577904508798561 16.170910107368506 69.26161077678157 0 0 0
2388 1 8.175533410981053 14.285223231222007 67.14776574338319 0 0 0
2411 1 9.79529914392034 16.40815183627906 67.23020874543587 0 0 0
2530 1 9.938677001805276 14.26617548294753 69.26193332757708 0 0 0
2557 1 12.096139664729032 16.407970503541414 69.27844141386743 0 0 0
2392 1 12.098308717472305 14.378075458233901 66.93647270471831 0 0 0
2561 1 16.291458673451448 16.390140606156677 69.1171614366475 0 0 0
2396 1 16.081778983483503 14.474895775715224 67.06711463062044 0 0 0
2415 1 14.43552615302086 16.640598285942467 67.06420084309065 0 0 0
2534 1 13.727184140261677 13.656888097839435 69.40160470456817 0 0 0
2400 1 20.309134120607517 14.35330358773248 66.94747543787608 0 0 0
2565 1 20.60543095848236 16.647723490198608 69.37200732157612 0 0 0
2419 1 18.765947721708624 16.427970934037027 67.48873010160315 0 0 0
2538 1 17.819079631493857 14.091000659388028 69.06748233505627 0 0 0
2423 1 22.255834986280743 16.353750031956764 67.45051293407363 0 0 0
2542 1 22.333329734766263 14.298969496068159 69.0826151492083 0 0 0
2546 1 1.5892634013601745 18.193725866454827 69.22186655316625 0 0 0
2427 1 1.5201988515328029 20.133474336161342 67.2848459673695 0 0 0
2404 1 24.141871319631953 18.38049432751604 66.97379456507122 -1 0 0
2573 1 3.673009192623512 20.10796624807903 68.8364748449714 0 0 0
2550 1 5.879993177355604 18.54893165510493 69.24480965491705 0 0 0
2408 1 3.5428410624391082 18.262098199284694 67.10249449626372 0 0 0
2431 1 5.851724052697421 20.258970555216045 67.30084910774661 0 0 0
2577 1 8.14368635332141 20.57924107962812 69.28775367560854 0 0 0
2412 1 7.816251695778055 18.40694868936582 67.36592761684491 0 0 0
2435 1 10.216203806079818 20.143722293362472 67.0353805135835 0 0 0
2554 1 9.854842615640019 18.037797376303416 69.28823561768618 0 0 0
2581 1 12.311702355734138 20.59668993992046 68.87248963337089 0 0 0
2416 1 12.17062230073025 18.167287761072593 67.26554749095354 0 0 0
2439 1 14.287348613202463 20.079427471021148 66.89955086549267 0 0 0
2585 1 16.277557969067914 20.43706632967848 69.10243930675537 0 0 0
2558 1 14.32243449720724 18.66963162193729 69.28662861817563 0 0 0
2420 1 16.73068093668505 18.25728204642691 66.98011967667321 0 0 0
2589 1 20.559806436230684 20.667538458887755 69.13586512526408 0 0 0
2562 1 18.413870538012848 18.40190761422938 69.09642863250392 0 0 0
2424 1 20.52293232127444 18.59543723563607 67.07282687857682 0 0 0
2443 1 18.212551465162075 20.708330013667805 67.18827542551358 0 0 0
2569 1 24.2869443169927 20.403462079524274 69.3328331026768 -1 0 0
2566 1 22.393538977035725 18.641314993499655 69.21061324601098 0 0 0
2447 1 22.523432965725043 20.58147037011871 67.04720782569052 0 0 0
2570 1 1.6138778090378973 22.15226923622005 69.21502688873892 0 0 0
2428 1 24.528713175156426 22.14354132897408 67.17390682540119 -1 0 0
2574 1 6.102027091926459 22.58619021585511 69.23487720218688 0 0 0
2432 1 3.7256433205964763 22.795746399387156 67.12934885563885 0 0 0
2436 1 8.20982445619926 22.256498424930918 67.29749990229715 0 0 0
2578 1 10.153401196980758 22.597888968682717 69.09433703490495 0 0 0
2440 1 12.145382970919492 22.513576804121385 66.9543077520419 0 0 0
2582 1 13.863949195364539 22.603754904398137 69.1723014359876 0 0 0
2319 1 13.864381234357609 24.389613818197155 67.21533883399348 0 -1 0
2444 1 16.3497345779386 22.674589296653245 67.29757625699148 0 0 0
2323 1 18.19168177256466 -0.19218232803846136 66.87669477597504 0 0 0
2586 1 18.442845349842415 22.67143405648622 69.13138072945549 0 0 0
2448 1 20.50328395106099 22.565277835575472 67.13742873580983 0 0 0
2590 1 22.531155853671915 22.67531942622462 68.98989770348456 0 0 0
1853 1 3.75240556641089 20.33659301638003 48.634532288146815 0 0 0
2451 1 1.6283978286148286 24.38399403420148 71.0600151466451 0 -1 0
2452 1 -0.1025509290710411 1.9357744727253507 71.3874223326313 0 0 0
1837 1 12.136234871602417 16.42951088815314 48.81126929014295 0 0 0
2455 1 5.781663748908671 -0.15424570697919404 71.22165277468287 0 0 0
2456 1 3.8071133343053853 1.8818003183023841 71.32918459408259 0 0 0
2721 1 7.8155070441755985 20.288212500650012 73.11169381606172 0 0 0
2548 1 24.530482529980638 18.13947421047922 71.16507414826208 -1 0 0
2459 1 9.685859031592381 0.08585746120126575 71.28881374927366 0 0 0
2460 1 7.8088547007833835 2.180393929554456 71.19114931552187 0 0 0
2571 1 1.699465863685854 20.22372543161695 71.14316101097987 0 0 0
2464 1 11.95739422392392 1.9709282625702262 71.45611133413902 0 0 0
2468 1 16.2897963363056 1.3235241145999677 71.05889188175624 0 0 0
2467 1 18.306972112733547 24.512216965449156 70.8905524322941 0 -1 0
2472 1 20.422998538849782 1.7431940895252684 71.11940298463372 0 0 0
2567 1 22.467316146501044 16.85353516944123 71.16206498407288 0 0 0
2471 1 22.464430036859913 -0.004461358430705942 70.95605184071403 0 0 0
2475 1 1.970116415014798 3.92370874606637 71.2980060525156 0 0 0
2476 1 24.539301323808324 6.0772881606242946 71.28757586317064 -1 0 0
1769 1 16.102597704519823 3.7508839370300864 48.69069075118927 0 0 0
2544 1 20.490862269652187 14.165382329946485 71.00001355106798 0 0 0
2479 1 5.802929713298664 4.227135840764908 71.4063496620492 0 0 0
2480 1 3.558750300720862 6.10345093376445 70.95101568852411 0 0 0
2734 1 22.374367284621044 22.552591160438816 73.10653303856068 0 0 0
2484 1 8.404144982634328 6.019771699239896 71.3291290571542 0 0 0
2483 1 10.080644142032327 3.8865350048703 71.76023190432494 0 0 0
2488 1 12.396446068542476 5.987683031524581 71.37238305107579 0 0 0
2487 1 14.03676284832879 3.725771259119015 71.30229616989436 0 0 0
2492 1 16.273156808835424 5.81503751950091 71.22443701861076 0 0 0
2491 1 18.080687252234387 3.582664539793191 71.10470211871154 0 0 0
2496 1 20.30553640914454 5.596675944091488 70.9995393643508 0 0 0
2495 1 22.51395387574237 3.8797013999211867 70.72393966486851 0 0 0
2499 1 1.8503095512517094 8.156105835652417 70.7249079419536 0 0 0
2503 1 5.844236152202343 7.890261733047039 71.2518703769291 0 0 0
1753 1 24.378164120557702 3.718599764794793 48.58616382474596 -1 0 0
2507 1 9.938265648728118 8.221464832733101 71.1260175088739 0 0 0
2508 1 7.831224515982539 10.017610266236666 71.27788601457482 0 0 0
2653 1 12.223001831034615 7.859250304752768 73.2427451660821 0 0 0
2714 1 1.294325639044637 22.216142871041974 72.94707149164879 0 0 0
2512 1 11.805161783742953 10.079241282704583 71.39551976646172 0 0 0
2563 1 18.14913700965436 15.982366443525928 71.09842396186448 0 0 0
2705 1 16.123357747252786 16.025414285476984 73.22206702473514 0 0 0
2511 1 14.329336785978214 7.893995199269037 71.26732439232009 0 0 0
2516 1 16.03640697685423 9.784004408111727 71.34500027021559 0 0 0
2515 1 18.3952281918582 7.805312809501645 70.9953149770773 0 0 0
2520 1 20.036362236944946 9.99958014287307 71.049340805707 0 0 0
2559 1 14.068632720712069 16.21937219074522 71.23208269018059 0 0 0
2500 1 24.486897951573276 10.24289529985276 70.64627114824566 -1 0 0
2519 1 22.17342456133689 8.119956709693863 71.0217281175662 0 0 0
2523 1 1.5341280594459477 12.136801399158784 71.06946997162794 0 0 0
1865 1 16.12536876815948 20.351661474949132 48.576327618424415 0 0 0
2504 1 3.5786175875418733 10.124749648698648 71.08347218942038 0 0 0
2527 1 5.719838586920155 12.267787205350553 71.48217974492127 0 0 0
2540 1 16.0131435006814 14.105231555375157 71.23739196827594 0 0 0
2531 1 9.756604670766146 12.024664069316056 71.45061224070363 0 0 0
2535 1 14.321402845152623 11.928670177001253 71.47531838856204 0 0 0
2536 1 11.748741377373218 14.087877345800186 71.35911094384605 0 0 0
2539 1 18.106512240642807 12.223938285743516 71.16435336226701 0 0 0
2637 1 20.300959940088788 3.870771925552667 73.04070396915014 0 0 0
2543 1 22.284657428026954 12.105281869772128 71.23877640193254 0 0 0
2547 1 1.4185951344897643 16.15873521357979 71.26733487733574 0 0 0
2524 1 24.26974515586421 14.08217686393266 70.92998677185517 -1 0 0
2528 1 3.6430667377050368 13.925736904355386 71.50851585243532 0 0 0
2551 1 5.697995244889095 16.49090030874362 71.21221346900325 0 0 0
2555 1 9.860439655022887 16.23153580312792 71.47903349294626 0 0 0
2532 1 7.7402915780635215 14.20464022765504 71.12680572525724 0 0 0
2661 1 20.276576745607876 7.943914365913551 72.99880975390766 0 0 0
2658 1 18.17920843675338 10.113367926534782 72.99502812903242 0 0 0
2638 1 22.40581040738352 5.825819588616843 73.2007100448696 0 0 0
2634 1 18.3439043101037 5.7474169761758205 72.96342436127173 0 0 0
2669 1 3.7272179241492234 11.927284528562668 73.17260456766812 0 0 0
2706 1 18.007277586874604 18.490162837008626 73.07059508692885 0 0 0
2610 1 18.11615577583678 1.9089114519272474 73.18122532531854 0 0 0
1829 1 3.9101871488374638 16.290816920965064 48.73888916642163 0 0 0
1733 1 3.9467711080962946 24.29497491791612 48.81143560321992 0 -1 0
1770 1 18.34234126800544 5.993524681425115 48.89226537662788 0 0 0
2729 1 15.989078601898726 20.17872382854182 73.2123905217961 0 0 0
1821 1 20.46308322192338 11.953869509994945 48.96357521399095 0 0 0
1742 1 13.885172012301426 1.5092793172743728 48.76668352461478 0 0 0
1738 1 9.8395024602914 1.9583434778533797 48.67318812772446 0 0 0
1841 1 16.188627324131208 16.256439783028227 48.77836376577152 0 0 0
2685 1 20.20136342436318 11.861735440244889 73.18807768216985 0 0 0
2613 1 20.257755186187783 24.533664964493944 73.04139242246367 0 -1 0
2633 1 16.198831173377766 3.7334197705587258 73.196759681847 0 0 0
2665 1 24.38315482869743 11.808991493744683 72.99973706183201 -1 0 0
2693 1 3.3449989668004347 16.201748771170458 73.110961338745 0 0 0
2718 1 5.809446396590969 22.46999519601586 73.10837158353442 0 0 0
2645 1 3.6492231642732995 7.71906641651107 73.03473116425837 0 0 0
2726 1 14.173294107687918 22.563744877066313 73.05381823056697 0 0 0
1741 1 11.688354937875536 -0.016741107702878344 48.64743821511877 0 0 0
1737 1 8.015582418207607 24.532008511140276 48.69368615695221 0 -1 0
1777 1 -0.1663041581638235 7.36415895034687 48.6857253938689 0 0 0
2594 1 2.0175735215683193 2.005429502941977 73.17049443741959 0 0 0
2717 1 3.649320364405415 20.69409799015842 73.12251492684203 0 0 0
2733 1 20.37124163703143 20.37519425164509 72.94286946057952 0 0 0
2606 1 14.401980791361877 1.6099858825148639 73.14110680084517 0 0 0
2618 1 1.6299443198762154 5.8982035420999175 72.98037933025404 0 0 0
2713 1 24.450474803840773 20.215726803302843 73.04308316603314 -1 0 0
2614 1 22.471116030795113 2.077264821333058 72.54178694044913 0 0 0
2682 1 18.300570471542258 14.22524062589876 73.0119896262905 0 0 0
2678 1 13.979647829785408 14.311627362790958 73.19530557208469 0 0 0
2694 1 5.48936590817799 18.252256761312395 73.20923897452622 0 0 0
2630 1 14.496458288855548 5.564431833319305 73.1219861553864 0 0 0
2662 1 22.154491850431224 9.823867588062116 73.07518734780052 0 0 0
1857 1 8.019874226971925 20.403595347348514 48.803360112454115 0 0 0
2681 1 16.34982531515627 12.126149175182073 73.19452426286068 0 0 0
2690 1 1.6473953977332163 18.419200499476318 73.21988643604735 0 0 0
2598 1 5.817547569205332 1.966593466889858 73.22493146006343 0 0 0
1870 1 22.553240985441757 22.69723421379352 48.55626814909281 0 0 0
1850 1 1.78213381082317 22.28255289174136 48.55388036482083 0 0 0
1754 1 1.6683196927259172 5.313609259964439 48.541156510093465 0 0 0
1833 1 8.01729139676618 16.54915404911354 48.53901353361422 0 0 0
2596 1 24.272420672568206 1.443109202722511 75.24610741774188 -1 0 0
2595 1 1.9844769216899083 24.18327507965042 75.42812133179493 0 -1 0
2600 1 3.9526099804522214 1.9336214573538557 75.11396459560265 0 0 0
2599 1 5.921164163192038 24.519881515805142 75.48863028813108 0 -1 0
2604 1 8.180121839706228 1.963387515484471 75.45678229071305 0 0 0
2603 1 9.948077579035203 24.509745464762922 75.31284471883444 0 -1 0
2602 1 9.978926095720055 1.83110245231375 73.66399019182512 0 0 0
2608 1 12.215876060903085 1.8706464334312862 75.22043355587053 0 0 0
2701 1 11.92385283376087 16.241611702160654 73.45641750528722 0 0 0
2612 1 16.28862342175823 1.4801923160625212 75.39807271550939 0 0 0
2607 1 13.904004320429847 24.541270420024787 75.07250499902463 0 -1 0
2605 1 11.911970643943437 -0.14374426953364783 73.52423508963139 0 0 0
2616 1 20.85004108339626 1.6695548826187672 75.08707929351849 0 0 0
3335 1 22.64537144571784 -0.015703920898907986 95.62233800579136 0 0 0
2619 1 1.7544044194500685 3.807785600721931 75.23890677055294 0 0 0
2620 1 24.578908376564428 5.586387355344383 75.08723521696561 -1 0 0
2674 1 9.757465252737145 14.561683721477632 73.38711836449392 0 0 0
2623 1 5.977297504544026 4.027833111843698 75.37883949400458 0 0 0
2624 1 3.631821211316398 5.9989679346515805 75.32452703341218 0 0 0
2641 1 24.183594577578074 7.7854695433995715 73.32706267126531 -1 0 0
2627 1 10.162211952389669 3.9307201953052875 75.30149982211174 0 0 0
2628 1 8.225888861171864 5.832620195920221 75.5208050490298 0 0 0
2677 1 11.726847044426203 11.943104358650169 73.47196945449664 0 0 0
2632 1 12.040383625962765 6.087087407195675 75.2289984612336 0 0 0
2698 1 9.786521300363308 18.816234029111136 73.62531694698671 0 0 0
2631 1 14.403251721843999 3.940608141413767 75.18655559752597 0 0 0
2636 1 16.79918646225144 6.068771049241448 75.07663263218288 0 0 0
2622 1 5.963717175984159 6.033290179870387 73.36617786050095 0 0 0
2657 1 16.303823221641558 7.971908548720293 73.28411873433552 0 0 0
3436 1 24.560457545769143 22.67487840632328 95.64815202127912 -1 0 0
2635 1 18.38232731612704 3.6421697160418796 74.99755834760333 0 0 0
2640 1 20.20058587750063 5.647200506953502 75.02571871203332 0 0 0
2609 1 16.266394138665298 24.435596644937768 73.40684211617182 0 -1 0
2639 1 22.46906646077147 3.769394017415948 75.11846653032919 0 0 0
3331 1 18.469055994313084 24.38967604468487 95.76585128985843 0 -1 0
2643 1 1.4361171045144892 8.030774962381011 75.20302721633573 0 0 0
2644 1 24.303979123799415 9.798240671159338 75.28132408381634 -1 0 0
3456 1 20.692026190757034 22.51305774525538 95.86490920529224 0 0 0
2647 1 5.649885097703947 7.84417796141234 75.27116374192562 0 0 0
3452 1 16.73490826500349 22.302216043193305 95.9753155678423 0 0 0
2651 1 10.0473512497056 7.988201078878076 75.47087378241852 0 0 0
2652 1 7.964973886297306 10.049704202703415 75.61263822231885 0 0 0
2656 1 12.048139818699347 9.74076019116163 75.34301635759317 0 0 0
2655 1 14.139707155863091 7.711808290175107 75.19484709074172 0 0 0
2660 1 16.41122144210607 10.408212776312459 75.27348883017493 0 0 0
2722 1 9.887956467880247 22.590811169040215 73.45437589286001 0 0 0
2659 1 18.320956743770022 8.234556492265435 74.96225544708167 0 0 0
2664 1 20.26122529134042 10.00841975445194 75.1488547436376 0 0 0
105 1 8.038983701408464 16.627144661962582 97.91278416182905 0 0 -1
3448 1 12.517093852609847 22.43993868807096 95.97354794770754 0 0 0
2663 1 22.280293817365237 7.867297713012791 75.24397057794721 0 0 0
2667 1 1.729180955059721 11.680810563272827 74.98261404910318 0 0 0
2617 1 -0.27999836975488474 3.6781363452441918 73.40557276384689 0 0 0
2648 1 3.7459193998650697 9.983978341283718 75.2420996823804 0 0 0
2671 1 6.005665801680618 12.302957963385147 75.30590263518192 0 0 0
2675 1 9.860763393763945 12.332668962345425 75.37034886596516 0 0 0
2625 1 7.885447511197448 3.8850431231064793 73.30182046986988 0 0 0
3323 1 9.847402013835756 0.07868041864739128 95.85996362386987 0 0 0
2679 1 13.907724846441106 11.96861035836335 75.47172015119904 0 0 0
2683 1 18.5094230083968 12.152399548970369 75.2796981510592 0 0 0
2687 1 22.458594809250652 11.889993908015432 75.26087507667594 0 0 0
2689 1 24.159845728793755 16.06992187312875 73.25057676831705 -1 0 0
3444 1 7.928803871879211 22.686596518140576 95.82744188341422 0 0 0
2691 1 1.6306074242225486 16.315923852268178 75.3238908154236 0 0 0
2672 1 3.712450812988716 14.274998984141705 75.38177384209027 0 0 0
2695 1 5.537135445381279 16.60597053307913 75.34873605472436 0 0 0
2650 1 9.700941033983968 9.885482869391554 73.46762456546634 0 0 0
2654 1 13.814777800465745 10.197405044445423 73.27611819156667 0 0 0
2676 1 7.851841344043482 14.670683269902126 75.36653084359247 0 0 0
2699 1 9.625798231621419 16.49699061167299 75.24989727194438 0 0 0
2649 1 7.743046395928067 8.245241883781357 73.24819442562577 0 0 0
2680 1 11.913004862187835 14.061177483383174 75.25020417573796 0 0 0
2709 1 20.371435309169247 16.727562357562007 73.29660025125051 0 0 0
2684 1 16.21131048904969 14.154003733360389 75.35954220475958 0 0 0
2703 1 14.010472083028318 16.215121343459764 75.40463508924196 0 0 0
2621 1 3.9902892102157734 3.8694827996714745 73.328131359992 0 0 0
2688 1 20.103414567365867 14.209472927527695 75.09308873035889 0 0 0
2707 1 18.394322845895598 16.45195605391867 75.10555136005328 0 0 0
2725 1 11.7384938049328 20.704763890822555 73.39815716237402 0 0 0
2668 1 24.41376224135635 13.812744144637332 75.29559710655533 -1 0 0
2711 1 22.35736456988528 16.002059888873077 75.35478557271077 0 0 0
42 1 18.80943565733555 6.000313818637917 97.6856070520301 0 0 -1
2715 1 1.226679682783617 20.567759181209247 75.27805458721613 0 0 0
2692 1 24.548244051442282 18.194679577941457 75.20130903417015 -1 0 0
2666 1 1.3987683755120075 14.174528762864268 73.40296351326435 0 0 0
2696 1 3.323934750066272 18.759716549438117 75.21222323867988 0 0 0
2719 1 5.865669388124801 20.629859918107833 75.22565296843499 0 0 0
2629 1 12.336178694314379 4.03373971817371 73.429922097125 0 0 0
2601 1 7.725614185396958 -0.1140075186983375 73.56687674920812 0 0 0
81 1 7.651765494116203 12.132509788447353 97.69915021931365 0 0 -1
2700 1 7.650345081435861 18.371055887233368 75.16085197106867 0 0 0
2723 1 10.103661142022522 20.392196500451412 75.93073713635044 0 0 0
38 1 14.39477932860034 5.826349244855084 97.9356172202308 0 0 -1
2704 1 12.075117026982337 18.246115621277895 75.05697777665546 0 0 0
2727 1 13.91038369505487 20.407608519430205 74.86998549911877 0 0 0
2708 1 16.102263478434097 18.04985857718379 75.31566156567831 0 0 0
3440 1 4.03835833878209 22.386403551551034 95.94494654757887 0 0 0
2712 1 20.74502094384236 18.657105984775562 75.39358673032808 0 0 0
2731 1 18.072020927843152 20.31476696039109 75.12331754081325 0 0 0
3315 1 2.1185553044296768 24.376105764431536 95.62820406466682 0 -1 0
2646 1 5.931262473206779 9.946278201001029 73.34664318880311 0 0 0
2716 1 24.464588607536804 22.683921066321837 75.15322849349215 -1 0 0
2710 1 22.404024825222685 18.71760292202245 73.36176912346849 0 0 0
69 1 20.59702322865039 8.289323775000424 97.93320372122051 0 0 -1
2720 1 3.973497737201014 22.358890680633024 75.31798343630328 0 0 0
2724 1 8.087435313833888 22.412296965538204 75.46127067204355 0 0 0
2728 1 12.096108887532363 22.257638824420965 75.1773339839699 0 0 0
2732 1 16.162723121837963 22.157034479002164 75.14695792398575 0 0 0
2702 1 14.463034174167687 18.012221964137552 73.40408408251764 0 0 0
2611 1 18.308246400185347 24.423692517448032 75.43452729036673 0 -1 0
2736 1 20.718819862452303 22.58251947843553 75.14855100928682 0 0 0
3455 1 22.653635438454735 20.353725794714464 96.20148860819074 0 0 0
2735 1 22.695711224929365 20.561975007917297 75.23803212859895 0 0 0
2615 1 22.294096667202194 24.381035236953323 75.61666822251678 0 -1 0
2738 1 1.7716391456487486 1.3505366532746272 77.0876757567874 0 0 0
2739 1 1.6192337423170566 24.487756140964372 79.5872937653497 0 -1 0
2742 1 6.1917223210581405 1.6645746044205432 77.40820247822336 0 0 0
2744 1 3.815185696919679 1.6181834356655165 79.14424938438071 0 0 0
2748 1 8.19509245292294 1.791990037049497 79.39287537016546 0 0 0
2746 1 9.961397273416457 1.6973135850512935 77.45515937488258 0 0 0
2745 1 7.975450068926374 -0.17214322930748055 77.46748115087172 0 0 0
2752 1 12.144869670292996 1.909120208555625 79.34156485755287 0 0 0
2749 1 12.027650786140027 -0.23853056098401026 77.55345927748786 0 0 0
2750 1 14.28923289760213 1.6447340017566028 77.10601966643202 0 0 0
2756 1 16.400120485755085 1.771800355925253 79.478786484968 0 0 0
2753 1 16.279669916182318 24.502446148532982 77.30826847390821 0 -1 0
2754 1 18.524241275433205 1.9281288223844562 77.47909148882613 0 0 0
2760 1 20.63275124145228 2.4338574337779657 79.28448809556116 0 0 0
2757 1 20.27339856687414 24.380883477360285 77.446806614134 0 -1 0
2755 1 18.270214297503767 -0.20647271106406606 79.39214541237737 0 0 0
2740 1 24.512103816835875 1.7906295717008973 79.67857453530138 -1 0 0
2758 1 22.725731660644385 1.8292684771715946 77.25835187950437 0 0 0
2762 1 1.8400723715895393 5.831128413412349 77.45079862210704 0 0 0
2763 1 1.6161844873636926 3.5488166606667906 79.32514910496403 0 0 0
2761 1 0.08810879697426277 3.7421644969476295 77.28746183496494 0 0 0
2765 1 3.8661622249717116 3.860777966150816 76.97479553056843 0 0 0
2766 1 5.893992107788048 5.664730029472545 77.2135845920713 0 0 0
2767 1 5.643548602112554 3.840048172335413 79.58124631728538 0 0 0
2768 1 3.934157259100382 5.919856805673221 79.19213056378365 0 0 0
2769 1 8.11889298308563 3.7390880622707527 77.46821583900464 0 0 0
2770 1 10.036245503421814 6.156745835060673 77.71353112955137 0 0 0
2772 1 7.835539054633211 5.931136164281336 79.17682856315602 0 0 0
2771 1 10.105585997138565 3.8010230573800055 79.50625466224255 0 0 0
2773 1 12.023974795016315 3.6609008639959884 77.2543566115526 0 0 0
2776 1 12.209324565394024 6.00712726850988 79.63696444172172 0 0 0
2774 1 13.985253315193512 5.628664876522387 77.32576838310933 0 0 0
2775 1 14.25788649416814 3.5402398602273597 79.3251433420022 0 0 0
2777 1 16.324526194154227 3.8144946824396717 77.62287790078037 0 0 0
2780 1 16.336479440440364 5.819108103583099 79.21626114015564 0 0 0
2778 1 18.675938289506835 5.9654614213883645 77.21070460244053 0 0 0
2779 1 18.281837164973158 3.9114763410304176 79.5818649265596 0 0 0
2781 1 20.4446588047544 3.998618056700881 77.08575267946645 0 0 0
2784 1 20.63321531251543 5.491537747645732 79.18941215583325 0 0 0
2764 1 24.277129590357077 5.850210070224223 79.58681460335421 -1 0 0
2782 1 22.508877404035204 5.720472231861204 77.19827153271754 0 0 0
2783 1 22.703331558753952 3.809279462169888 79.4190933597277 0 0 0
2786 1 1.503911932360867 9.96680279029456 77.46440265678885 0 0 0
2787 1 1.9495069150713178 7.7859283552053 79.44313023304497 0 0 0
2785 1 24.578015918206958 7.747403352469753 77.309377287753 -1 0 0
2789 1 3.611545361354504 7.98453326812132 77.28346329378408 0 0 0
2790 1 5.561565510781277 9.917574312739541 77.55140102769639 0 0 0
2791 1 5.875309026317626 8.037460617199335 79.58161994753826 0 0 0
2792 1 3.703597236065665 10.011314472180358 79.38317164752115 0 0 0
2793 1 7.8409911400596926 7.82073520664424 77.38779108157982 0 0 0
2796 1 8.04852814624549 9.986004477898256 79.3401984496142 0 0 0
2795 1 10.448592889493318 8.214598419869432 79.53037187420725 0 0 0
2794 1 10.152499152898551 10.192854150039224 77.43962205950766 0 0 0
2797 1 12.185617973959221 7.891335559992347 77.41409635503857 0 0 0
2800 1 12.110260899105812 10.23398058791447 79.39060193712936 0 0 0
2798 1 14.387727972455885 9.881158109713368 77.2896301389176 0 0 0
2799 1 14.098664536291672 7.978924950908887 79.50346292660083 0 0 0
2801 1 16.2717920042796 7.9008474130616 76.99899155204713 0 0 0
2802 1 18.339959507603606 9.819147635737849 77.32378585030546 0 0 0
2803 1 18.71725202515939 7.414456688093309 79.17381647193744 0 0 0
2805 1 20.59552712273332 7.72425965378843 77.40298907771935 0 0 0
2808 1 20.304377383761143 10.130964580591327 79.2241812206135 0 0 0
2788 1 -0.26931847649534457 10.097610256095843 79.46131846366004 0 0 0
2806 1 22.744241233871662 9.9027552021455 77.62211959493288 0 0 0
2807 1 22.28741794391661 7.7026568170170355 79.32676029120279 0 0 0
2811 1 1.6860053730603612 12.406471366837408 79.15705315541766 0 0 0
2809 1 24.549576111880743 11.933872398392625 77.23840374237952 -1 0 0
2813 1 3.691960248292408 11.977894797898577 77.28378134250701 0 0 0
2815 1 5.676053225112157 11.94523479620871 79.09115672132933 0 0 0
2816 1 3.693264392034923 14.170814529142723 79.2149455202431 0 0 0
2817 1 7.627700605239219 12.122284715658262 77.38493120050282 0 0 0
2819 1 9.798975306780012 12.152287059173243 79.42055219660642 0 0 0
2821 1 11.780568098462895 12.487820404382736 77.33049118531247 0 0 0
2804 1 15.953719496939218 9.99706009032296 79.30043033602988 0 0 0
2823 1 14.240725318371002 12.215905619579118 79.59368842796513 0 0 0
2825 1 16.18334845376323 12.08649431312 77.11448318661238 0 0 0
2827 1 18.219823242844747 12.082350708070448 79.32450853634319 0 0 0
2829 1 20.713358470186648 11.803863287465848 77.22976506678256 0 0 0
2831 1 22.72370810637705 12.085516880192097 79.43704350154917 0 0 0
2810 1 1.9391318280955305 14.09591772086928 77.13018235417209 0 0 0
2835 1 1.4203872979343934 15.94965848832951 79.26955947916287 0 0 0
2814 1 5.867393558629212 14.179699449629618 77.11762391792044 0 0 0
2837 1 3.47818086393747 16.27172267105719 77.10207904282984 0 0 0
2839 1 5.9379722092571825 16.24617324916162 79.16771772020067 0 0 0
2820 1 7.912534881349778 14.17840288558859 79.70653956385561 0 0 0
2841 1 7.61944820468221 16.53250262429932 77.30388232491444 0 0 0
2818 1 9.548421298586852 14.547574540047137 77.30593054888848 0 0 0
2843 1 10.008802620413501 16.238941535390786 79.52508549524728 0 0 0
2824 1 11.866522369358233 14.201199316088516 79.51535649127925 0 0 0
2845 1 11.859657955518431 16.1999227989159 77.53939907811642 0 0 0
2822 1 13.98747692253335 14.095281407813566 77.45179935597835 0 0 0
2828 1 16.358936937173713 14.333700840544457 79.59357449700136 0 0 0
2847 1 13.754478455610412 16.485109089498863 79.47408528735897 0 0 0
2849 1 16.12906458856464 16.0023431120919 77.22567407428659 0 0 0
2826 1 18.294896113073452 13.641693721826083 77.35644171998354 0 0 0
2832 1 20.588364139616274 13.897157131156378 79.31712868457439 0 0 0
2851 1 18.439057553555635 16.298727237219545 79.10618447919552 0 0 0
2853 1 20.356262467172314 16.166363062253808 77.48584179866364 0 0 0
2812 1 24.228279429049614 14.220795580512098 79.40716908165581 -1 0 0
2833 1 -0.27883334611762084 16.362092351605398 77.42738373616118 0 0 0
2830 1 22.406738710453464 13.925729102885551 77.36659316916302 0 0 0
2855 1 22.38510861147946 15.795521270779398 79.4234147208654 0 0 0
2834 1 1.7125523280510189 18.261346840728592 77.54240654768324 0 0 0
2859 1 1.9646418798029095 20.424097649869076 79.18918491996598 0 0 0
2836 1 24.381606431233532 18.10828364175594 79.40380424476697 -1 0 0
2838 1 5.16891698648325 18.412226044236753 77.06110477970867 0 0 0
2840 1 3.863221368125573 18.241229389781104 79.82568422378523 0 0 0
2861 1 3.9312664628727347 20.60244272867819 77.6160262457575 0 0 0
2863 1 6.038910875391865 20.24682231347581 79.27871625643553 0 0 0
2844 1 8.176657621878608 18.141920878113496 79.63668827126875 0 0 0
2865 1 7.951717110682695 20.08289729734623 77.46813033824077 0 0 0
2867 1 10.059207286659145 20.504533062816186 79.62763017880926 0 0 0
2842 1 9.979749520982446 18.09222483539301 77.73674216294705 0 0 0
2848 1 11.957539618050166 18.439278082952754 79.48592345833401 0 0 0
2869 1 12.380208266027873 20.370365848988186 77.27564368958542 0 0 0
2846 1 14.238496131029251 18.162767297672808 77.02160947316926 0 0 0
2852 1 16.136689527273713 18.44163918695866 79.41937344074839 0 0 0
2871 1 14.21336149707802 20.283929080092335 79.35471921273572 0 0 0
2873 1 16.026647958239664 20.344383708797928 76.94487754388174 0 0 0
2850 1 18.01625209885834 18.22546539762166 77.48503107816938 0 0 0
2856 1 20.415566970306845 18.306171239589254 79.03284997982317 0 0 0
2875 1 18.175109439630237 20.34770671088085 79.22589613873589 0 0 0
2877 1 20.49690272510975 20.747104037363698 77.09424986571403 0 0 0
2857 1 -0.19185761200764162 20.35444486025594 77.6737946452204 0 0 0
2854 1 22.44647317013343 18.089675027197444 77.19957863293806 0 0 0
2879 1 22.347248988990444 20.20909747679277 78.87526459355931 0 0 0
2737 1 -0.2856904745012574 24.34895371230013 77.42521287081664 0 -1 0
2858 1 1.4414456015176444 22.254889885983957 77.24488151523931 0 0 0
2860 1 24.375870414053384 22.331363015621925 79.44872236386749 -1 0 0
2743 1 6.0177365111494465 24.286418159673794 79.45487114907547 0 -1 0
2741 1 3.7805829560892494 -0.23696595288933195 77.22664834877381 0 0 0
2862 1 5.9013355610236635 22.231905838397097 77.37585470752197 0 0 0
2864 1 3.88693925818289 22.792053945294597 79.35810658011246 0 0 0
2747 1 9.992335395406304 24.461538163629356 79.28114197230076 0 -1 0
2866 1 10.041101595433 22.575883273413673 77.48058169781584 0 0 0
2868 1 7.850575023492086 22.190938438971507 79.52977463073069 0 0 0
2872 1 12.281050832538105 22.27432176204755 79.60977899241587 0 0 0
2751 1 14.252912130771884 24.36192167062743 79.31904434431019 0 -1 0
2870 1 14.133921245239623 22.609965289367246 76.92558370742537 0 0 0
2876 1 16.172251909067718 22.350048010405224 79.3110597093416 0 0 0
2874 1 18.437515983744415 22.440702111123578 77.13618823942971 0 0 0
2880 1 20.578520392846862 22.406350699165806 79.1262382107123 0 0 0
2759 1 22.68543545227616 -0.10422329142038847 79.37639887648413 0 0 0
2878 1 22.73247831479873 22.443288272417355 77.22485572006036 0 0 0
2882 1 1.8043858760496465 1.5456698594393012 81.30304173335784 0 0 0
2886 1 5.74669302951239 1.62866547314 81.55705549290792 0 0 0
2888 1 4.181689770622699 1.700160762720201 84.01870080350531 0 0 0
2892 1 7.914802919454642 1.7907661084134983 83.457798925491 0 0 0
2890 1 9.960001369492218 1.9881136223648554 81.29087734108882 0 0 0
2896 1 12.111763224411787 1.3677651551685428 83.35689273377483 0 0 0
2894 1 14.545888705104714 1.6177608782124455 81.38439797386474 0 0 0
2900 1 16.23447987302338 1.5617204697804603 83.51259491053023 0 0 0
2895 1 14.35942033336166 24.4652535535309 83.35233433574831 0 -1 0
2897 1 16.514493128072534 24.286808729199663 81.64582334739166 0 -1 0
2898 1 18.329630010736896 1.7264202117569272 81.36243774231099 0 0 0
2904 1 20.436207658268472 1.9348410193177252 83.63375548620226 0 0 0
2884 1 0.0064532027555119775 1.539542706745747 83.38048969231474 0 0 0
2902 1 22.37452136606238 1.8403602941600155 81.5345678224883 0 0 0
2906 1 1.7137201769839048 5.8375739333226955 81.54373373480882 0 0 0
2907 1 2.066933750147334 3.813091046573887 83.60311214257686 0 0 0
2909 1 3.458447447446504 3.9311698545096743 81.23535861081382 0 0 0
2910 1 5.714577162842339 5.701341794663275 81.6233175776095 0 0 0
2911 1 6.010715940586538 3.7142146722396316 83.86677355194328 0 0 0
2912 1 3.519995945027805 5.9478199161041845 83.77113653671225 0 0 0
2913 1 7.878157373602393 3.9170283605701677 81.3834003201336 0 0 0
2916 1 8.176646608313145 5.742000128808853 83.58116349300823 0 0 0
2914 1 9.65137206101042 6.026463213051503 81.30997061601036 0 0 0
2915 1 10.10780502697873 3.5944520099496295 83.68762755548582 0 0 0
2917 1 12.27477152897294 3.7239443123317626 81.4868168100599 0 0 0
2920 1 11.97278815386854 5.84305206461273 83.55851678374881 0 0 0
2919 1 13.829107207937525 3.6866268335835644 83.61126062499679 0 0 0
2918 1 13.959078436508584 6.1395373933100155 81.7664762792426 0 0 0
2921 1 16.170838521469104 3.8815102196609645 81.54583837469784 0 0 0
2924 1 15.790094103084826 5.680573521483707 83.44130057534326 0 0 0
2922 1 18.186558036343712 5.732587037580808 81.68005704405957 0 0 0
2925 1 20.598825491367304 3.8912509263729467 81.65836760835069 0 0 0
2923 1 18.44600568569281 3.551092805852207 83.58470164089817 0 0 0
2928 1 20.426443679935765 5.885172536630464 83.71407767951399 0 0 0
2908 1 -0.12234306365172892 5.638029527747484 83.52976341374537 0 0 0
2905 1 -0.07568781756928575 3.7771406313780735 81.64719093577455 0 0 0
2926 1 22.528824295311562 5.736596656442198 81.80702816699855 0 0 0
2927 1 22.64568055826214 3.4197872124857236 83.72135660298059 0 0 0
2930 1 1.6336852764926657 9.79885330159485 81.77338320061008 0 0 0
2931 1 1.6482796541192548 7.939380823793913 83.9907992516174 0 0 0
2929 1 24.369193424547174 7.7569761579557 81.38645828337957 -1 0 0
2932 1 24.252649738218224 9.979916789080821 83.71687730670678 -1 0 0
2933 1 3.8894242488828015 7.946057824223171 81.42644794111331 0 0 0
2934 1 5.97285718018998 10.41464580476338 81.08289964636236 0 0 0
2935 1 5.89955577467022 7.780532576200507 83.35960461152641 0 0 0
2936 1 4.050998661033027 10.341830651442844 83.30418121704733 0 0 0
2937 1 7.928036876137197 8.171367428638614 81.44578674863703 0 0 0
2938 1 9.906879592068442 10.055811207896966 81.62644438684663 0 0 0
2940 1 8.38378306040697 10.128194728094979 83.77264749026662 0 0 0
2941 1 12.031771677452163 8.095975012530523 81.44779798811695 0 0 0
2944 1 12.636358419319937 9.883375989339656 83.72891805038458 0 0 0
2945 1 15.973408045438969 7.587458832198265 81.56556398187993 0 0 0
2943 1 14.707821941261681 8.01471152124413 83.87873104246299 0 0 0
2948 1 16.225137270601998 10.505478023463931 83.57539163213713 0 0 0
2942 1 14.32514206546269 9.861363847818186 81.53018793780402 0 0 0
2947 1 17.860553906800092 8.235622762402139 83.4061562416735 0 0 0
2952 1 20.233187041646996 9.770396122977292 83.5079603148402 0 0 0
2949 1 20.07984368466703 7.639079608292546 81.45659044303721 0 0 0
2946 1 18.110073113507166 9.573923701452639 80.81164863371939 0 0 0
2951 1 22.38322155072259 8.070970422120293 83.4292905774372 0 0 0
2950 1 22.287691309296388 9.809476414112803 81.62583367695555 0 0 0
2955 1 1.8447251835235194 11.97940790714473 83.54044467446909 0 0 0
2957 1 3.370906482909855 12.02522885466698 81.15973729736393 0 0 0
2959 1 6.196229946035684 11.91901179885939 83.41558817663719 0 0 0
2958 1 5.907741413577151 13.819027859799535 81.15494271454799 0 0 0
2961 1 8.061374800939038 12.21764791983546 81.71976562357767 0 0 0
2962 1 10.028488714236712 14.241262447589198 81.51168713621888 0 0 0
2965 1 12.176829670981297 12.321043386973459 81.45464114926736 0 0 0
2969 1 16.36899630001936 12.206668509446159 81.37599817325969 0 0 0
2967 1 14.098119724800672 12.314906948657415 83.26611048945807 0 0 0
2973 1 20.41269938309063 11.89077342919631 81.56600515322577 0 0 0
2971 1 18.091777212925958 12.499189425791362 83.51439255563389 0 0 0
2953 1 -0.1339150596803142 12.071679877015033 81.60705381783572 0 0 0
2975 1 22.729983762557932 11.935601750125475 83.56346795474204 0 0 0
2954 1 1.6112079471675875 14.060698273941545 81.31832654916221 0 0 0
2979 1 1.8561648907881092 16.514330250546003 83.62732055217612 0 0 0
2956 1 24.439565919215525 14.114484737990367 83.35739818818993 -1 0 0
2960 1 3.8949695235224873 13.777463201649176 83.49535392402964 0 0 0
2981 1 3.7125328417924353 16.211305108359134 81.67636775419842 0 0 0
2983 1 5.683481743258012 15.922648531841377 83.75957290203448 0 0 0
2964 1 8.12311396364761 14.09338626254014 83.68364249993215 0 0 0
2985 1 8.038880001767657 16.007584137381933 81.56158344609409 0 0 0
2987 1 9.968358713424193 16.044339748627102 83.57957837217174 0 0 0
2989 1 12.025303321215393 16.85616508648014 81.65768382271492 0 0 0
2968 1 12.029478321990743 14.280535587058141 83.63273738977799 0 0 0
2966 1 14.11004687983265 14.56022010033042 81.43610243280645 0 0 0
2993 1 16.48741216594185 16.333797146398418 81.52513584712386 0 0 0
2991 1 14.32970699981225 16.187283818199084 83.60641535424332 0 0 0
2972 1 16.07821731654845 14.113185832471292 83.80015810261796 0 0 0
2970 1 18.520774701782678 14.251225042559108 81.22893399511204 0 0 0
2997 1 20.478113229212457 16.083677883365276 81.1962236789384 0 0 0
2976 1 20.67484646137525 14.105299025971155 83.6373486231422 0 0 0
2995 1 18.31849215703029 16.386995620319176 83.41659544027578 0 0 0
2977 1 -0.2646224253864466 16.395716602179156 81.51901440918735 0 0 0
2974 1 22.271098317361098 14.133629637040798 81.65492045802131 0 0 0
2999 1 22.39468364485909 16.601108967822853 83.32264840520503 0 0 0
2978 1 1.489067901673918 18.579597367636055 81.56200361179515 0 0 0
3003 1 1.6267109060254934 20.64408527066204 83.43281704409901 0 0 0
2980 1 -0.28606996730141176 18.661023815081705 83.43783290200824 0 0 0
2982 1 5.832689649888808 17.936616631617625 81.5090282227878 0 0 0
3005 1 3.951834562524666 20.61961214813838 81.22275293262777 0 0 0
3007 1 5.818354609659535 20.45916757847059 83.28198126929539 0 0 0
2984 1 3.8523612030044045 18.62164877749256 83.33612965687908 0 0 0
2986 1 10.011568178692986 18.49870311297365 81.87664431819937 0 0 0
3009 1 8.002495467028451 20.328921153431622 81.62792546412388 0 0 0
2988 1 7.733247875572841 18.020842690910946 83.40772631204658 0 0 0
3011 1 10.134203317927845 20.476541311268626 83.617138275609 0 0 0
3013 1 12.5247076228762 20.35588709287353 81.69913268823262 0 0 0
2992 1 12.097411062907192 18.32393263783883 83.60713075217163 0 0 0
2990 1 14.303070617076983 18.38421018731306 81.39821245426745 0 0 0
3017 1 16.11937276189587 20.363257709975187 81.43820930122868 0 0 0
2996 1 16.042755855543977 18.353671237584187 83.374577414268 0 0 0
3015 1 14.259222491243591 20.688271268041916 83.86591521076986 0 0 0
2994 1 18.22182209390824 18.449188622222962 81.38357889249477 0 0 0
3021 1 20.35627722103965 20.480256641105242 80.93359719416887 0 0 0
3000 1 20.276800299955227 18.321877180364204 83.58223054797614 0 0 0
3019 1 18.633517183038535 20.641284707483933 83.24002832301323 0 0 0
3001 1 24.511943102362633 20.477472384363843 81.24648765213311 -1 0 0
2998 1 22.450231299801096 18.35092251972261 81.18240941100836 0 0 0
3002 1 2.113616398614341 22.77941815821427 81.53702161700684 0 0 0
2883 1 1.557575367847355 24.5170653414341 83.84351380431679 0 -1 0
3004 1 24.553379412201238 22.85095578971994 83.47077793260641 -1 0 0
2887 1 5.875581401517629 24.410152099654717 83.82179533059133 0 -1 0
2885 1 4.29536603624812 24.39443113377299 81.43572188530783 0 -1 0
3006 1 6.011977211554655 22.43998920907468 81.48502527776654 0 0 0
3008 1 3.623484112617438 22.7763955685993 83.74369132414333 0 0 0
2891 1 10.33843737247412 24.303751613365 83.52657459409264 0 -1 0
2889 1 8.53381386376542 -0.25485232483506864 81.70654628621884 0 0 0
3010 1 9.84002572521835 22.41735597941871 81.57877697409998 0 0 0
3012 1 7.775692046571844 22.431999203802356 83.61650142664067 0 0 0
2893 1 12.153921137866133 24.24149549152248 81.33786394845328 0 -1 0
3016 1 12.39066024173114 22.605142791523846 83.58507565402891 0 0 0
3014 1 14.185068023915765 22.368984570520844 81.48376901558558 0 0 0
3020 1 16.29142940274512 22.161806245792967 83.58122439613223 0 0 0
2901 1 20.569166519710965 -0.08649444861616129 81.16050627558508 0 0 0
2899 1 18.549235154624412 24.320123463557138 83.48715123217548 0 -1 0
3018 1 18.454363700369328 22.65436404148788 81.44631122126441 0 0 0
3024 1 20.589948769877424 22.527581561245107 83.31957326177613 0 0 0
2903 1 22.457155453458178 -0.1226392355890491 83.32760873668747 0 0 0
2881 1 24.460576305446278 0.030289474563403196 81.55315423924517 -1 0 0
3022 1 22.473355897751375 22.624935069116376 81.33527186561906 0 0 0
3026 1 1.8866871791987245 2.1238824427076737 85.41501806972863 0 0 0
3030 1 6.197042601771287 1.5804528887934803 85.71877125373382 0 0 0
3032 1 3.7787904252474362 1.6442197291870404 87.6738099233637 0 0 0
3031 1 5.7605218998467995 24.298744396742265 87.85971038382934 0 -1 0
3034 1 10.064747299308095 1.5703312771132054 85.77808351706636 0 0 0
3036 1 8.063502413705317 1.3572034869401537 87.64288558888882 0 0 0
3037 1 11.821642952865764 24.4195419706451 85.5793231700778 0 -1 0
3040 1 11.819587560958137 1.4167390501161599 87.90996082542165 0 0 0
3038 1 13.93923796007823 1.6824556555687056 85.31560644710726 0 0 0
3042 1 18.111765209953887 1.6492013704822968 85.90130242492 0 0 0
3048 1 20.248640802254968 1.6334876150406106 87.82288632648778 0 0 0
3046 1 22.738789798979123 1.6721977518164886 85.77862524750182 0 0 0
3028 1 -0.09496377403597006 1.596913317600685 87.80922082612213 0 0 0
3050 1 1.5925018276601615 5.702360211290705 85.72304974879975 0 0 0
3051 1 1.834623887926393 3.718921605236308 87.92947636913186 0 0 0
3049 1 24.476781730828243 3.6678034783920164 85.48095308946822 -1 0 0
3053 1 4.096595425649427 3.6212941138939794 85.61773231806845 0 0 0
3054 1 5.80638492798089 6.062203569552456 85.35293780486015 0 0 0
3055 1 6.259872260325538 3.586206404441864 87.52175858195685 0 0 0
3057 1 8.201592292917647 3.609675214924313 85.48965607300451 0 0 0
3058 1 10.342589726181174 5.742827244066578 85.72359818273728 0 0 0
3059 1 10.312339224612199 3.741001136736987 87.75137724302996 0 0 0
3061 1 11.86419772507587 3.5463118634672792 85.57764131897525 0 0 0
3062 1 13.861713843878801 5.739679744112731 85.38855215889794 0 0 0
3065 1 16.162591587147393 3.7327482080055034 85.42098938449476 0 0 0
3066 1 18.064534987631408 5.857032394911323 85.51658832757502 0 0 0
3069 1 20.31285069114129 3.699006670332997 85.59194119199773 0 0 0
3070 1 22.4106190567005 5.908032473369447 85.4290911532216 0 0 0
3074 1 1.616592177668826 10.180655129915124 85.55443182149259 0 0 0
3073 1 24.371276234623007 7.647373583886063 85.26529172638234 -1 0 0
3077 1 3.9923773733084866 8.074204846436723 85.38413194548 0 0 0
3078 1 6.010693410578965 9.929519179432631 85.49932797518665 0 0 0
2939 1 9.99439436252317 7.782007020278144 83.24714822533525 0 0 0
3081 1 8.016980979062435 7.966941596297428 85.31071980089365 0 0 0
3083 1 9.991262257528085 8.06506330881616 87.48492943655123 0 0 0
3085 1 12.260200425776215 7.775357351866228 85.57569562221275 0 0 0
3089 1 16.519746940845106 7.96985507718974 85.87417457418917 0 0 0
3086 1 14.323870158392427 9.773422202619834 85.97552770810799 0 0 0
3090 1 18.15236165220111 10.176840905059164 85.43454102971535 0 0 0
3093 1 20.391617666296476 8.254262827486079 85.52191749350669 0 0 0
3096 1 20.884112142551075 10.320034388882478 87.80155872727806 0 0 0
3094 1 22.483014494903024 10.067605766796971 85.68780355192516 0 0 0
3097 1 24.495348150167125 12.37874937582113 85.55744788401984 -1 0 0
3101 1 3.75555568883782 11.889522331655819 85.58306958992134 0 0 0
2963 1 10.529885756135759 11.924532393055602 83.38978809181495 0 0 0
3082 1 10.426093469753395 9.783428682436261 85.49817043125677 0 0 0
3105 1 8.20426097123843 11.969242373051316 85.62918593349212 0 0 0
3109 1 12.356714278247495 11.950623911357361 85.70045820370757 0 0 0
3113 1 16.03314765566273 12.05598352570839 85.75448563848903 0 0 0
3117 1 20.66209581912929 12.116643897883915 85.5372096582735 0 0 0
3098 1 1.9296433082605482 14.028340065491273 85.85524720139884 0 0 0
3121 1 24.514252005128803 16.461462957894916 85.56737902183107 -1 0 0
3102 1 5.951920450724294 13.629886263830121 85.55335408459462 0 0 0
3125 1 3.592336345273123 16.287933502950615 85.56765689154074 0 0 0
3106 1 10.226715225668519 14.138013832888854 85.246297368419 0 0 0
3129 1 7.872731745116665 16.045436710592796 85.50467865040346 0 0 0
3133 1 12.35922940227154 16.486141625354982 85.64948998939224 0 0 0
3112 1 12.333400089966661 14.21260517928298 87.49861973491363 0 0 0
3110 1 14.269864413373801 14.354112216608105 85.71729751056586 0 0 0
3137 1 16.407577631051595 16.136206373183974 85.44738675375629 0 0 0
3114 1 18.444279771719508 13.954621724951437 85.6005675013752 0 0 0
3141 1 20.363366595215883 16.13639957475292 85.43989570012519 0 0 0
3118 1 22.561898774366483 14.385940058441099 85.62757076751635 0 0 0
3143 1 22.532746608296737 16.246662695494578 87.77933240737224 0 0 0
3122 1 1.5318253463845328 18.42347165092226 85.41893029762969 0 0 0
3145 1 24.534657563952226 20.453085705554628 85.48583072140525 -1 0 0
3124 1 24.322839629452293 18.497065931928844 87.56902821572152 -1 0 0
3126 1 5.715060448357932 18.081744729483802 85.71699579021387 0 0 0
3149 1 3.8755531259235463 19.976171797934676 85.46800385118578 0 0 0
3130 1 9.56177578458572 18.1968388879039 85.70551091736385 0 0 0
3153 1 7.506029395897169 20.327212232808293 85.4445859132326 0 0 0
3155 1 9.852521274579049 20.482156112317803 87.2855022809614 0 0 0
3157 1 12.054098813098049 20.50110000499368 85.59893265963143 0 0 0
3134 1 14.021655764981018 18.5874736652708 85.48077964812163 0 0 0
3161 1 16.118367280805675 20.43950477281964 85.7877351400698 0 0 0
3138 1 18.18414361168769 18.689684509467092 85.43354474559439 0 0 0
3165 1 20.134208416271548 20.667271502638442 85.4885975662105 0 0 0
3023 1 22.501366056138398 20.523506631603283 83.39304730672268 0 0 0
3142 1 22.389268247555 18.582806169801756 85.40041996511914 0 0 0
3167 1 22.422188771188942 20.628175959730143 87.43717262681659 0 0 0
3146 1 1.5819596300196377 22.630811909618792 85.52593083901482 0 0 0
3025 1 -0.26666046879781663 -0.1795638669811221 85.71840877464464 0 0 0
3027 1 1.8424760004796834 24.529606585740204 87.83834802812501 0 -1 0
3029 1 3.7617581611769406 -0.07627069645024565 85.66427874805777 0 0 0
3150 1 5.67755375756547 22.076124452441952 85.52337912699224 0 0 0
3152 1 3.679135681537225 22.395673543894105 87.24656800584364 0 0 0
3033 1 8.096863438207318 -0.17551978566711884 85.46581537191588 0 0 0
3154 1 10.066940688198985 22.559300174200132 85.73645475765397 0 0 0
3035 1 9.89175709420755 24.340672684839298 87.86676775389293 0 -1 0
3041 1 16.112937864441168 -0.2710014006075099 85.95923857206049 0 0 0
3158 1 14.507245404619892 22.491574976420196 85.7343544196548 0 0 0
3164 1 16.338095425665458 22.528506105420128 87.65631947629373 0 0 0
3045 1 20.34183827428974 -0.17219279183986183 85.55103879072922 0 0 0
3162 1 18.15101591051551 22.382532627663714 85.44226327211487 0 0 0
3166 1 22.528913800239884 22.520058543787748 85.33425147791846 0 0 0
3170 1 1.6182321750470807 1.9652835864684115 89.83168810627743 0 0 0
3174 1 6.271703565286804 2.0621955484276038 89.97942781918806 0 0 0
3173 1 3.8660358578231326 -0.21837773641361774 90.01914657500791 0 0 0
3178 1 10.091334258169196 1.7817925155881538 90.09590350666906 0 0 0
3177 1 7.893488533373521 24.25952935913577 89.68972722627808 0 -1 0
3182 1 14.584159136269037 1.5386381666523896 90.05112043668777 0 0 0
3044 1 16.241426472886886 1.7242857175685558 87.6151024880345 0 0 0
3039 1 13.988962560750497 0.015250817627458613 87.78249803484044 0 0 0
3186 1 18.43225423094502 1.728777660529221 89.76677878344276 0 0 0
3189 1 20.72638148274777 24.302875897133298 89.67796884750797 0 -1 0
3190 1 22.879992250287135 2.0581737443435433 89.4062984244456 0 0 0
3047 1 22.406547080918667 -0.1199404796051807 87.68457763056452 0 0 0
3194 1 2.224752150672273 5.715294108263124 89.82621141803449 0 0 0
3056 1 4.090879911394726 5.493250728468766 87.42227230470405 0 0 0
3197 1 3.710682217326913 3.7578312746438476 90.06002316228671 0 0 0
3198 1 5.795233070581795 5.711117493381301 89.64400446028154 0 0 0
3060 1 7.728941604194629 5.855608618817007 87.6035217420712 0 0 0
3201 1 8.321474778527856 3.3666019780491845 89.56491052590093 0 0 0
3202 1 9.75647979909977 5.988088585004125 89.57439600775277 0 0 0
3064 1 12.175684908563213 5.744337311393406 87.64548306435617 0 0 0
3205 1 12.442084400421097 3.9266049650064687 89.58960464357764 0 0 0
3206 1 14.38746876158378 5.971597362060761 89.77527662361055 0 0 0
3063 1 14.212935422456368 3.6303146995629128 87.269320919487 0 0 0
3068 1 16.289623594689818 5.938758474480951 87.70232617312274 0 0 0
3209 1 16.140339284390308 3.6514177293236765 89.74449483310696 0 0 0
3067 1 18.279713223996193 3.7469028922210983 87.65050644355986 0 0 0
3210 1 18.34286830034988 5.542969132877831 89.48783854304938 0 0 0
3072 1 20.353768303498853 5.86537259292159 87.37145199204699 0 0 0
3213 1 20.473481142809224 3.9155943018232993 89.7848744323449 0 0 0
3071 1 22.31883462096391 3.852108165220436 87.4942771009305 0 0 0
3052 1 24.480276417494153 5.890844162019561 87.81498102424499 -1 0 0
3193 1 0.04248998653410119 4.397006994704081 89.88189293738034 0 0 0
3214 1 22.58632548638709 5.83344667043171 89.46548523186271 0 0 0
3075 1 1.9255417018091343 7.613017275374733 87.45200107880115 0 0 0
3218 1 1.8370513615790571 9.849233346314128 89.42094978043696 0 0 0
3217 1 24.49555692464551 8.130307386592039 89.4799801646603 -1 0 0
3079 1 5.84829595977965 7.894385197197742 87.46090259110773 0 0 0
3080 1 3.6170452929806043 10.106566537430938 87.63798339026621 0 0 0
3221 1 3.981556958822056 7.727742539001341 89.30951711741494 0 0 0
3222 1 5.5461933766992795 9.950597569101234 89.42690695991982 0 0 0
3084 1 8.195552374406573 10.211975862141653 87.48615675790751 0 0 0
3225 1 7.901614570636145 8.018987673598035 89.45331459958629 0 0 0
3226 1 10.225951437594675 9.940664569573665 89.5143652391107 0 0 0
3088 1 12.298149223688508 10.14753693702717 87.88958459982078 0 0 0
3229 1 12.122536065222684 7.6216877474552405 89.97548433539228 0 0 0
3087 1 14.37689332108085 7.7793530047090105 87.79321868450319 0 0 0
3092 1 15.779253364945468 10.257464799638427 88.11070800657407 0 0 0
3233 1 16.285905600707935 7.884523798687956 89.56017804533877 0 0 0
3230 1 14.23940105271151 9.706432402346408 89.90197239011508 0 0 0
3091 1 18.49931253902904 8.043310218796705 87.54544200307174 0 0 0
3234 1 18.24081017136511 10.474456217726374 89.40106318667137 0 0 0
3237 1 20.57813583188543 7.85547837476296 89.38500769882114 0 0 0
3076 1 -0.15591123348667504 10.078188156415125 87.69547714898536 0 0 0
3095 1 22.632734875831773 8.110917482106471 87.43367698948342 0 0 0
3238 1 23.110974090562436 10.616913460697518 89.37769252562552 0 0 0
3099 1 1.8398102972433548 12.003782788675926 87.46950837550469 0 0 0
3103 1 5.926254231066501 12.037352148330658 87.60039611123895 0 0 0
3245 1 3.8849682220259574 12.366580741689875 89.66306529127101 0 0 0
3107 1 10.391343074536767 12.06195994723164 87.2903162862101 0 0 0
3249 1 8.15739237175525 11.960161385159076 89.37151592190722 0 0 0
3253 1 12.405196784872837 11.982272278807494 89.82089998225223 0 0 0
3111 1 14.130674780241964 12.212770608248183 87.7267877344089 0 0 0
3257 1 16.177636667478037 12.102313515438334 90.17640986556884 0 0 0
3115 1 18.99873667205331 12.36429067111688 87.37697027584446 0 0 0
3261 1 20.790123367943682 12.515097447415979 89.624554454606 0 0 0
3241 1 0.08190920257696421 12.421815309835335 89.66848708841539 0 0 0
3119 1 22.681122156483724 12.56250411262243 87.51631884028691 0 0 0
3123 1 1.83746637653989 16.396196311427296 87.43098945491587 0 0 0
3242 1 1.9437598708079484 14.651160456554381 89.66755133956639 0 0 0
3265 1 -0.13235095724874935 16.371845213473314 89.89685730657158 0 0 0
3104 1 3.951369096706501 14.104614831249783 87.56627509575048 0 0 0
3246 1 5.915654950546167 14.310066969468409 89.31478975445876 0 0 0
3127 1 6.081151347675486 16.205307342526453 87.38951283789345 0 0 0
3269 1 4.036098169542398 16.373343801711087 89.23805121999476 0 0 0
3250 1 10.427140565802212 14.152276633330555 89.31404671455755 0 0 0
3108 1 8.014658787543302 13.981260660166283 87.63617537216604 0 0 0
3131 1 9.979771793112414 16.097491471047313 87.23905359310282 0 0 0
3273 1 8.180734022609865 16.146756641333894 89.30223188619908 0 0 0
3277 1 11.929830678336085 16.230581323129066 89.42999462520834 0 0 0
3135 1 14.549877493749376 16.377675194547557 87.64854079845094 0 0 0
3254 1 14.280059915860342 14.196132859002915 89.43107056268323 0 0 0
3116 1 16.31770015456847 14.158347664608172 87.37003777438218 0 0 0
3281 1 16.40746311722825 16.116718330915603 89.89788400957119 0 0 0
3258 1 18.48182223214951 14.020866211746016 89.78660098289387 0 0 0
3120 1 20.7033433665854 14.297405826435336 87.45205088030588 0 0 0
3139 1 18.427112542890868 15.985474799098673 87.2459299523668 0 0 0
3285 1 20.187836182643796 16.454356193001402 89.62543967978274 0 0 0
3100 1 -0.15784342026732884 14.277064762607209 87.73349819650909 0 0 0
3262 1 22.38581366455558 14.741853603925751 89.96022927709168 0 0 0
3266 1 1.8868009095789917 18.405282598951644 89.47021531639055 0 0 0
3147 1 1.5405091943619689 20.478952668476722 87.60822092226726 0 0 0
3128 1 3.8087095184149753 18.46939272873074 87.68989630538519 0 0 0
3270 1 5.813284721950977 18.237449280934236 89.43177489067634 0 0 0
3151 1 5.952455953864125 20.4205889784595 87.67690022940201 0 0 0
3293 1 4.035368537200742 20.735180791755425 89.86338021059288 0 0 0
3132 1 7.745615999535506 18.19874514553112 87.55484906301734 0 0 0
3297 1 7.850392367919655 20.309483602433588 89.41656414248007 0 0 0
3136 1 12.000859717255207 18.339736413331515 87.6923575544493 0 0 0
3274 1 10.04945175488828 18.552138427159527 89.5295021055932 0 0 0
3301 1 12.06983816364647 20.41192318847942 89.85646428811407 0 0 0
3140 1 16.252423189476993 18.143224127331457 88.01070644306805 0 0 0
3278 1 13.85605366170338 17.975143055310546 89.6619401489024 0 0 0
3159 1 13.742881239850165 20.412042011058247 87.6841261826743 0 0 0
3305 1 15.924688210878163 20.189183166281694 89.66599877107612 0 0 0
3282 1 18.05360008195456 18.316922030545918 90.20684173119687 0 0 0
3144 1 20.537216889955808 18.10620875660026 87.480138042911 0 0 0
3163 1 18.32466875107522 20.290472384199532 87.54234230239646 0 0 0
3309 1 20.053605049265244 19.958858492389588 89.54288243685886 0 0 0
3286 1 22.603877709195384 18.607534422588785 89.4644220082682 0 0 0
3289 1 -0.15242421352856106 20.492620351066563 89.82598635226688 0 0 0
3290 1 2.029612284795075 22.498012572299558 89.67265358955868 0 0 0
3294 1 5.961274939715875 22.6163888777172 89.88213520448295 0 0 0
3156 1 8.05211828317716 22.567258689663753 87.344299585979 0 0 0
3298 1 9.625918576505454 22.137430479289847 89.44084794856761 0 0 0
3181 1 12.20550657518976 24.401563457472562 89.82629859844394 0 -1 0
3160 1 12.250631644368692 22.63330331746937 87.70052248021832 0 0 0
3185 1 16.334004143849054 -0.10551017830195489 89.49534407089652 0 0 0
3302 1 14.09634677666199 22.13552799294471 90.01292696250135 0 0 0
3043 1 18.14692541173906 24.266846810325305 87.60070155329541 0 -1 0
3306 1 18.492619794705735 22.420043960490247 89.51223810262545 0 0 0
3168 1 20.48128321312165 22.403414150276433 87.34822821159506 0 0 0
3148 1 -0.3105933198648707 22.655272442930837 87.65546810113386 0 0 0
3169 1 24.57515350847594 24.35049509194723 89.76746412251754 -1 -1 0
3310 1 22.546608972498145 22.189527646051268 89.69049529476632 0 0 0
3314 1 1.9535175703783811 1.6796015383363314 93.74052252496602 0 0 0
3176 1 3.8023442600133093 1.6436098067301017 91.75636879566974 0 0 0
3171 1 1.6536653323675352 24.490476179079387 91.86541948090732 0 -1 0
3318 1 5.559426399406165 2.1388801637064208 93.74127797442523 0 0 0
3180 1 8.149544717314784 1.723176354784795 91.9427087081593 0 0 0
3321 1 7.948421415632778 0.09447583700452072 94.03145352668258 0 0 0
3322 1 10.538581412194143 1.7624391054103627 94.09331168989229 0 0 0
3179 1 10.3794806492604 -0.045978618117635595 92.17294743326542 0 0 0
3184 1 12.496635584303476 1.4879764762110044 91.5347728460521 0 0 0
3326 1 14.470545160348163 2.238890347283115 93.8905723271912 0 0 0
3188 1 16.451097393559667 1.8955828238786174 91.83396866557703 0 0 0
3183 1 14.658524786701848 24.524516507901236 91.80653743503842 0 -1 0
3330 1 18.603532455437726 1.493648553898437 93.6921060363002 0 0 0
3192 1 20.58125855825363 1.5557996828794247 91.60293708145517 0 0 0
3172 1 -0.24604402329692945 1.6164487463299821 91.5804326392882 0 0 0
3334 1 22.740288346536545 1.690002271808227 93.5555005460038 0 0 0
3195 1 2.0734151930301588 3.833308433513298 91.84540498309988 0 0 0
3338 1 1.6441186254980495 5.962340930022907 93.73528088479685 0 0 0
3341 1 3.638957744896558 4.221422022260781 93.73744144739513 0 0 0
3199 1 6.01152119406627 4.215431295850586 92.03211410921386 0 0 0
3200 1 4.081824238547213 6.092479560383303 91.50271782348315 0 0 0
3342 1 6.055883587599496 6.2553525035120625 93.57180141693152 0 0 0
3204 1 7.949480417146818 6.290137929130531 91.4528425505433 0 0 0
3345 1 8.080421790542712 4.15433732598921 94.01020963093441 0 0 0
3346 1 9.83828990584632 5.908516309602661 93.86854372980255 0 0 0
3203 1 9.979996072343289 3.9415868654784987 91.73044954253771 0 0 0
3208 1 11.775233207469949 6.028719291046033 91.96549677133186 0 0 0
3349 1 11.970327087403232 4.080415592793032 93.84615111343717 0 0 0
3207 1 14.316612354737101 3.508813158957351 91.69093164938411 0 0 0
3350 1 13.905274910149073 5.809991314418237 93.66172647478203 0 0 0
3212 1 16.650544957356722 6.095082418726966 91.4317283899338 0 0 0
3353 1 16.553478921716103 4.185029189535375 93.4256116055063 0 0 0
3211 1 18.50217617770199 3.7247490252685624 91.57258006097305 0 0 0
3354 1 18.754075156159086 5.6542197050969545 93.60798383503663 0 0 0
3216 1 20.495950167925233 6.00419997423881 91.42289566209902 0 0 0
3357 1 20.98396384417647 3.7520910392283113 93.39781095063415 0 0 0
3337 1 -0.19012994236079966 3.7796521000707566 93.62786194916166 0 0 0
3196 1 0.010024364817835862 6.060096366379087 91.59034309453938 0 0 0
3215 1 22.6908531176737 3.893592887807255 91.69089890569808 0 0 0
3358 1 22.370692567421425 6.266201144341004 93.76002186531849 0 0 0
3219 1 1.8529452406383902 7.988290885608301 91.47762062028673 0 0 0
3361 1 24.461817067689406 8.16738587920544 93.57971357448531 -1 0 0
3362 1 1.6207821792049295 9.768399606379171 93.69398595910775 0 0 0
3223 1 5.999543135928126 8.117659399222234 91.49596425972635 0 0 0
3224 1 3.4967359825670057 10.030389842930758 91.68567833075849 0 0 0
3365 1 3.75230879287796 7.880022541862498 94.18480411908163 0 0 0
3366 1 5.704549691951382 10.107991647827282 93.43621092525837 0 0 0
3227 1 9.99364435903303 7.969502693378741 91.87099862626042 0 0 0
3228 1 8.171543207289297 9.867521880730488 91.21890407103723 0 0 0
3369 1 8.061711097203293 8.024309174011897 93.82395460016147 0 0 0
3370 1 10.199387364133154 10.189887969688288 94.06383151388025 0 0 0
3232 1 12.289245823011226 9.787126396191331 91.55494772295515 0 0 0
3373 1 11.844634523112143 7.969501838010707 93.9271891236715 0 0 0
3231 1 14.35932288627454 8.062875768885801 92.05033613417606 0 0 0
3236 1 16.304829687020142 9.851781496307707 91.5817330714394 0 0 0
3377 1 16.71517118107358 7.878723563069993 93.25597659028861 0 0 0
3374 1 14.343689806716483 9.703501317405673 94.25149403647748 0 0 0
3235 1 18.556751897033653 8.180113363729852 91.22444363965269 0 0 0
3378 1 18.773626795911337 10.207378647890023 93.55806665578964 0 0 0
3240 1 20.685672529768002 10.282580964791036 91.54760833597263 0 0 0
3381 1 20.421779493778825 8.217407093482228 93.19564323900673 0 0 0
3220 1 -0.15538881982672462 10.046336456709007 91.65307074430584 0 0 0
3239 1 22.426851225131706 7.99199776706333 91.61752931299696 0 0 0
3382 1 22.823874487271663 10.22350728094246 93.62525625122763 0 0 0
3243 1 1.8440969891958674 12.131588263542328 91.70196577418002 0 0 0
3247 1 5.975400106385937 12.043350047088433 91.45737056848603 0 0 0
3389 1 3.789127305955712 12.423002230836596 93.55805548294325 0 0 0
3251 1 10.261361871129596 11.778622531375328 91.8124812322732 0 0 0
3393 1 8.1219789537383 12.566073278316862 93.18077225798228 0 0 0
3394 1 10.118985668668007 14.226973246246947 94.0854367196464 0 0 0
3397 1 12.17151240502697 12.280378036805079 94.02673464419979 0 0 0
3255 1 14.116790731607551 11.509939187732924 92.40071328097181 0 0 0
3401 1 16.26491770865033 11.947825194529623 93.90784169332534 0 0 0
3259 1 18.137177769894745 12.247859397537354 91.64854942556505 0 0 0
3405 1 20.565504586111548 12.044774713580395 93.45199179454767 0 0 0
3385 1 24.56176861719995 12.69315186704213 93.91170848949989 -1 0 0
3263 1 22.820268843921994 12.544102681255191 91.83942875725648 0 0 0
3386 1 1.969037477513186 14.35731582385032 93.78136752246326 0 0 0
3267 1 2.056032709584286 16.817534512562055 91.40455817002774 0 0 0
3248 1 3.6951071792441477 14.522331631524622 91.62864434287127 0 0 0
3390 1 6.139965684037112 14.539394563894614 93.78504825808827 0 0 0
3271 1 6.328131415528934 16.121639587949154 91.52593193944293 0 0 0
3413 1 3.9000282148464747 16.298484745515744 93.63981149612283 0 0 0
3252 1 8.068779550067703 14.159040594142754 91.17104445700076 0 0 0
3275 1 9.800546774018281 16.199491806673805 91.52790906085579 0 0 0
3417 1 8.078007332325118 16.299194564731295 93.70514959049902 0 0 0
3256 1 12.166237231133696 14.12935677373678 91.4518276175724 0 0 0
3421 1 12.077170122659076 16.389227157129845 93.91205915496334 0 0 0
3279 1 14.198695158509901 15.904268028141955 91.77830225601676 0 0 0
3398 1 14.1761421173327 14.070732674546383 93.83858320223712 0 0 0
3260 1 16.28415383335314 14.112273251026904 92.12001943678524 0 0 0
3425 1 16.348484962022518 16.04067725129245 93.89239279002757 0 0 0
3402 1 18.442573055055053 14.129336349187666 93.76963300887061 0 0 0
3264 1 20.5996832998663 14.498440905312103 91.86521670293729 0 0 0
3283 1 18.292882819559736 16.219466597438498 91.72256796690166 0 0 0
3429 1 20.488399246889642 16.17147943604821 94.17643230464128 0 0 0
3244 1 -0.059086550221417955 14.379661727753007 91.66979796989636 0 0 0
3409 1 -0.28553277534358 16.379195375528255 93.68390805040463 0 0 0
3406 1 22.324042377354157 14.165033321167316 94.00311199521201 0 0 0
3287 1 22.723009123938425 16.402505565643388 92.1642519396521 0 0 0
3410 1 1.8559819810196174 18.43974056553082 93.69435904886294 0 0 0
3291 1 1.8742177017308421 20.553979301595454 91.51801388971563 0 0 0
3433 1 24.122936133275733 20.424008767164132 93.7091598629276 -1 0 0
3268 1 -0.05927190457635084 18.5110922237225 91.71706132985366 0 0 0
3272 1 4.11907049391481 18.44740929040077 91.64057256847519 0 0 0
3414 1 6.118086912956389 18.213484290593357 93.57085278282909 0 0 0
3295 1 6.055112408149221 20.452355068121 91.77565891424231 0 0 0
3437 1 4.051785749679821 20.22046383681098 94.02784421401913 0 0 0
3276 1 8.186068155968325 18.589390756403994 91.58715440206763 0 0 0
3418 1 10.34726195457615 18.26999843737125 93.68234531323566 0 0 0
3299 1 10.255524165780768 20.758232967947656 91.68441401839988 0 0 0
3441 1 8.146553996767906 20.5181299707291 93.95790860876181 0 0 0
3280 1 11.761965718785316 18.19189436119273 91.45972106970873 0 0 0
3445 1 12.210296933527937 20.601772428707513 93.87151344105573 0 0 0
3422 1 13.959799754717244 18.03973970414873 93.55181569217288 0 0 0
3284 1 15.955369067870706 18.217073795312302 91.76170981291145 0 0 0
3303 1 14.187954600297953 20.355882671109377 91.99661097470843 0 0 0
3449 1 16.409141424541435 20.179281994583576 93.96096259840829 0 0 0
3426 1 18.202420149834552 18.074933771849942 93.65011341150804 0 0 0
3288 1 20.337367719818694 18.24047965551194 91.4281575944683 0 0 0
3307 1 18.38872277785141 20.355739611525593 91.85382968173244 0 0 0
3453 1 20.420305235861715 20.663186922827435 94.04440265010476 0 0 0
3430 1 22.22069896051868 18.349224722858573 94.16931439247705 0 0 0
3311 1 22.588657613659212 20.358191485157796 91.69629969340082 0 0 0
3313 1 24.55844011842165 0.011727809361845698 93.79098018479996 -1 0 0
3434 1 1.8134908593875254 22.349219850765287 94.04600000556485 0 0 0
3175 1 5.790561312679855 0.11959373951898955 92.12895698097623 0 0 0
3317 1 3.787958850368266 24.348700770457647 93.97250451686341 0 -1 0
3296 1 3.571202445546774 22.441341201734808 91.8549755256858 0 0 0
3438 1 5.672919751298908 22.58780692221201 93.7902073995568 0 0 0
3300 1 8.033607112102066 22.790184793955355 92.1516906336426 0 0 0
3442 1 10.227722799480356 22.600003914619883 94.03347465014352 0 0 0
3325 1 12.100375063595628 -0.17888517293722647 94.18034570307606 0 0 0
3304 1 12.557867004230541 22.886993441300362 91.97200485225056 0 0 0
3446 1 14.46478973696829 22.3953035944793 93.81593192606647 0 0 0
3329 1 16.36606195594427 -0.15412557097926083 94.32073553266616 0 0 0
3308 1 16.48314444525786 22.298847981326517 91.66954681045203 0 0 0
3187 1 18.677131464334423 24.476055379729445 91.67150298313422 0 -1 0
3333 1 20.566137818178557 24.454400422194638 93.56501395758485 0 -1 0
3450 1 18.234563888515115 22.70550380140692 93.57307783356609 0 0 0
3312 1 20.417830731491325 22.206826208214217 91.48846432579003 0 0 0
3191 1 22.635161930103664 24.49122977118951 91.64957763188599 0 -1 0
3292 1 0.016464545964411215 22.178320730160493 91.79683041615098 0 0 0
3454 1 22.515907849360804 22.572891546470856 93.57059993531743 0 0 0
3319 1 5.814647409487749 -0.011150395490017895 95.69216723600218 0 0 0
3320 1 3.844160948023184 1.9176666372928484 96.04329751006281 0 0 0
25 1 -0.2162757728951289 4.232575752968162 97.9066184480559 0 0 -1
3324 1 8.010733846686206 2.0728423542358434 96.09476067322817 0 0 0
2626 1 9.985298620019256 6.087852622343593 73.47352155543729 0 0 0
3328 1 12.334511213248852 1.7999624622640291 96.05610464096966 0 0 0
3327 1 14.359556144986165 0.01986303520439192 95.8558183340869 0 0 0
3332 1 16.843120462504242 1.8028089382546453 95.93972668748091 0 0 0
3336 1 20.7195220868747 1.8846134603611713 95.74076444765154 0 0 0
3451 1 18.44710738941492 20.345052665505335 95.60011365091336 0 0 0
3316 1 24.494740114166103 1.9502885579834595 96.03762699402805 -1 0 0
3339 1 1.5498828928987847 4.067013699041284 95.82269594460143 0 0 0
3343 1 6.091902975582675 3.8501436917803 95.88838728471 0 0 0
3344 1 3.842517646202653 5.91062616426049 96.07538118687407 0 0 0
3400 1 12.220804898919072 14.336505605083026 95.88286130042562 0 0 0
3432 1 20.065961969671267 18.23137363425343 95.89536031503769 0 0 0
3348 1 7.964496257470026 5.921138178506671 96.19809490947367 0 0 0
3347 1 10.112695789538597 3.8373012556088204 96.02740315357175 0 0 0
3352 1 12.139538303907102 5.923104570327356 95.74228921814543 0 0 0
3351 1 14.265166743053115 3.8717240701320756 95.90309120529784 0 0 0
3356 1 16.761834208553008 5.9303861518519625 95.8689092458489 0 0 0
3423 1 14.273843312268768 16.016784658826985 95.61332273577949 0 0 0
3447 1 14.363699996175722 20.582740147883513 95.57090885796191 0 0 0
3355 1 18.866959078620354 4.000700024706246 95.48562110723006 0 0 0
3360 1 20.528512192707705 6.263810781621096 95.87421166046195 0 0 0
3428 1 16.263544665191993 18.105561103838475 96.23739034285819 0 0 0
3340 1 -0.28545021860522124 6.224103239233997 95.48800185485598 0 0 0
3359 1 22.830537558794795 3.8797382764511443 95.4224136910897 0 0 0
3363 1 1.99282268785276 7.995794598997936 95.9652957903655 0 0 0
3367 1 5.9459533848501485 8.050130270182477 96.12156994856542 0 0 0
3368 1 3.5921325092681253 9.90767107334755 95.85734880328116 0 0 0
2686 1 22.429407082134066 14.342600615150298 73.30205754785956 0 0 0
3424 1 12.076414307060709 18.246797426016904 95.71860163969862 0 0 0
3371 1 10.188458329789972 7.9946374063448395 95.80596607001044 0 0 0
2597 1 3.8248606726067456 -0.13618725714306748 73.5307428818968 0 0 0
3443 1 10.167655530512166 20.201013197299403 95.65406302207666 0 0 0
3376 1 12.108388287452769 10.163005094725701 95.68569524532623 0 0 0
3408 1 20.268929444277386 14.311177284485076 96.11957649863174 0 0 0
3375 1 14.135490962577018 7.63447699298129 95.76507392094248 0 0 0
3380 1 16.417087532333483 9.876293383419464 95.7069783458019 0 0 0
3384 1 20.498033434702517 10.404629183822507 95.45069610910738 0 0 0
3379 1 18.47609828113538 7.719884186042754 95.61179603446124 0 0 0
3420 1 8.093675506597615 18.195621743003862 95.62501332461966 0 0 0
3427 1 18.331422434612815 16.117795953835817 96.1305815666503 0 0 0
3364 1 24.57296102959455 10.20012211240872 95.70550411534578 -1 0 0
3383 1 22.428926283506485 8.299600811385117 95.95477341279772 0 0 0
3387 1 1.6685275854361639 12.002232737849852 95.67750952816837 0 0 0
3391 1 5.9503987359780135 12.385950587214374 95.363653505685 0 0 0
3372 1 7.735537263387254 10.297451530223608 95.64155193539568 0 0 0
3395 1 10.208707706060197 12.612059577945468 96.34454119718922 0 0 0
2670 1 5.554446535542538 14.264552137774619 73.3066275114601 0 0 0
3416 1 4.0552767128366325 18.268036926606598 95.69906387949908 0 0 0
3399 1 14.338512455001375 11.907882610728722 96.26098305609088 0 0 0
3412 1 -0.19024199343804016 18.382682428115253 95.72516781046232 0 0 0
3403 1 18.523745617016107 12.23053685953187 95.65071390820003 0 0 0
3396 1 7.9022670992498245 14.454013828110748 96.02630443981903 0 0 0
3407 1 22.678879511569516 12.220286962661284 96.10339258138126 0 0 0
3388 1 24.55366170117943 14.236172568512153 96.08834206101272 -1 0 0
3411 1 1.8050126215767381 16.672931000511518 95.83196642053619 0 0 0
3404 1 16.29378910565823 13.873173101284033 95.90976352045928 0 0 0
3392 1 3.781166797439636 14.500810998900752 95.60278836735174 0 0 0
3415 1 5.989152333529668 16.362472158786154 95.79007165896527 0 0 0
3431 1 22.471983345835454 16.113546822724274 96.10588038104206 0 0 0
3439 1 6.109332149179112 20.289646902128354 95.77147348843951 0 0 0
3435 1 2.005771586565043 20.25360729173326 96.02591402571872 0 0 0
3419 1 10.096977035353166 16.430194082068454 95.87317599735925 0 0 0
2673 1 7.889458639058093 12.436117481543576 73.33619311843364 0 0 0
74 1 1.9676726908649735 14.767666586369673 97.915938258654 0 0 -1
125 1 4.1302646792241955 20.373055481574994 97.35583274734014 0 0 -1
21 1 20.92120341260306 24.477402859249395 97.78400317239931 0 -1 -1
77 1 3.4228813783775163 12.50345155093751 97.73203248906808 0 0 -1
65 1 16.513392388756557 7.92721875437881 97.69698520621478 0 0 -1
61 1 12.016388890565327 8.239365850299134 97.80179992346484 0 0 -1
102 1 6.1311576841504145 18.423862366644926 97.68164845079264 0 0 -1
78 1 5.514050931555505 13.985910957284421 97.66313004038784 0 0 -1
130 1 10.18089727080335 22.241643323198737 97.84074817434481 0 0 -1
126 1 6.11876228285775 22.495966766773968 97.83843953023543 0 0 -1
137 1 16.074867039702795 20.188947730646007 97.76332736058893 0 0 -1
121 1 -0.2938949116648689 20.316191251515093 97.726663990943 0 0 -1
17 1 16.47587069522642 24.499962907017263 97.88376798886088 0 -1 -1
138 1 18.797204138711386 22.514078636234245 97.72843222886277 0 0 -1
66 1 18.73295429015558 10.201709675478915 97.71926719522844 0 0 -1
9 1 7.565917418189055 0.11608562394983285 97.7440407256465 0 0 -1
73 1 -0.10779299433344111 12.17197334462331 97.90659176477581 0 0 -1
118 1 22.65657674799268 18.52763512058595 97.91953854095263 0 0 -1
133 1 12.24725151107809 20.35724791989496 97.53841939940014 0 0 -1
129 1 8.137200061641263 20.51091501773073 97.36020116748506 0 0 -1
49 1 4.258963525882731e-05 8.28791977381613 97.66679683602882 0 0 -1
97 1 24.539092853950763 16.574828132682264 97.77860506256513 -1 0 -1
141 1 20.393085975336213 20.529239482031848 97.6889909214753 0 0 -1
82 1 10.327514718374177 14.780673333737857 97.84630141044204 0 0 -1
45 1 20.730511032427188 4.256978046710096 97.84960037276628 0 0 -1
134 1 14.313298041514287 22.456837115399544 97.85448966269459 0 0 -1
29 1 3.9662202325615548 4.183613824552843 97.86362853821203 0 0 -1
2 1 1.8624214675671227 1.6493481462458779 97.82671211886063 0 0 -1
1 1 -0.04359750601595613 -0.2752498156521626 97.80822317681896 0 0 -1
101 1 4.059683365404759 16.40224170470009 97.88065684746093 0 0 -1
114 1 18.47264336400436 18.33364419118434 97.7564796967686 0 0 -1
14 1 14.547865784712144 1.5598861222407172 97.79211171063494 0 0 -1
46 1 22.95780793521553 5.942875328045073 97.39614408985645 0 0 -1
98 1 2.0697308958026204 18.33848578901997 97.93262631472051 0 0 -1
2593 1 -0.2148706708527917 24.498786914058343 73.30166271199047 0 -1 0
2697 1 7.773082446442869 16.365428894562662 73.32963957639649 0 0 0
2730 1 18.21939026682317 22.482775999224764 73.386434188567 0 0 0
2642 1 1.3511237510299394 9.87323685770375 73.29627830539849 0 0 0

Velocities

844 -2.0514055334502825 -3.9549698241216498 7.310003579124945
8 0.9396052604063848 -1.6952365152382003 -5.023773788888607
7 7.276471463769176 -12.655838118740819 1.320875613737514
12 3.522955668562455 -0.18225333602559027 14.237250124228137
11 -0.8218440046235306 -4.177097746272605 0.7997907809343606
16 -4.779734090410484 -0.9155544812140198 4.043084853541728
20 5.075980213175131 -6.631241190250477 1.0357455865907301
94 -5.462767581461806 4.39948885236511 3.636180029353571
24 2.917827267671698 -7.0235421501398045 9.277838640429247
19 -2.486119224660436 1.0742654623021333 1.2614183180049996
4 5.150935421895579 -9.52317510538914 -3.956693627268048
743 -2.1051755325145756 -1.1157777936758488 7.302262649934264
27 -1.807866579253153 -0.9027254815063162 -0.921746922181163
10 -11.472467846703749 -1.0283743074860723 -4.273326634109363
31 3.891203621489718 4.032747826639529 7.766066011216264
32 4.380093027208957 5.245380904774369 -0.08261092019953649
739 3.1433832642944846 -2.316228962494128 3.3378729806571545
35 1.0188919143521273 -0.08241350724285246 -1.0699174986417537
36 -5.238595116398738 -2.3453369675527505 5.5069198567886835
53 -3.0161976226221507 -6.148257908493596 4.968294563374353
40 -0.8251278983406767 9.648185865915657 -9.023501702268769
864 -0.29032510354210733 -13.789923393898333 3.4667186366938423
39 3.667735727602199 -0.08120972212351625 0.9382037792141829
44 4.6853607824156605 0.8206676384412022 5.528151543887539
860 -3.294756360598969 3.794324785587504 -10.336204592898447
43 -3.1236162328486414 3.5242627463151077 -0.617568589195512
48 2.717977290622615 9.786466562653866 -3.9099550786821164
856 -0.39540875426270927 9.277146756171398 2.0028580790751653
28 -1.9400645385555257 1.7739733372023863 -6.2833763342275155
47 -0.4665706992157247 2.3783221098998437 -1.3548000519979682
5 0.6354232807841168 0.7808729772056544 -5.399261828521908
51 -3.397719735290149 11.302996462048833 -15.218344090502294
117 -2.841734659152936 -7.5591598311450845 -0.38687155469119894
55 6.602375757720816 0.7338539355567202 0.5386237449247598
56 2.5175480862024577 0.7605348112107145 0.6132221604407332
60 -1.987499105800326 0.18355810776246337 -18.328865478271794
13 -5.043249836551422 -3.6774829557704574 -3.8638797075470586
59 3.9382477726593685 0.9978736399680823 0.004250577959169254
63 -0.5270450027350246 3.641654359181434 3.00720290532671
68 0.16434718069337945 1.0762879953129034 5.529022445020632
852 1.5253667034184208 -3.4536696710195254 -12.507863230861327
67 0.12528318261257063 2.072940945246125 5.643411166902679
72 3.284123571211948 2.886408337699107 -2.120920890112032
52 1.7196031639282687 3.5280695628005407 5.181423558573749
71 -2.709113657815502 8.015632844737455 0.9083803133810164
33 -8.541519224367459 -0.8734637063090066 -7.854227366376218
37 -2.394562979160724 -1.394714413219354 -6.6825476269970565
75 -2.677344020948626 6.547773830822531 0.6097058797953235
79 1.9683154324080272 -1.7169045401622374 -1.6884340229797425
848 -0.6557066287553631 -0.6451133858682132 -4.2193345553142665
83 -4.182951335068514 8.7693760328555 5.988490127704203
64 -2.425619812697109 -0.9999124809388737 -5.966054115299716
87 -4.609726192213779 5.708766629565201 -0.8761782815584681
91 3.127422006629266 0.2590431046000249 8.356854717377965
95 -0.11822903127606803 -1.6154879937975894 -4.862425190395038
89 -0.28759613544136614 -4.652471535705207 0.5868141190004456
76 2.2920911211667545 1.9734086700044189 2.782008881198756
99 1.3123532980889523 7.036645613078394 -3.66354599255851
80 4.848677204447474 4.504604402094595 -1.5589578344075232
103 15.248550919868055 1.782212305198768 -6.098062109345345
84 -3.266440460112743 0.515249049589729 -2.736888013530175
107 2.601816438949999 6.023978114464691 4.5767664651419375
88 3.2639208217145255 -6.371769534312271 4.958212388996671
111 -0.5542699150724562 -8.282855821139883 -10.174138540032224
92 8.996308031062377 3.721820133268133 -2.6077994680321663
727 -1.0473316753292683 -3.6478066022992723 1.718650390476048
96 3.199385481940007 -1.0388116254709658 2.419895178888553
115 3.861942006862926 -4.039858444078285 -0.09702390250853216
119 -6.739131016707432 -2.017096154868585 6.80602732723355
106 -0.10021253047030759 2.986340763972845 -5.964114124007743
123 2.008249892648307 10.683526222939399 -0.3325100255788486
113 2.062313099292599 1.9930114459876775 -0.19545470397911408
104 2.096823942296211 1.2175955400154421 -1.1753658702191925
127 -4.835446358977868 7.480641910379733 -1.988543196565858
86 -8.381359298997442 1.770405164989739 -1.6369292874027515
108 -3.554272705460279 -3.8839185114323707 -8.952464753010732
131 2.817519144460853 -2.7790974853117385 2.84073416702956
723 4.757753364711715 -1.420118802602156 -0.5064678529788464
112 5.509649244285499 -7.601689760882941 0.49653623684262593
109 -0.13001266299301042 -3.8140763452136817 -4.592573722766511
6 -1.0528542462795603 -5.043921226035978 -1.2375780721823397
135 4.406419244029575 -8.08064134374523 -0.9803465695924662
116 3.872026666922722 2.0010734550635245 8.753486356679929
120 3.4116625903252893 -3.0683796650499184 3.5503153656919695
139 -3.4735719732167363 -4.7392950882152505 -2.7518373197051234
863 9.82204106896676 -7.235660229658623 1.9608159472050821
100 -10.594536815245771 1.087592442504932 1.496300472423818
143 8.219752453538765 -5.5703569432214755 -8.307823985855867
3 -1.0820971385354963 1.469709599630677 -1.7888775882338388
820 5.233057650390325 -8.687999850294549 0.5519336386090465
128 2.098769042244605 -5.154937850803424 -7.980267036416526
132 -1.4456036283651883 5.233548652626535 -3.6493268175203526
26 -3.7435186993655716 1.1526246309683605 -4.943154581306673
136 2.1993551875757604 -1.1832589476952884 8.623997105109984
54 8.732206601912502 -6.722874590901418 -3.4125469380167264
15 3.485433687191822 7.237093280618228 0.6141736603190904
140 -1.2760308226388022 11.028659911735334 -1.8403631833188074
859 -1.7711556994136106 2.3368000721956625 -5.225400714649395
144 5.978522373164583 -5.818185022874059 -3.738121984398068
142 -3.4239982624874057 2.9351101350416955 5.6033170176640335
23 11.726258053746818 -3.659753059172502 -6.635498139231671
124 2.5958380205190177 2.8781445119048823 3.9235115649151195
897 7.991021355649524 -1.1424183900385059 2.191585395661074
965 -5.098414206168627 3.120537534144368 3.776544070613019
146 -2.161568755426003 -3.6074766006928645 -3.336422812415569
148 1.805878646807499 -2.0511283029421463 -2.4692888125765178
150 -4.031266123913849 6.2063910409014955 2.3236550572444266
152 -4.649388115334391 2.8306339750936624 -3.2038223947867883
154 -4.332622385100933 -2.08743720654864 -8.229797708958936
156 4.133679981862446 -4.539790351391211 4.3978518950934475
160 4.2466982453363125 -0.10584308333476174 2.6388109850434858
157 20.998773234189464 6.216189717014747 -4.943920952538509
158 -0.08979769434314583 -11.684650687646858 1.2300288960156387
164 -0.5047753367636431 -0.8432499295440437 -0.2803030526543896
162 -7.180840043276256 -0.6056817525919048 -4.579031571183909
168 -3.335674340138753 5.325159361405198 -1.0934187926217245
145 2.6974357393294865 1.665002204041292 -6.342204042980329
166 4.01652616545588 -3.590482588001884 6.836819089916196
167 0.6820188489910675 -4.637876331469372 5.544531711582359
169 9.377143268313883 2.6513312635032715 4.25963057808672
170 -2.265857870879638 0.17165721792701677 0.28796421759561497
171 6.077123794243423 2.673144140091978 3.566713439599371
173 -0.8844916983143102 -12.89625346472854 -9.332240000247864
174 -7.326749510099281 -2.063601946359343 8.025883000680292
175 3.7324404035329777 1.9441430651243974 2.6858164382654865
176 2.344486740126369 -1.9262031032519067 10.108777382455969
177 2.256335131495467 2.7017436309987035 -4.321394027264126
178 12.437696611450622 -5.528909819212229 -4.586502316472285
179 -2.6997543758253872 0.6569953140460212 5.884717362943122
180 -3.1411923620353948 -7.819043052591159 -5.543152237294686
181 -2.7039134498268327 -2.3670354964042164 7.015172848322677
184 -2.963818906008094 2.1558455912420573 -1.6499612470286424
182 -7.234680537130241 -3.2779026218892047 -2.1018434723323165
183 -4.641485815372187 -2.5444499554315305 14.566393847289591
185 7.741999819785833 5.962352251697284 2.5611280358595128
188 4.673951495746803 -0.05240737454258738 -9.10005232855488
186 10.796580557697888 -8.835589955539806 0.7482552496484856
187 1.038566605960304 0.1366322447848959 0.7514940151056645
189 -0.7910678297576896 0.39509105030150216 -9.66178282868451
192 -2.587398737467372 6.237025370571603 1.1404276448657542
172 -3.0725366927131614 -2.7648995212022354 -1.869607646673388
190 -3.556883761702958 -0.47434127685333494 -3.535644783485927
191 6.416940493221178 9.082738455247254 6.358569247096136
194 -2.628736354460593 1.8030432685824327 -4.237361707328219
195 -0.35378834195829156 7.348734400863575 3.3877841376040627
197 3.6976338097948975 -0.6455109671441216 -0.045843522774804794
199 -9.747400944529561 2.6231972937558656 -0.5650999639905944
198 0.5466274507350243 -7.129271020088483 -10.16213550659535
200 -0.8524399419866585 0.49855387213065727 1.6867545983467076
201 -5.85555436323181 -0.6124454877840745 9.437565755509631
203 -0.29421324593395953 6.477632034375617 -2.8235675437817394
202 -3.666172873834348 8.88093884668618 -4.362371524941259
204 0.012224316661713877 0.021703206548482228 4.261339473115452
205 -1.5220768434191028 -2.574003293134857 1.7548816505397584
208 -4.27752563623976 -3.7217374088048616 4.214856660675656
207 -2.8479074679050527 5.398968981772299 6.6782289571232205
206 1.014726939880469 4.858981431629018 4.989837545467774
209 -2.5769439469846915 -3.65955407973416 -9.140180896584875
212 3.867996575651693 2.0388668325222827 5.3721008196794084
210 -4.85897171095026 2.9053369931549646 -4.507749789002893
211 13.039349745984454 4.878323270802018 0.6787499562566022
213 -13.186794188352177 -3.094122805963988 -6.411756492682764
216 3.6539078024974523 3.893415425202268 3.1046818972924224
196 1.1186639593325047 -8.952815339811993 -4.52498008944333
193 -4.10418735849872 -1.7884011621543376 -2.969658134454636
214 -4.8527951995293686 -11.093185293439957 0.7165327016595356
215 -14.280806816287209 -1.8044000653487475 -0.2594683322129052
219 -0.7482903316780203 2.90239396994728 -0.26907302574158853
221 -4.2964716739228335 -8.792116084750404 1.1233205294219182
223 -8.801315162105467 7.131127800924484 1.3565789241632407
225 2.666315938508035 9.644021142172617 -5.676815681642663
227 1.2676082640793325 2.689221596964157 -10.970254330896875
229 2.189130861533802 3.9800134683882757 6.266634513671389
231 -5.239342653224974 -2.2651932677214024 3.758071818527379
233 -1.6831380017541424 1.9786974409189855 -1.7689334581858935
236 -0.8324689510478137 -0.12582277575969308 -0.9618226155507125
235 3.6923154059733276 -6.9839890539836444 0.9614112137370066
237 -0.4082692983895903 4.996310514315498 -1.3003207868128868
217 0.09101946935059085 -5.212624926406351 -1.2801191534398744
239 -2.116944241767742 1.4729169584755932 1.1797723174665171
218 6.692686764366298 2.7027527280951213 7.017486043445844
220 -0.8251812059019569 -2.845037942697491 1.4750285247240496
243 0.9173608556865002 -4.307312435983259 -7.067182110432822
222 0.6522867183583543 6.92141768407816 -4.438500350316755
224 -4.115947845210168 -2.535457416167847 -7.5758066451207435
245 -3.133277329348399 5.351898594404499 8.25585598410741
247 22.069203941594363 3.4208468528898437 1.1709725315063892
226 3.0255955048679612 -5.918370144120309 4.7721966704140275
228 -13.920493525740586 -2.5521993520844877 -1.8585122412277462
249 -12.636074515531465 2.115771777705379 3.683782898541589
251 1.6451319076288424 -12.781760552075735 7.169587133707049
232 5.814443289083453 -4.957821796868575 -2.7180973461555054
253 8.86973701554596 -0.4971073260149401 -0.6466003258857489
255 6.357626183193033 7.153980460122135 1.8277182716559648
230 2.7491612793125912 -6.254326132685379 1.425763181515842
257 -5.737056041098255 5.697635576517681 -1.18128172283497
234 0.35833860428420794 -0.8597981599791672 -2.3788655296680234
259 0.9268237078442912 6.979692891698614 -0.47028893036223496
261 0.28591471912367544 1.0315345693026714 8.729843259661449
240 -4.493285765333277 7.770166082832591 -3.3169446322943306
241 -8.280942156033982 -4.932182310978162 1.4512839987602353
238 -5.91391078103329 1.074260706720736 3.38596808788431
263 -3.1841208120852906 11.851320100337693 -7.16783761364803
242 0.6966512430377545 -1.3263781882391408 -4.340246305181552
267 2.957755530328662 2.718353791311511 -0.33852166265873007
265 0.42294965008507573 -1.2821976226518348 7.354613394524166
246 -0.4200832826068681 1.3039417229951438 -4.059107965516716
248 -6.423529006897454 5.189864430279172 -3.4067296091343575
269 -6.375796735223063 -2.830569967260702 5.976100826933142
271 3.1420409831291556 4.572695790347168 6.424275034147495
250 3.1995116182582053 -7.459060686886812 9.849602241892926
252 -1.6203998113070397 3.8981964837105325 0.7939206578586658
273 -5.936421883702435 -0.9054118731160308 0.7589115822060657
275 4.420873126192912 10.556071533924642 -4.214818695489325
256 -11.074235072854755 -6.15426916417241 -8.52246922425719
277 -4.778481185570511 2.617923044081347 -6.9954058466597555
254 2.343986126510967 -4.1289657855318955 0.1194388500901743
260 1.6526340127048265 -4.180840018419713 3.4328290434143747
279 1.3950186276042613 6.92830001184269 -11.139691703697954
281 6.636494216335098 4.048190504510193 -1.2530820300938146
258 -9.46629695166251 -2.0587824389342306 5.085340746432289
264 -0.25957633926183443 -2.369115586510487 2.038786061171811
283 -2.60959577051644 -0.3473038503599775 -3.252596587131191
285 -7.088615886248253 -5.47919008075141 2.145146665644091
244 -2.177704972258751 -3.2096062385482553 -9.45595989893806
262 7.453097233233992 4.1631066633404155 -0.15178639531076163
287 2.2816962351457706 7.571534703903187 -3.896524951641488
147 8.381479788324858 9.662201780685825 -3.4496920357981784
266 5.304335354914216 -9.661518514378972 3.580910222426354
268 -8.357266014718636 3.9657403119808166 9.919950731880757
149 3.9490759501557817 8.299241652760418 -1.7803671422197203
151 -1.8135287939953777 -4.20724972135106 0.673384026285887
270 -0.09884087006615652 -2.0879045013310917 -2.241062920050447
272 10.209341897654493 -1.5863819915755173 5.8386835252936935
153 -2.188577386356445 -1.343687280238427 -4.760937452143948
155 -6.500123014449682 0.6191711323270619 -5.595119792318038
276 -4.960245355910848 -0.8462117812158478 13.15337997745713
274 3.976569355415425 0.9358841828166876 -4.2538740499529695
280 -3.9328183381839423 6.273978168627843 6.089693356170085
159 -0.6549969766402489 -7.078246331150961 2.1166374367817173
161 0.025090936823961674 -2.3133400712736694 -5.104367004762673
278 0.6476485996757836 -2.1921635751954964 -3.76566102542433
284 -2.7560816808062305 -2.6639345106213175 3.957235186150247
165 4.756884000753215 5.692720041739122 5.440849935329487
163 4.358698185062017 4.470525127723074 -2.529808422452144
282 -0.4920968122021499 7.059206313801075 -1.8855006115343502
288 1.4060349366545175 -3.5436788622160154 -3.4490187975247264
286 7.083276229375855 -2.0825554694188653 -5.848430306850353
290 6.818350035546151 4.629306884776607 -5.767691193225361
294 -4.029450466275722 4.716792870363159 6.428387328126006
296 -0.8114021569992225 8.733415984179096 -5.1661472139149085
295 2.5619137358220376 -1.792293581651587 -0.888397766448623
298 11.942739400018755 6.314003998424196 -4.856408589984078
297 -0.9847797817723538 -7.415819542080003 -9.83684616925362
304 -0.08057342294929566 -3.335913578946625 2.0818659457587394
302 0.9990094864858683 14.230937874614336 0.12506320562507653
308 2.3066249739193814 3.051011854882946 4.202233671434576
306 5.515505320287189 -0.5898954484817364 1.7835672395564965
309 4.6192253253169095 0.11755989179459908 -11.196030583066689
312 -8.09491724651529 9.82991523249727 -0.8549441597300395
310 -1.5472361945842172 -0.11249114709155797 -4.064596910470083
292 -3.72429138318153 -2.5628861374719456 5.01387224535008
314 -5.192208535157022 -2.5576586561023427 6.677231958259641
315 3.8536017077910167 5.054165298201138 -5.551777563214253
317 -3.592441707395597 0.9765612300824358 -4.611490721786419
318 6.891515729151069 2.361259448400898 13.804232548664375
319 6.774028698024756 -5.8360628858834085 1.1804449234218304
320 -4.826866382932719 -2.957653579995232 -8.054962441553602
321 -2.219869235273536 7.140616511397165 -3.3219786746131263
322 3.4065324934889905 -1.846261297008103 -1.5692115195785736
324 -2.4943686219274688 -8.397787930713047 4.536832642745147
323 2.5106833559195905 4.049880036946684 2.0416604399600753
325 0.22671002890723072 5.638310181072215 -2.2869310662589544
328 2.0087790538561405 7.625071710469908 12.660328492859636
326 -3.850057321849917 -0.26355553725424546 -1.1194331508958002
327 10.55649145048584 -1.5242074160345997 14.705218667567136
329 2.876411314980356 4.856388032715449 1.2541068688719146
330 5.823954668633317 2.4950755504030098 2.6465929148667016
333 8.910589176733371 -3.7206912976094824 -0.12917524825128046
336 1.6225848345934413 0.08403404085656276 2.987294990830313
331 -6.288472651306469 7.656399925135011 -0.4068428028899662
316 5.816419739768441 -4.508211987545988 3.017101093425816
313 5.1846537623671995 -2.716735970380668 -4.653147817630513
334 5.656384347574562 3.9318722835481466 -2.1076490768741394
335 0.8638207450801468 -1.6036576455817988 3.7479534648788793
338 6.746645401463242 -4.987022018142509 2.4601066761424724
339 5.712740203972146 7.771224833092126 2.5504640214849537
341 2.987692904498072 -2.2703394570804063 -1.2743960870393936
342 4.0539028604156675 1.2456163053735574 -8.368787357514636
343 -2.5987718178387573 -3.22026054956013 9.403101173625753
344 -7.618846799311764 -5.157357419477503 1.9429181671414737
345 6.384227168824378 -8.222714891149105 6.312273376108448
348 2.8889073752747647 -2.76377804341871 5.997759388242359
346 -3.708457923133786 -12.640295586894906 -5.675311229608223
347 11.33771450325382 5.941111071280599 4.247581777875178
349 2.970891525804526 -0.24723735976433273 1.1223248900355702
352 4.90417660999143 0.2273883056200974 2.2896069530948
350 -7.14840170075456 -3.807087380537564 6.933561334407975
353 -3.141722885737048 -2.6443441173365247 -4.214501792225011
351 -0.6121343311294895 -2.1812841723077976 7.895209958008547
356 3.9206348084473635 7.395475205091462 -5.121088125729859
354 8.128824980675414 2.543773346807214 3.4772760453127978
355 -0.18893075397420803 4.9432398022689625 -9.983969811617925
357 2.554348241450376 -5.54651639572588 0.05516869189021031
360 3.421030147314482 4.786792667164273 -0.44253069428307357
337 0.26152604350543934 1.0896960509644822 -3.1414756328381164
340 7.385554973606897 12.33308824788044 5.489774111700957
358 -0.8716636468963713 -4.673484485536733 -1.0957064495242455
359 -3.4665110522142557 -2.2369645192429024 -11.918717799732688
363 -0.8744873080966106 -2.1495293657563117 3.0930417358920366
365 -1.9139343616640818 -4.775563580714642 4.64325503372589
367 -3.6795162873781098 -0.654609131741527 -1.119799924953787
369 1.9315041740687462 -2.7172004659546958 1.8027941831127292
371 -6.716004776786621 -8.175980472510856 4.153339712021002
373 -1.2891154602767931 1.687475504411174 11.185314826178038
375 1.5027674596513547 -3.656442312128845 -1.4120577193552
377 2.934406749541028 3.4577186300670095 -4.529881480314457
379 -7.76650884842175 1.0134824711253985 -4.11212696741049
381 -3.1296877249436528 7.104996986822136 -5.125945086410132
361 2.364875707425869 -5.161111936475573 4.409490332685958
383 3.07682838721544 -9.652257079796707 5.2026311160003775
364 -0.4008188928102175 3.3413080773036627 -4.602563077526697
362 -6.020272481343011 8.778639452383288 -1.8392614861976244
387 -5.1110778735212 4.439813827264351 1.9988972814232744
385 -0.22892828061826292 1.7505320316164985 -7.981976877195689
366 0.18424559633832552 3.3775851924930906 -1.6928806842209883
368 0.9937428417472651 -2.1384411040511218 0.17999158473463925
389 0.8540406905686001 -5.391214965183264 -1.8694535130974612
391 0.578111362165211 -0.541253247484612 -3.2632631110253763
372 -2.718904955226387 1.1641549626342769 8.51836387706981
370 4.122044406284596 7.031773240128978 -2.7277223348597017
393 4.025128871000812 3.967150034796285 7.944364716008504
395 -1.4730844594372385 -1.459008549439597 -0.9813129099354544
376 0.11922727830757031 -7.584724247539083 -3.1755148083007843
397 2.8355687328635093 3.269998734849238 1.2740076725870582
374 -0.623411827027979 -3.1361343419017853 0.15690150744946202
399 2.5970833406738576 5.955379532073426 6.27884918227524
401 0.015729184060782907 -4.39707407091502 -7.802969535082689
378 -1.733877442380481 -8.145980875741326 1.3382684114299244
384 0.7271954830251903 4.953904653593006 -4.884944191451284
403 0.49146732852748964 -4.4175441489163845 -4.003987807461812
405 -6.653568716088827 1.1719055762432895 0.5085605363868945
382 3.141717182061313 1.354949410490448 -6.188580811294603
407 -7.883864764543105 -2.2603819385826522 12.887196016487882
386 4.324821090012707 -7.837913836844429 3.5268768807265323
411 4.493846184824161 -1.8489138460504726 -9.14319272184664
409 2.0448090670011383 3.8163503934988423 3.0088485828028757
388 3.6874285207575483 -0.9670531277154576 4.5714125661858445
390 7.51287217501825 2.0461949150436216 3.9080334816418256
392 -7.692524559142729 0.9107065835790884 -1.8589292527505041
413 -2.0578150195317995 1.7618506112603856 4.0897536614547985
415 6.358009315924305 -6.95080373431331 -4.823801047550346
396 1.1313266690557806 -12.259517314463846 14.064979580228282
417 2.2177573264445973 3.8249309269341496 -2.611359951198632
394 6.583703653633517 -15.97185574740151 -7.902235956968733
419 3.098932905451611 0.2745331255898145 -4.070664911934235
400 -11.504094465029427 8.701621816135294 2.5592517441943943
421 -1.69599561784956 -7.9794083296288605 6.794102996884778
398 -5.426123692663232 -1.7567508132406415 -9.962180884458997
423 6.745121311237444 3.5936220388230695 5.60915591341708
425 -8.866097194447947 4.794699464509038 -4.121448334456567
402 -4.308601967909931 9.00111151795462 5.17916807570601
408 6.4101118933566665 -1.9075152440679237 9.350461146082232
427 -12.527393303851136 1.6189520020437072 7.282420898436038
429 0.14226419394150674 -4.6497011086591815 -6.96778361170233
406 6.369675964460347 -3.429217072802673 3.5098453921592196
431 2.6663702263690188 4.665560590392172 -11.130356125173485
291 -2.3207304743334447 -2.436554111203508 -2.502717797114829
289 0.13427210543630197 0.047786590379765 -2.13497446011008
410 -3.6766103181506 5.256126512468738 -1.972233307660099
293 3.95722601634801 -5.044725463968732 5.9026763923453185
414 -12.422137260317363 0.40199993475567414 0.3516512643658578
416 -2.591544646703412 -5.935393601694874 5.33443534781818
299 4.114383022238245 11.745921655625107 2.07942535403365
418 -3.6552529242880016 10.310528324098188 5.298576616618338
301 7.6166897407042224 7.200719235211264 -2.3780910648938383
424 5.514579829910366 -2.7902619801745505 -3.375249173712676
305 -2.693099866869206 14.487008604668874 5.38394962173722
303 2.6120567801775234 2.511201638221927 -3.75193348370455
422 -3.4727266733309103 -4.630098845099421 2.886963812883661
428 7.522179778576454 5.1034929590373 -6.381421783795267
307 -3.1597482969911974 1.784728255181786 -4.725166745560288
426 8.408814070029162 -2.1075485456931875 -6.087138574668667
432 3.409013713128243 1.9131157148240174 6.556650439687954
311 3.2448158796911413 7.550043423143681 -2.07604748617483
430 3.8335052334511883 -2.2420279129869094 -1.2806100230863844
434 -8.16828241031063 7.352702392633809 -2.935968124842957
438 0.5523423689378211 0.9145454170243402 -1.5538010904154265
300 5.470204104332733 -3.507559782930788 -9.867469694591696
442 -5.954096350056573 2.2131679415142256 -7.073601110018007
446 -1.8115401869897092 1.051516105108661 6.892422488410447
449 -3.367793946572072 -8.532999262844148 0.702384437269737
450 -0.9446381433937837 -3.104769844372567 -3.5121370593008794
453 9.95927611813499 -6.363907582101317 -7.899632184885726
454 3.567112877626634 -3.9809852963070926 -6.244759508832426
433 5.0059325379555375 1.329827763633007 -1.4591830456813661
457 0.510799199206224 4.60802702169168 -2.233825683335505
458 -4.912169368012226 0.39410370664562744 4.348971542927964
461 -7.890364060855389 -0.021507178187531076 -0.6900081244711904
462 -0.3584303358486997 -1.5592869484381642 3.973947668240455
465 5.33704142676558 -4.918824416639942 -3.7963282446095516
466 1.8270049790946123 2.442496647721088 -4.701465900847584
468 3.5544196350286987 -1.1856945808113164 1.004910285506628
469 0.948393437614374 -3.2377449924598665 5.695386757430239
332 3.1220855447148943 -8.683064091391199 10.824477840106152
470 -5.557668293578072 2.4290225255806117 3.3151870689320497
473 -16.409340277317234 -4.7110671417672725 -10.961590954629383
474 1.081469265785902 -5.658214274859073 10.368610097853942
477 0.5712318606120508 3.5581822235126315 -0.1749314424695802
478 4.758593608908808 8.241017553638489 -7.623787319116175
481 -2.879436628824997 -0.5523107759238507 10.54570752301611
482 -4.551210660043649 -0.5896633590228995 -5.892959081974789
485 1.3018098134448435 -7.250704502729868 2.1302233933626433
486 -0.5178880265105832 -1.4813259548441828 -0.23157027615107267
488 3.2305794037900295 -1.1285326288915432 -2.3727096620307475
489 12.73502242886566 0.1503968860937531 -1.414645309383098
490 -8.132540791185729 7.8058471320191485 -4.008949796493838
493 -3.7183329864008567 2.120817791724522 -2.819450422898732
494 0.09512192244200772 5.591048596197156 2.9706668581614886
497 -7.044133520226445 2.0248551094762766 -2.0172424343256523
498 2.66079280993847 0.6394246586250554 -14.213497974157159
501 -1.7519088633582578 0.2020702557146272 1.0885909754955376
502 2.497397192345741 17.26723399679112 -0.7520187213438024
509 -2.316399041596585 0.491242722192324 3.405845696299439
513 2.6134030288674484 4.339045994804765 -9.634453659207766
517 -3.76970543605378 1.9998466475367997 -5.780714471583074
380 18.583643438980896 -1.4654328616998646 -10.015046157844735
521 -1.6644535455056586 -2.1996225482196397 -0.951547612899017
518 12.8158673861431 -0.0005180851920978704 -8.55411629013542
525 0.6888925739845169 -7.352170997073354 0.6497657420978229
505 -6.087413405285036 4.284432690276592 5.822624496641477
506 1.2243708656206043 -1.5941484611120798 -7.533087828760442
510 2.5384935394201014 14.090887801550942 -5.437855027803385
533 0.1692504782269743 -4.636779753813611 -6.809157003127878
537 4.152547723533381 8.354592921075398 -0.521363800753967
514 -8.385202440888957 -1.6988848326783794 7.976634059519224
516 4.006685197248814 -3.4122896451472693 -8.300700194707563
541 -9.95690824548325 12.646756551598916 2.4328908457798604
545 0.5150473164073724 1.632997481319004 -3.335612295100914
522 -0.11896521814750585 1.543372879460774 8.31477764851334
549 5.011287520810918 -2.0028713212194775 -2.0837849281052763
526 -4.098715973490178 0.697815571456476 4.42790271857277
529 1.4842420529199665 0.9617244381436704 2.9357268633005695
530 5.770601723720267 9.831785337830528 -1.234521447302165
553 -4.620079484550633 2.0953625372054248 10.160717926144944
534 4.0301122695208935 3.031651140986189 -0.6961705714046051
557 3.4956589923885435 -3.0371992293363403 3.7768444287960548
538 -10.188119274008852 3.295746726886399 3.750327971580737
561 6.028458520559981 4.367519947990851 0.3280412912445306
565 -1.8749189232561614 3.1931155048204998 3.1489882384131267
542 -6.123718074161977 6.479600323697086 -0.9657591640679689
404 -5.272700339927443 -1.350220633719518 3.7225886770992673
569 5.490933199177868 10.858833143773365 -0.5941906946042135
546 -1.1835334011921093 6.646376591568982 -7.686634976976035
573 -3.874038388843607 15.471601622637312 -1.23878343209902
550 2.961575118535916 -0.6360941281054913 -5.10205174619207
554 -1.5683551912106286 -4.923821415287876 5.932073317166864
437 10.715901186210058 -2.695756752780508 2.823699646574733
558 4.288875662267523 -0.268744578299344 -0.35496370305186176
420 -4.32211714564205 1.8529419941039156 5.577982920411059
441 -2.395634001719668 8.866109763647428 -7.986835342851488
562 0.5460267689321496 -5.247393599970123 -6.280156161347582
445 -1.202773781536222 -5.151743198261264 -3.6509159753696765
566 -2.8507955742992332 -0.09330097365038309 -10.875421591953868
570 -0.3274379677823851 -4.105406034577322 -4.605766295033387
412 -4.133302797000965 -1.349120301641126 6.188914610529355
574 0.18356283104346174 -0.7952171919263853 -9.949685658814996
436 0.8929828417362884 -5.233074140713169 2.1504759953564347
578 -2.367628123629776 8.431603128098905 7.790626280833998
435 -8.769582258895186 -6.91927248086084 -5.45157952609578
440 9.62237587438511 0.4944472733279399 -1.0911403642096786
439 4.5884041281020185 6.253051103946312 4.976638673383205
582 -5.922627963523549 -5.486599083430309 8.017371854262583
444 3.3213142899892403 3.4465671251560495 -5.529435371807945
586 -0.13500640354970342 2.388585219403932 4.903157978556869
585 2.0122139683366482 0.31559050815552764 -1.3072970935090251
443 5.315906455289442 -2.381585940824416 11.76151797553938
448 1.3622902843572693 -14.796406410305117 -12.035674870436376
589 -5.389469325202334 5.0164565004606985 -2.9073167331973657
452 7.01875753426572 5.404727691765341 -2.9683322232009623
590 -2.608762231245466 -5.906612839816407 -2.8415817280892197
593 1.3919109863830021 -5.540962422266326 -2.9284216198893387
447 -6.607915640698676 -7.358401393448128 3.0617511097936454
456 1.6192115037571155 -6.982469669803864 -0.6060536752979109
594 -1.0078141159824192 3.0490789497499877 -10.404122311130925
451 -2.0513187746895065 -4.182830096932056 -4.807058999581311
597 -3.357694367763767 -13.841147268142869 -1.812336279268691
598 -4.410664005490815 -3.777063377798971 -0.24685551529855948
455 4.149856885679475 1.6880421023592715 6.463648038723902
459 4.607236748727995 0.44258493281559314 -0.12881959313698763
460 -4.829973608902936 1.0675823134477496 7.947831527241506
601 -0.03610545656344059 -1.6038833399160437 0.641699344645745
602 -2.6582132995329535 -6.814750219044652 -4.028062884567013
464 4.912191387635385 -1.7758451257450218 7.705978498321853
463 9.28082900709938 -4.153405060557685 -10.866864362953695
605 0.476548057550555 -8.219961608619888 2.4388442883400234
606 0.3939345877754426 10.200847276276649 0.4394230767361293
467 -3.677351975516356 -7.710851405656817 3.844916068722284
609 5.386755110430156 11.914988201183759 1.488013957529001
610 5.397399762846356 0.2508945364481579 3.1582386933455644
472 5.682987089009629 -6.529603968625314 3.763619311329827
613 -0.9491317806709744 -1.3842875046164749 -3.5169077843727448
614 1.8677986927113566 -2.968239443244715 0.24303724328360357
471 -1.2056043708705253 -1.6281658190888664 -1.36145990829935
476 -2.1478921948790313 -1.7153096824497638 1.3261448889976017
617 -0.27260349681614415 -1.1663841934388857 -7.9693219740591745
475 3.8494536759962017 -7.249950719351541 1.2627203023345261
480 -1.415800389313048 8.314440931578464 5.015280792309635
618 2.8352212178136234 -13.729793704173508 9.317907191137786
621 0.17459940868651616 3.554733049440015 5.364358048016985
479 1.4521844529922006 -10.453724862565815 -2.7619225406742163
622 -1.7623969648075986 4.216010105742417 -1.8941318516912897
483 -0.10219406586620301 -4.869732026131767 -7.692272766386245
484 6.31950947467932 0.8723264392045366 2.1028243992237017
625 -9.459623038902674 -5.306862155821535 -5.6447830858867825
626 6.940972385756881 3.0923485386140293 -3.134453947775697
487 -3.900345127466514 -3.058454776611038 0.718004372851285
629 -5.576507153040493 4.835381731592064 6.154438643964897
630 -2.785656272675416 7.289747802717122 -3.7866895537586958
492 -3.2817283643290653 -5.063192445477073 -5.305452861248286
633 3.224443151211063 -8.486031216525834 -1.2092366447573006
634 3.2516657609052424 2.506713683115067 3.2217135139747346
491 0.2585604623699604 -1.0872178689227556 -3.332055596825196
496 5.3050276264072 -0.5405823748945074 3.0725005625712893
637 1.2713726870999211 2.0177040892741944 -4.764569938117455
500 3.6746786589979807 -3.439777585929665 -2.4949214438306835
495 -7.414055900473941 -1.4805231818074815 2.9432737570630523
638 -1.0082718839438072 -7.649892502163323 5.615407118403216
641 4.959009722063576 1.3432447159364973 0.777070326051303
499 -1.0267578971915399 1.2202698969112693 -8.455759967782235
642 -2.874480810266819 -6.006801211434742 -12.005889341400263
645 -5.310986034125046 -5.452733476143826 10.863522031044
504 -3.9776847580159362 -2.994564366838384 5.711074132986242
503 -0.19857453307814626 3.907966078164309 1.8855679782894543
646 -8.609226787824042 -2.208856719614609 2.5864606007679867
507 -1.6326141315988991 0.6550326927377926 1.6067682815730853
649 1.5701346927569038 -3.8165664172162876 8.600159759842427
511 1.008303182712438 -4.40288118421681 7.090764763122047
653 11.959168814064963 4.539981128070231 1.3737241039471997
657 -7.41964442442848 0.21051395383025384 0.26261707697583303
515 -0.8805914215156126 -5.352145116067999 0.4701680735769539
661 6.802119462055769 -0.29181345494961325 2.7312634867158323
519 -3.578025933440092 -3.175992563372863 2.189930188147549
665 -4.60419025208643 6.49544422653451 8.160327549121474
523 5.38530275558764 -3.3322542654567058 1.1196155013200675
669 -1.6723662977696054 0.6992070009747776 2.2902103809904415
527 -5.377680466485571 -7.587206021621956 8.395714527729808
531 -1.7981629868976166 11.269396236039244 -0.43672884792244326
650 -2.649198964016194 -2.5085984907766377 -11.585942266122798
508 -3.636940956274944 -0.3516733789916963 2.2900063182564723
654 9.99815136761171 3.6958305107399116 1.8520115425767334
512 8.480847069626378 -5.062263987532849 8.97724838694932
535 -1.5600573785502108 11.86985704651517 -4.231301980030892
677 -3.332422513273059 0.4511901784055369 3.355154673499216
681 -3.2530493436452166 -1.9807396773714243 -11.58678602363959
539 2.737374351057269 3.2721948468228916 3.346032728866396
658 -2.758583051137324 5.913549537516561 -8.090554125649843
520 1.7972012674789783 -3.48319775661955 4.270174378071382
685 -3.9828327020448855 -4.13122685276151 -1.8537282509315234
524 8.899643869496556 2.787815382443465 2.8914022922591025
543 12.801580174659478 5.498238340051121 2.9867381046926007
662 -2.1707660094758214 -3.4187434083062063 6.4317196579857265
689 4.681366545112542 9.164953516160022 5.294911984936016
666 -2.829850917849754 6.016986941878562 -4.816784625401095
528 -4.998177851346549 -1.8348913846279107 4.843794123057217
547 5.377268819183203 -0.16909665027163187 -6.716683108092697
693 -2.416102809557801 0.8354260659380713 -4.779304247541805
673 -3.6856271639223848 -1.9147314861148985 -3.507743557288789
670 -3.316592355056404 1.134392628550326 3.8601132340286446
551 -0.4145922198306309 -0.7305627224118156 -3.8265546744558265
555 -7.195883750428802 1.7804600212089408 4.0391233999997285
674 1.072657041133222 1.9648817216953436 -2.9490960045531263
697 2.9608340813415497 3.0756193573279877 -13.004202246468248
536 1.5313028845797796 -12.74133985588646 1.7084020159366822
559 -0.18085102964286176 -5.59433644779324 -4.3159632313884035
678 -1.531002603547825 -0.1708227365131371 6.867710832041012
701 -8.917936884753603 -2.523426978964775 -5.311631297071453
540 -1.0272978976648455 1.8949369762057975 0.21864746378881286
682 7.343993754308124 -3.28018707632218 9.94032725846314
705 11.334219979834021 0.6524878042071734 6.453844161165318
544 3.2532454352923197 0.3672371512836437 -1.2631495650312818
563 3.6311604944664326 -6.410070325782825 -2.2486140362255815
709 -0.39549795316491854 -1.9773356437174607 2.111644421309286
548 9.85619363570325 0.06996968236023332 -2.639443158949403
567 -4.959156241597254 -3.3616374236202717 -0.029911513407921808
686 15.006905519565475 1.2890111182874973 -7.840735921757686
713 2.746237239956238 2.398275655180309 -1.6307776382587609
552 -5.485074396584527 -0.055973050952291784 1.9970996966937586
571 11.401735647542562 3.646928614434946 2.5876474648371337
690 2.0145893281690412 -0.5853312779171868 -8.020539007917215
717 0.8004813467436842 4.332631519135677 -1.5242633815793414
575 0.17160898130293908 0.31946310394683924 1.092451672092094
532 -2.610985074029353 -4.621754829737634 16.404448319459664
694 -7.569980105739994 0.6748819690973763 9.120498354229746
698 -5.77167948175817 -4.416465285523937 6.979105051554317
581 -8.648723341938132 5.906265150292574 6.387247803620921
560 -1.8599511187623297 -6.109489684745871 -0.1633502319250847
702 6.74328195534571 -0.2406324620302967 -5.655197168473024
564 -0.41276931088103846 -6.476619670359991 -3.1535882081753215
706 3.74651611132043 -3.1139167628886484 3.4267759207913615
568 -6.256273565931968 -1.4858165683157039 -6.71448794383023
710 1.42203637088816 -6.269333064833723 7.920882647881493
572 -6.366660679851298 -0.9325107418086866 0.5986169070393174
576 6.280685813947608 -2.9896536956167927 -1.0720880805378963
714 0.10607908291055375 -0.36960469520623085 5.423444199521425
577 -8.650153925278355 5.345539591263085 -4.058452338417315
556 -3.9546053900785925 1.7828254740313305 5.226429073217126
718 -2.5052043762673017 -6.765423547497813 -6.940968475867727
722 -5.3105191578678115 4.979258384071019 -0.21668849643956137
584 -10.605650502064089 1.1473509340461174 4.0477426904636875
726 3.805851366151887 -0.6192177777566888 7.835229032124496
588 3.9532363568021314 -6.359830625373522 1.9446023535400292
730 -7.128740764184055 -0.761373509461 0.8906801493052546
587 4.7368697491331 -3.1854587988548744 5.5945845852697635
592 -3.981620029596247 -2.899607571617705 -4.226096028630146
733 11.482893334145682 -4.109371416954801 -5.850802148108865
596 6.198241735099093 -10.025709348273512 1.8378865800682356
734 -1.5965993697580048 -3.3872439972986617 -0.4257821185136579
591 2.9073529586136773 -8.373017537630284 4.457212855734005
600 2.778726041297738 -7.559453814476574 -6.194503587094334
738 -6.016597578049114 -5.8288954862855205 -2.979736401174574
580 -7.066519631162085 -7.299425375173774 -6.795642279836743
742 -4.529024786293467 -8.264930507614695 -1.476204053796067
603 2.539442481100981 1.7144426978061695 -5.781999873104086
746 8.302238262583963 -9.648881384457036 -2.4412629060201407
604 -5.930761101352517 -4.7380683509105985 -3.9689798663118068
607 10.399817380417156 0.4630203582623271 0.5386638169301802
608 -1.4481377365723829 -2.8154780180750594 12.887039905689422
749 6.6874936962469755 -5.570902911288887 -1.7800030532691904
750 -4.555240081554686 -0.8689774542783665 -0.002340526462040006
611 -5.200596347700072 8.42701707053183 -2.9411296848111603
612 -1.613770057822967 2.1990691578701376 -3.698422026974018
753 9.877939279239884 2.258577413558541 -0.14559949718479812
754 -1.5099151883279607 1.6494896314201943 -10.942634852804698
616 0.7028286696285578 -0.6944876046169133 3.0285805299847346
757 -0.39083879177826886 -2.1870263666455654 -1.1081407067581508
615 -2.766456120412037 7.290839408032678 -1.5157215890659412
620 -1.141044402209049 -2.035981839351378 5.499204174432069
758 0.5763203873715819 -7.737029831776036 5.893697792761508
761 -2.809961106414829 12.027823558956905 -2.2571514661487004
619 4.9720036304685244 1.7074533927399949 0.2117825218163313
624 4.847634658463285 4.19090300297651 -7.519288643448228
762 3.129638819356713 10.895812382609071 4.790660531408732
765 1.3532318960350433 0.7690660650600125 -2.0923065465236
745 -1.9064837679844382 -0.7982029184059365 5.219942764857173
623 0.045947162785139786 -4.620540140250578 -8.346128523164438
766 -7.351672650054366 -0.5704874161682313 -5.368128526129136
627 -6.209217133288579 7.8197511344846005 4.209724998435526
628 -5.356253599542989 1.3275762857870357 -3.3319155489776255
769 3.1613553865063944 6.460949042465049 -8.221929979648428
770 13.822422743011586 3.1831849068403324 1.2798834385933435
631 1.8008178472912015 -6.024554872403172 -2.0147495326694433
773 -1.4324682854829915 0.7276996474428913 4.891853617548049
774 -2.0395295764694645 -3.5650964155324436 1.2857696869462114
632 1.208598620748928 -2.6029942273314193 4.96438769308965
635 1.5617623412564152 -4.301900625628235 -6.379985381265621
777 -3.748084251465086 -8.270510881398025 12.352422007660051
636 3.0351645063638704 6.772538611206866 -1.35443376986085
778 -3.6101002496293404 -1.7173920507237754 5.838991466358498
781 0.3980345663160617 -8.065941020942041 -1.9972449272684234
640 -4.794289641408254 6.824603327298736 -3.9327240251931577
782 -2.44178106219719 -4.611032877577376 -3.55373591909528
639 9.85200884202885 -9.210316119605862 2.1009818202607513
644 -0.15868088329130797 -0.5557517944859498 -1.2056268007103783
785 12.267249039434562 -2.639217385668846 0.24286575288879286
643 -3.810604365759282 -0.2857792076499684 1.698323760704972
648 -3.7586100968386815 0.31014656987022743 -6.074037162241873
786 3.8585942955444126 -7.169209786406841 -10.973912980016186
789 -4.484036494278348 4.576546429003401 0.10752389441132691
647 -6.76844115555133 6.732219639524665 3.9993160356707627
790 2.2896875580285996 -5.434888014362875 -2.8349129137024405
651 -4.118285786604053 -9.762928008895805 11.239518137796505
793 13.035802562878446 -3.131609992366445 1.2400429215484359
655 4.156726426957599 6.682636662047607 -5.706777122730415
797 5.056112019085417 -1.255760365547642 -0.23058509154848433
798 -3.7707508469150284 -0.9405364627430046 4.617530325745941
659 3.3710888657736153 6.2562909693700774 5.294062683944477
801 -1.058956451962717 3.4500233422093745 2.2606219196433237
805 0.20580592853154575 7.0737219949051715 -3.0346085151816533
663 -5.2431181334102686 7.887635975717921 -1.4740838519981336
809 0.7779049022287047 0.9305616694974395 -3.1617220266809
667 6.280334740122078 8.659660786376229 -9.27692765581039
671 7.724877158173451 1.5084511702974754 5.661490929949998
675 3.2615948680061773 1.9047171532901264 -0.9730380689135936
794 5.867695401167758 2.621265396090819 4.454402788797787
656 -9.811478778135884 -2.0120080713924144 -11.389684120377837
679 -2.829604638361394 -2.2624828926812355 -4.982766644146338
821 10.414845976074153 -8.509191429016168 0.40398855308591686
802 1.9669670367398202 -1.2827150744600855 6.228705117320929
825 -3.9792138619973474 -0.5649719570915853 1.8487549424593188
660 14.455842031013889 -0.11477154558026563 -1.1009678429252092
683 11.213460481168333 -5.924435114796211 1.8777218068570023
829 -10.226136231186153 -4.663622095852864 -6.971495949367934
664 6.632241944032627 1.2518798666132511 0.7137827305748493
806 -4.152650871770314 -2.0609264699591012 2.9340625420374886
687 -3.0170083398322296 -3.5551989826913153 11.525023601543525
833 -7.613690240392528 10.850617816866087 15.125884096246487
668 1.7078196917690167 -8.112270173670273 0.6397097652973541
672 -9.712664574684954 -2.5836850414695385 3.4302310067370225
837 0.8044641385679107 3.212694095776656 2.448313148113617
691 -0.14649683162487842 0.42370588785597807 -1.5159653319125705
810 -7.380841268928865 13.202508007381821 3.2294579937044148
652 -10.255371722698841 -0.6155990907076484 -2.4424112399752493
817 4.804661601510445 -0.28732253148542886 -1.9199226015989825
695 -1.5643039501324136 -2.0456761123962472 -13.384482803437054
814 -7.194900532166754 -0.22582479082948656 3.0578007856917195
699 6.117948517789615 -4.438351036141987 -7.428466941217452
818 -0.6960305070501603 4.616261578978605 -1.390434906017272
845 -0.5294323665869054 -3.6504339422493075 5.331618099304842
822 -11.867918110344876 0.3685852719309385 -5.575053079735569
680 2.9676721271377864 -2.9767216120698925 -0.18271443682642766
703 -4.597492476424397 0.44507726337708264 6.419267308445381
849 -0.6782415986511368 15.077763771932911 4.255240602871242
826 -5.8434206246602605 3.653280782577623 -2.1323626041556363
684 -3.057285784751472 6.484361795698034 -8.591273701032943
707 -0.901296659198955 2.468521223478425 0.47844487262588886
853 -0.5935258466069846 -6.090948213151797 3.776090715332582
688 -7.119231045636212 1.6763423581767598 -2.274675373620604
857 -2.055924723386393 -6.140696094806115 5.156892228123896
830 -1.8276202792044964 -4.9536226523828635 0.724474683145207
692 2.510724398357568 1.6516286470380632 -2.650964742488337
711 5.03060277661201 0.17257415545436863 -0.2184940619564597
861 -0.5793032625348499 5.0657595483705595 2.9562256118825547
834 6.151895805811418 9.083438600958104 1.4452165524500866
696 -0.7546591950941985 7.024377753383072 -16.65269528268736
715 -3.8132639631188323 5.438786246581204 -9.512791722601387
841 -0.5579178248184116 -2.1995093766580447 0.3035342652603736
676 1.3153601889745885 1.127515222082998 -4.623606103587535
838 0.8243729319907159 2.762176099674388 -2.5098063283810514
719 9.716353486423275 -9.969422572881827 9.895896146022615
579 -3.0929915214707058 -3.381193209089505 -1.1887078333654444
842 -0.5253880127125744 -8.769599188130142 -4.739756822543689
721 -1.571805097005204 -2.954299136077846 6.884255400384765
725 4.92649178117312 8.638556212371375 0.8027995717123005
583 -9.417530058613114 8.010751106979718 -3.3153324942918085
846 1.2119370819622164 3.0827203888634065 -1.9748154828870288
704 -2.54265891385925 -2.4266934351731857 0.9892558477603781
729 5.07733846752866 5.621593460052895 1.255536599392837
708 8.725808844284614 5.625856649240228 -0.3438141277743097
850 0.07623587609040018 -0.9475838550158112 1.896470723679105
712 -4.108185932235028 6.382277607499731 -10.49544555397627
737 -4.336612761078278 2.3935270643530786 4.06915118703746
854 9.353159026404395 9.600857515235779 5.102714685198006
716 5.202375283856826 0.721744988941953 -0.163299449839028
741 -2.3631478767854244 -6.800365577479565 7.0027819790258565
858 13.183992873587082 0.8225374319923223 5.01986453300666
595 1.2404399859050057 0.5640966457855786 -3.352340561690564
720 9.96057532863162 -3.653612876053128 -4.151462674083001
599 7.040170705219181 3.659449324908721 7.556498490886705
700 -1.4639412769498514 -3.046570581950664 -4.611545698292956
862 -3.017657162413096 -8.855735746800493 -6.3887293900171045
938 -5.1397964399466 -3.6770582366527518 -3.6674026693252304
728 -3.708332757872291 -7.977188449918158 -5.343026046516736
840 -7.325856806644914 3.8968668742393096 3.351252542847835
110 -0.23211065337437317 -4.72268962170461 7.597245077264235
731 -4.793149430024432 5.828476252381747 2.073804197672016
732 -1.562950038668734 2.6208516823232046 0.945593544239544
855 -4.057687026216292 2.047329570717351 -1.9116136321256292
736 -3.4331392570980053 -1.6560795161552089 -0.036114608613188395
735 10.482423430405081 4.85123420693482 -2.2039191476276003
740 -0.7919553786696626 -4.117074875788001 -11.175041797556958
744 -1.613985390787111 -6.397705349965569 -0.8019563144025056
724 4.529189330193638 2.5258434324986108 -7.445010305674353
93 6.000935908852181 -3.7180092731087355 1.7341448758039977
747 1.227753503107529 2.918187777822308 1.0301511544322286
751 -1.022213072813706 1.521827595786573 1.6972141043548596
752 3.9397192327543213 -5.146541848641521 3.654535527748707
90 0.5943028177690278 0.5177525291940874 -5.372897550373478
926 4.045994545555155 9.299056966189056 7.203100818270654
755 5.988586452076644 6.467583668635432 0.34356664911881674
756 2.4728913703194966 -10.124240787381037 2.1890513181576443
57 6.829756280073904 -3.984793647787148 -2.119393083855848
905 0.25667777961369326 -4.537904371472752 4.691850827488638
760 -1.9933610607311694 13.009768772748565 -4.419146437004617
885 -3.344601076007481 -0.5049584877601636 -4.661194710422446
759 -0.6215894289830989 -4.95263534228373 0.2408853117542922
764 1.2566326076295082 -0.1264068685891003 -7.716897751296019
763 2.0674265412051356 -3.962489496400137 -0.1000489790517315
768 2.5797592104182296 -1.841529442383123 -9.81944620696353
836 -9.9791650480147 -5.478201612366465 8.94712198147729
748 -0.3073518427189025 1.970935391554206 0.4608879094764093
767 2.420783800559648 9.423518113577511 -4.769080754302167
832 2.2751936408363234 8.725258945514046 2.6931422091586588
772 -0.7685787975621653 -0.6070700746312857 6.37988276803069
771 -4.13829644481282 0.007980800503120921 -8.134568476378005
775 0.6774085735822707 -5.002462547801653 -2.758615995155139
776 0.4602499413874956 0.3286377939728758 3.02708629057029
882 -4.7367151580807025 5.978934603549161 -4.227451738865661
780 5.700850744544442 1.2553070197640397 3.3592097609876244
779 5.4963480105899185 6.888489520014894 0.3388417098812872
906 -1.5041954758719032 6.971438985278408 4.589513426345126
828 -1.1531068190034708 -7.6725866814753605 -2.3317804566678206
784 2.9571663143720253 -2.333734804206163 1.4316578473189947
788 -1.5263206960764675 6.741836686679992 -1.1203432582949269
783 -0.9145908874942804 8.294193259242938 8.742346031797677
792 6.7990911121834525 3.3062766777432597 -7.346055752023022
787 -2.843947408348139 -6.21731031873572 0.6146472940927569
791 0.9797087943892226 -4.815334342870412 4.612874935824158
795 -0.7190415717136003 13.490607695605323 3.9348913543859645
799 2.963676533525289 7.001507877102805 -4.223010129084364
981 2.709796749951883 -12.048861474053373 11.374670268044525
803 0.457080330837852 5.963393386974133 1.6114448145530342
807 -2.1225912226742274 -6.142960752351811 1.526212617230859
813 -3.5249187313715566 -2.2046677004645496 2.751021100908612
811 7.4071782196192295 1.3664039105408397 7.228509134377538
815 -0.6944038717973327 4.023335742493683 -0.9948680971594589
819 -3.2369549079278754 -8.34081935200889 7.179842505781459
823 3.545822933410066 -4.012190067135875 -5.002444865116838
800 -6.739725728576893 -3.7955479813072164 0.36245964401674446
804 -7.387994853693559 -13.053268623827066 9.601254975954419
827 0.7874054861327696 -1.492642538962402 -5.351946737620448
808 11.310636638181311 5.49242240416903 4.729240141265696
998 -3.202311609105127 2.7465210203117825 5.4656446588276015
831 -8.966504599908625 -2.0877963401293 2.690047564514625
812 -10.621141638306566 -0.08020803859696121 -14.914842478531568
847 0.5805454194287285 4.92949726053332 -1.463719636659594
851 -10.413684208164874 -4.227468087091942 -9.90862001924657
835 0.03701199787200782 1.1910791350879684 0.14250277746619475
816 7.607694582195762 2.8202077887644585 14.838758746779071
839 -4.0081875351522465 1.7116079521976484 4.062681574936416
796 7.230548375800859 0.7356842582361073 -4.193244716215891
843 3.1028248153824287 2.4928371128005264 -7.615543545949927
824 1.2301865337618367 -1.2234349118897028 3.0930549602167754
865 -2.704878364867899 5.166762727407814 -0.4562239655655767
945 -6.461774017385363 0.9817390250939515 2.0892538922072363
70 -7.779217352542313 -1.2889550077284713 2.0853383817480435
1006 -0.46347922614376263 -2.9543967158014866 -0.9025608661519048
934 0.68796095035155 1.982181219387918 -0.7776233027965439
22 -6.587240281259626 0.6143871769771998 -0.37300887230790947
921 7.354085019111605 4.5467018296498365 6.020349738095557
878 -3.146529206525457 -6.8424502133480045 3.3048859635582355
909 0.26411068115959824 -3.2189243934054916 -9.683461880960634
941 -6.013459662810452 6.701332163254158 -10.788492560540991
985 -6.407470481687498 2.343891276669732 -7.683500453519357
18 -10.979203933930869 -2.5622173306932807 2.338916858401188
902 3.5519778512354283 5.986484610693694 -9.36244586338844
989 -0.6936954405545395 2.0654088428412516 2.8530636278244783
898 6.343958377433636 11.861883584991247 -2.870060022234641
937 2.2064034021090153 0.8993500405070517 -5.180021763602101
994 6.639737839036775 -4.736782345314125 -6.104914038421395
877 8.245563200389451 -7.122177684105833 0.3134668946546073
34 -0.6211172353183062 13.440879633713989 3.125948192860706
982 -9.617255922892495 -6.419636976262137 -7.925373668539743
929 9.076277874631884 6.656102995147475 -5.586215219034995
41 -1.4234032464271573 -3.251052437773301 0.79373028425501
50 -2.678230859444159 -2.9491900545311918 10.746456232859645
58 -1.2721989376302554 3.8391087430223223 1.577797648974451
62 12.647595670526071 -4.2419960712548965 2.945106681509122
122 -8.848310409026862 -0.06204936226820455 1.0048132482967902
30 -5.986725427134979 3.6952748876311095 5.947717978648616
85 -6.752973280256569 7.728189549577581 4.943626131354167
868 0.1837147359711399 -1.6826864861273125 -2.5844482849082584
872 -4.407646094930826 -4.358733386482027 -5.18085205493393
871 -3.35652725803282 -0.8802999080911439 1.6015275540484608
870 -2.3232774856124085 2.413076355626099 -2.096133531118752
876 1.2209089485061102 -3.4858414920360197 6.773448172139021
880 5.415100171753237 8.146903128400965 0.6229424217672709
961 -10.719882656444156 -0.7230913008668048 -9.264021613172936
884 2.838683485034954 2.0495687153299604 -8.583781761756592
930 1.812372544545451 2.608889363501867 -0.8252108732206218
888 -3.4251482366538957 9.168547911701978 8.070930396399273
910 8.794728048150303 0.20756612434655664 -4.852931990301559
1607 3.28705421285884 -3.0012793328646423 -3.7715099767487166
887 -3.9639753780877567 5.002064482136407 3.1904667403583384
891 -6.106241957326531 -1.8998987289271099 -4.90056519998793
892 4.15310117068731 4.578314925383455 0.7890415430149746
1726 -3.7168937605782513 -3.097045096863771 7.521820572057166
881 3.5956441229115286 -0.3315900893497717 -2.5044739632257
895 1.876698402009887 -3.9209251358672423 4.019682646833422
896 -5.530336658729981 -3.826778666324024 11.050873752919172
900 -0.8933799510784368 4.458087301099809 2.7285924556359316
899 2.165873220305462 1.6567166268380735 11.281091862966957
904 -0.10135888611446678 -1.6808679064023664 -2.692882829182679
903 -2.3970518832481678 -8.271015159030895 -7.022478817349074
908 4.823760827505428 5.646103558634103 -2.204547535199375
990 -12.161831158571516 3.3055238969333502 0.9749154147268957
890 7.2051839173781715 0.25265052384929954 -0.6118266659631796
907 -1.0794615025045726 10.342897719658916 3.4098792122602
912 3.124284788613176 7.894418785880775 -0.5148864612540477
949 3.664543812598787 -1.0133123721589332 -1.279632302976846
911 9.618721109342557 4.804043287365976 2.448983135258133
915 13.426701711537119 1.735068074269582 -8.254250504597808
874 -12.364420103332332 2.661893786429878 -2.1191954870914604
919 2.6546076905892937 -2.6567844349135443 -11.179586881695386
920 -2.160632907389544 -4.7472777164212125 5.903501045980718
954 -4.924471748847668 0.5845266292143529 5.388770826907848
923 -0.9854746911955264 -0.23045006133060905 -6.444590698234174
924 4.147296531997037 -2.4634113559518793 2.5856422223128464
928 6.980955007221387 -7.543362025815611 -2.816175075379979
918 4.930845190484557 -5.911081408512173 3.078484032113531
927 9.44762889178878 0.6230845627934725 0.46444865039916583
932 -7.777343474987102 -8.957759006452395 -3.2660508752744635
942 -5.896667176138994 -6.5293291699216125 -10.766991458419543
917 1.1702214308425443 -3.9736586997139685 -0.8774301049522517
931 1.8021920370089841 -0.7165157064544618 2.462253222239737
936 2.0909560523534627 -9.514714913212098 -1.1354413403636097
914 -1.580395745314652 1.848348621727779 -6.041222146132822
901 0.1870520463610395 -3.3143096635268328 -0.5738398822567663
962 5.968729034222491 13.906488669665704 -5.231823286647037
916 -8.157721816481894 12.711475043060839 -6.397680288193549
935 -6.007055760339668 5.685100374179814 -0.641077607214529
889 -8.477786172369681 -4.991982508879847 -0.32943967960169646
939 0.7705057600719082 1.1273984876839693 1.1490768422416309
943 -3.142992386369375 -10.156283065996396 0.33515765707201856
947 0.8763957106055751 1.0354785947551475 -1.8130764637935195
922 4.096002228389264 0.5925608977897735 -2.2406090168682864
969 0.5629574895347127 4.650777730589539 0.956508553032285
951 -1.9432852557394127 2.2792951092161204 9.989230286947826
993 -2.508242932217191 -3.5612101683784734 -7.801575194450627
955 6.186125701761634 -3.925030959953906 -0.11958448564130189
1708 4.30953108978797 -2.2083788575146226 -1.9824777374320717
959 0.01834272502649002 0.04986349134130891 8.159469682614995
1728 3.9034441694459776 -6.325779538853796 2.125699323402926
940 -2.7687087276053837 0.4634832573685196 -15.107301141125774
963 5.694563815483237 4.46771786685775 0.1726831866738616
1675 -0.4914229116200178 -0.2815580786231061 -3.7503675111050208
1671 4.5931023567104114 -2.9773096875586256 3.895316098007476
1724 -0.4295736058702944 1.9347348423858555 3.0768649743008436
944 -2.0044466325641985 -3.748186187373586 -5.42658529308884
967 0.9657630835107904 2.30779324691717 -5.072495974905167
1668 4.784346194744595 8.565950388877104 1.7629962287636853
948 -9.269144004818537 1.4458172904141107 -4.260808260175069
971 4.928021630282686 -6.74159996813772 -2.6698416594914454
1691 -2.031797518259601 19.875832489681482 1.0356935957378715
1660 2.9180933754877922 2.1736339120652546 -0.7315929467255631
952 3.006535241311477 0.2191095899467256 -0.22261262916770672
956 -1.7118132168201523 -0.8905623017086894 6.7622031822872986
975 -9.766257537834626 7.3141377940997385 -2.170602082582571
960 -6.838194930910357 -5.486649746744294 0.41055124704237705
979 2.7025690591619282 -2.8027075033702156 10.61293188971243
1680 -2.36779659961786 0.7280051471765717 0.33457031495603856
1664 -1.8899978309769072 4.96948759378185 -8.897243597199804
983 3.7434265386135004 0.6758340909162632 7.9302086386059285
1676 -4.48639693441078 -1.0464795448552322 -4.859317343081814
987 -7.227338421842194 -3.7056711789561754 2.128423785305429
968 5.741218710661015 -7.701987353264962 1.2722473998541652
991 2.486898229517861 -6.263985428940604 0.5993819711623053
1687 -1.2479445589880118 8.387277264363915 4.069187779084281
972 -4.194030165041581 6.787800660509185 -3.5384133110419116
995 2.0346967763086683 -8.542585071902117 -5.008281804772593
976 -0.9404966828906506 0.14692795022372243 4.935924285498261
980 -3.014604538348199 -3.368407936574273 -1.6318535561621135
999 2.134339414008015 -0.6272116921076668 -3.9377980792904266
1720 -6.8432349863176665 3.9688829588033334 10.88059520651517
1711 10.476096828927952 6.119205950129312 7.453903025885087
1716 2.903978223611842 5.219135833496087 -2.0864385243159296
984 -2.0900387310861626 -12.738635554192538 -1.0244198086470115
1003 12.424496156190903 5.248739607066955 1.4873238600692833
964 6.547769429438257 1.050358225880701 2.276648927565079
1007 -6.251798963480801 1.3690549647905796 -3.551651798213422
1595 1.019589680086517 -5.52045088034137 3.055202873246038
867 9.589382686819778 2.0128771700443173 0.9830692697918358
988 11.320345592143202 5.856353335529605 3.376273408332548
1672 -6.52220469077783 5.531980577214545 6.472384887264544
992 -11.290417112030918 -4.074421905785431 -0.38181940620845917
875 -1.5041029873155836 -4.354634464609716 -12.987299695418805
996 9.847425384405824 1.8752176515610266 -6.302389685741082
1000 0.5839047181958631 3.358278509063166 1.1594593823722645
1695 5.35032625586322 -4.502402166717891 -0.1639726875467841
879 -2.5261132208012413 -1.639255927002939 -4.788901056332486
1004 2.5778821999656913 -1.9372527364920484 8.534739390066147
1683 -3.1280567968152635 -0.58428639881842 -0.033088729158579064
883 -3.66405551458402 0.5681457368164905 -6.6764523904079605
1008 3.213279116931489 5.088125098398938 -4.752117504092875
873 2.904268162252175 -0.936731256473311 10.174358790944295
1699 7.502254278637357 -0.8280204188088449 -1.004133553360682
1010 8.207385742311804 -0.7359501204556156 11.683285701922454
1012 -1.9419745569630749 -10.240381250862297 6.015868368442372
1009 7.806619894159878 4.5543165573912985 -10.170458338383813
1014 -5.433857109234305 -5.440539606447412 -6.155122484559045
1016 0.2946614269616938 2.536176557499169 4.62927084220567
1015 0.5961833316042651 1.0298046835845147 1.8597644514178335
1018 1.3039751776766688 5.980346888822142 3.8753742409344887
1020 5.7680725166778934 -4.512353761519665 -8.187537412131062
1024 4.3026005910516325 7.721731018036901 12.47947663908497
1022 -13.205972105325221 4.583954435005626 9.088975900877552
1028 -5.013716323971471 3.144322575891667 -5.778421438876107
1026 -1.1219773586793313 -3.454388323400919 -4.774831732673841
1032 -0.03901936143413131 5.407501068682329 -0.026215439762481686
1027 -4.777549654334951 9.415753285152954 3.1309056132313655
1029 -3.111475074991599 -0.1494490014539503 -1.6329079939530597
1030 2.138654430013277 -3.136352983599889 3.887989130577349
1031 3.0742373125273885 -2.0581015599708383 3.5821047139013924
1034 -7.432774862320553 12.537097774710634 5.280820427147011
1035 -5.176345395168618 3.981471123003325 5.173566450906602
1036 3.068923459384799 -4.048426610408064 -0.5775613667851739
1033 4.940591802779199 -4.243080328566165 -9.111405148862524
1037 -5.25019845374151 8.806199989033852 2.177890911271927
1038 -1.773381788526509 -5.684307088117173 2.8616142767998602
1039 -0.7236931586113786 -1.843581423097827 -0.8680056025308938
1040 10.965657200320566 2.4609182627196864 -1.720191249916414
1041 -0.6321754875708663 1.5023673816191214 10.40425749719941
1042 -0.32934868905959314 -8.433515340879431 5.925310347917081
1044 -4.55346481704564 0.8058271484264714 -1.2903480828346208
1043 -6.91242032156902 10.87357939845008 7.766994002929056
1045 -3.9858683544147078 6.013593982837704 -2.191227149244666
1048 -1.2057353849387533 -0.652928665626323 -2.5710909308259557
1046 -0.612041844846037 -4.051595861752179 4.737701835856313
1049 0.17563054523071048 3.54270041357788 -1.0085082565844765
1047 -11.038151697664324 1.1907938205043542 -0.46429924474860385
1052 4.252409482399537 -1.6745780548137041 2.5260415942027317
1050 -11.178361253672493 3.26951167060755 -5.138735355031359
1053 -5.859015233042878 -3.1392884702620782 -3.1442457982658807
1051 5.431520726982873 2.7562728414729762 -2.4739554646034616
1056 3.009966110044858 -8.273847308482393 5.642616240388473
1054 -8.345198480418896 3.4625606695411304 6.251126451374531
1055 -6.865325163696313 3.567061279833985 -3.984060625664604
1058 -5.920691549833879 -0.7496897128239616 -4.273957861928682
1059 -9.395655094388232 3.9632410874461654 -2.4461877815079767
1057 -13.787174264748574 -5.803659592735445 -12.153512114434456
1062 0.9874888243054176 3.6009969263405806 1.4432326897685988
1061 -5.452615063114059 -0.4198622012642112 0.1341198067190431
1063 2.944887624378882 2.7996313566906528 -5.394413067386537
1064 -7.136340905964896 -0.9244117124458048 4.234138786009872
1065 -3.894569202321124 -3.5785885667560504 -4.59218103288221
1067 -3.666920813122107 -0.876867135743121 -4.3345367269722255
1066 7.197808859013768 7.567172511421078 -5.90495239908587
1069 0.5914743060434116 3.5084342226790235 -2.570680130694954
1072 7.710807757512018 -9.74629004145783 -4.827720968051186
1071 -3.647091112096802 -7.19778351726103 -5.86533742037965
1070 -11.58113924878344 8.44518389711295 -4.385103821150944
1073 -5.597485512074962 8.26229951995188 1.3564203324279338
1076 9.043791975445133 -2.132776275645469 -11.10259471356681
1074 -5.891084948682543 1.2336103024567573 9.078496769729696
1077 9.337697107589053 3.028417820672222 -10.010244010200685
1075 5.326966837297634 -2.519197909883338 1.5176310661643229
1060 -5.4792280768297035 -1.4028800152723577 -5.933687091666304
1079 -2.6225098674493537 -7.921605328645986 2.177438124351559
1078 7.907101840147622 -4.471078448912407 0.3193697053224595
1083 -10.524132022264688 -4.004582379173066 -3.3835701701706395
1081 9.12487132951832 4.938030302755001 -1.6675860128474393
1085 -18.030666975622726 -4.053484045737497 0.31188952315525925
1087 -3.7760257722010953 -4.300485537922226 -8.354415912199855
1068 0.294059376191996 -6.786840554096102 8.096008795891144
1089 1.5611787230836065 5.808776107610755 1.3035134577731358
1091 0.7488563792551979 6.885268346668878 -2.2671174618235344
1093 -4.460200466350816 -10.984168480537281 -3.6678326300151816
1095 13.035260965030865 -6.763936885348798 0.6863131529937418
1097 -1.7937980977898367 2.4891225435888793 3.406734417719584
1080 6.464143407481468 10.032013402405536 -1.0113060730624945
1101 -6.268073488023317 -2.6568100145919686 4.0000259061765195
1099 -5.444017696829383 4.052023480377902 -3.9579800717124365
1103 -3.053678953713603 2.2264452658362113 -5.027914603771328
1082 -4.688279378522384 8.601049266655421 -6.191125121257972
1105 7.38636950296272 6.048152748312774 2.259866549581864
1107 -0.8994639610840991 3.6347367279573928 0.05199058470611189
1088 -8.005081102023796 0.6135637177735036 -12.795345719421451
1086 -0.9076898721905734 5.86808234843748 1.618162324717481
1109 -8.424911403216521 -2.4542280922973707 -6.947309894636438
1111 -6.413894838735482 0.9129912813256166 -0.6698434156051027
1092 1.4580762638480942 2.3520077485119337 -7.584184991319754
1090 4.731490383815469 1.104281368945684 -1.0854426603302239
1113 2.864564138975234 4.398796072023302 5.238792937973313
1115 -7.252270609458094 -5.882313086016569 -2.6626143431339653
1117 -6.986412739388397 3.907335778552108 2.9329584271842837
1096 2.147378695952682 -2.135225881769986 -6.693549747935916
1119 4.953744347295851 -8.51663299514054 -0.013133855915696503
1094 -1.4272624374718033 6.932928146181962 0.12489303321330257
1121 14.89037670664367 -3.463742437289878 5.709703764977822
1100 2.567102780485236 -0.5732980564380229 3.740817202317604
1098 4.040834109447659 -3.717286303570344 2.2276071666909285
1125 -3.2673925520849503 1.0365011425458113 8.457886740148423
1104 8.097691940873 2.5717851131229303 5.861801444445634
1123 9.246106399926736 -6.555412833344829 -12.525814021932831
1084 -14.575415408619692 -1.4083611210103888 -1.3376083302338602
1102 -3.3793880678267425 -2.348977078828126 0.7951578817169834
1127 -0.3671902572689121 -6.193527039712841 -4.8353024020861834
1106 -2.411126505529455 -7.0459454744167695 -0.4120680035023822
1131 -1.3515619505165273 -5.576948755361894 -1.0354797014208972
1110 -6.894427785731533 3.3209991808524384 -0.9119135895305003
1133 -2.1862672282625257 5.4126412693844035 -4.032399843149564
1112 -6.266061799222084 6.691250724174053 1.667804602921203
1135 4.2269396312194 -8.01519306910468 0.26589964741861594
1114 -2.015155502940816 8.415184236377053 -6.053271594900761
1137 -0.2965616159478655 3.240771247603005 -4.953188357935497
1116 -3.3244222909186374 -3.095515075231546 2.8818058586749675
1139 0.22788704708899718 7.134793318758346 4.885637490722306
1141 2.892988845523189 -6.158034659920034 -6.006155736513255
1120 1.1688420973896796 1.9081272823557278 -3.7228594974762967
1118 -6.381130066762931 -6.139059950642011 5.907455443007393
1145 -3.802776571341935 1.7017011962084374 -8.552143697455723
1124 1.4401906484821696 -2.0229091371649455 3.7126669254767637
1143 -6.248899979044042 5.1530933972789885 -5.5850980790317575
1122 -1.41250731665011 2.7968225128569597 -3.0532667546654677
1149 16.844881493740527 7.436211959219856 4.033259964325015
1128 5.717300741117845 -7.66203498747289 1.138041185299253
1147 2.228222496404578 0.0014982881397962616 3.3853469833884335
1129 -12.626275068310779 13.46609892097081 -0.9447390145705113
1108 -0.06827886017834765 0.9398629524070813 -5.91966759689026
1126 -1.609429317620469 -2.908136107570827 1.1929252214670416
1151 -1.5444204212318948 -1.6658836846882918 -0.8195484983924374
1011 -0.19347735626538837 -11.241615947009409 -1.856320569840439
1130 5.905638365855322 -0.2866943083011815 -1.1254763086183721
1013 -0.8037458068518963 0.0664321439757839 -8.05137225075723
1134 -4.25926008265204 5.0555681082694965 2.289945509443527
1136 -2.633258416627498 -5.693343779816886 -13.302671304785456
1019 -0.9487613721279545 5.64169654364142 -5.3340330807280285
1017 7.833927641097648 -3.936777881880223 2.4878064293597313
1138 12.104735160412517 -5.925610386778743 -5.002538373739185
1140 -4.529029182754297 1.3625254707528347 -12.09869200290931
1021 4.265897841807934 5.685748844568898 -4.757785216841493
1144 -4.665984029789554 -4.756230960602147 5.2271347559255705
1023 -1.092214182035324 -3.243349275580587 -4.990552618995162
1025 4.455360413025927 -6.774591880888011 -4.908329637096314
1142 -3.3900288637997558 2.999115794212645 0.7391035138401836
1148 8.756478218987356 0.21612141700321183 2.6945875748286006
1146 -3.1220896405647762 -2.1336024016203194 -3.7691565191826424
1152 8.008819315505672 0.4632809165238251 2.6882853419842117
1132 0.24363421693464818 -8.196929264262428 -1.1038272593865965
1150 1.436029560089589 -9.31400308941556 5.3637525435758375
1154 -2.1721945979790473 3.4732681131306102 -2.4379894161111286
1156 -4.768559868373384 -4.103960459132318 4.350894079762366
1153 10.445992168164063 3.074861353650613 8.794596280400247
1157 -1.3651336718233194 -1.8660959076053747 -1.7750138357925538
1158 7.239561379942893 2.361840546148649 9.513546518561917
1159 6.101607099406372 2.845917544813164 8.57557068439417
1162 5.6253135121047775 4.143479427087524 4.888448952878946
1164 -0.020273147631285567 11.368033349501687 -1.1165599184893882
1161 1.2050461756609285 -8.050440547703346 -0.10837646555775991
1163 5.109292148528376 -3.1926964196612904 -1.8170456798957242
1168 1.0113012564482806 7.0623357849432 -10.618684115479168
1166 -0.8007973301138998 10.736369080446618 1.8859206892129392
1172 -3.147842171270639 -8.204563723039854 -4.292761854749412
1170 6.717435479186057 4.776807534700242 -8.171697465340118
1176 1.2090741517739738 1.8681614877569441 -4.193978902824931
1171 3.941512272749253 -2.612631462311854 -5.873545438933155
1174 -2.0400863156170987 -5.97658751934995 3.1705667656430743
1175 -7.993361837092463 -2.5249264617818996 0.15787582128554808
1178 2.778433054078332 2.0756017371274917 9.907758150806998
1181 2.2943475052140823 3.571342941312837 -6.189673446462265
1182 5.980123231190319 -2.0014005042941534 -8.413773076315676
1184 6.906129877787973 6.000327706659661 -8.703835387256884
1185 -2.237072955745503 2.7567877219618055 3.645366786032832
1187 -2.5744672293506556 -3.4612804587395134 1.5307283105787117
1188 0.9359363689527694 -4.2782483042781125 6.217483364232039
1186 -4.555486538936635 0.9067057738703721 -6.843966427703072
1189 -5.117655207743288 -5.3253075701399375 -9.278775331569967
1192 -2.5028879459765716 3.183773550493544 -0.12111648993599876
1191 -2.974867971864555 0.7733705295334613 -9.53632902305983
1190 -10.918793258857198 -6.942329814551346 2.8616392963993094
1193 -6.163902564657922 0.9871122302973802 4.160836676505662
1196 -2.037127286901245 -3.1118091177846403 1.2958547735379882
1194 3.853402015431276 -10.601680750177616 -3.7224410301014634
1197 -6.686618663024327 6.283258730657687 -0.1484984339953966
1195 -5.175419040604235 5.501239715767289 -2.9737375785066287
1200 2.2417406172711276 1.327414973702885 7.1443663247540234
1177 -1.51111706891918 9.928423275733074 -1.8711925875677982
1180 -2.6081044011596375 3.979111868083828 6.184996199233466
1198 1.3273224527046243 -1.4956615018207253 -1.6263410409903087
1199 -2.752490503200309 2.049799841859056 6.409010417666718
1203 -1.0916106156107097 -7.317349071533819 -0.18435939197648796
1201 2.6629080450239 -3.8309323681250094 -5.344630825437143
1205 5.127783929032928 7.488751288145535 7.766439845825174
1206 -4.768099932012423 -1.0806639087752743 4.288772734989139
1207 -13.274047378080962 -3.403235937171898 -2.921313803172959
1208 0.1302208864007887 -0.979779366211169 -10.417791646308036
1209 5.494595701809729 -6.3685089473210486 5.340445339184549
1212 -4.839355571061886 -3.5731325610182454 5.2874820994913865
1210 -10.820413496177824 6.303251616674579 7.83972402259458
1211 -0.08779898505659928 -1.1051132055527266 1.387636485582049
1213 5.153031225391391 0.41985366556944576 1.6337677386097207
1216 -7.8431991124729965 8.377981238741395 7.410760841369666
1214 -2.8899581364238043 -11.185282592078986 -4.409292156490348
1217 -0.042759804733730436 6.004545704682309 1.3213945563834366
1215 -14.395136469509978 4.059566778585399 6.752356718623838
1220 2.3280099043219744 -0.6698671901134216 8.046941058056872
1218 -5.113242035369263 11.086749594912702 -3.721942798455188
1221 -1.3058772847872866 -0.936913372735638 4.323971358805061
1219 -3.0952813912826396 -1.3559155064804622 -3.70987065110625
1204 -2.0015636370287995 7.826480519960353 -2.799738908951894
1222 2.2487553398749016 -2.784912303715308 4.107136053067592
1223 2.017085724613512 3.9942128078723376 -2.828076980777327
1202 1.0393078175259096 -8.064131922702542 2.691655584935512
1227 -7.574002933938818 8.701611218427178 -3.5709205551658547
1229 -3.0163412853915097 -2.906044134246397 -1.262170630527817
1231 8.82699850895901 -1.5202100780570538 3.8629333320015906
1233 10.803181900567436 -0.4333492055561662 -0.9058374946777059
1235 5.146835552036768 -6.386479578914655 -4.602647746578291
1236 8.188076374976099 4.953442708377334 6.446201858660181
1237 7.7709363247762315 5.307270830101817 0.5878706338525899
1241 0.5110567726194236 3.762642863313117 -1.534944016977799
1239 7.3633545895741745 8.644371339885673 1.4277144760144833
1224 -4.320223195265585 -5.042576261713173 2.978062620192731
1245 4.637297142891371 3.552236309148421 3.6586194828014484
1243 5.300429261077617 6.054829935208379 7.271172783149098
1225 -2.6676081335769246 -0.7149626867304735 11.410151385379537
1247 -2.535886499473165 3.111454839325369 3.51628607759405
1226 -0.8185521338014549 -12.165196146801337 0.46144998110284546
1251 0.3208626453309633 -1.351732008709854 2.7750082856135365
1228 6.592257303117454 2.0350402949811266 -3.8760416480909226
1230 -13.765098738007692 4.954993170198572 9.713730257976014
1253 -5.061794378099135 -0.6546551521980223 -4.857382919720624
1255 -2.7766896163633246 1.942494643262345 -1.2994241250860123
1232 1.6046861313003271 5.097666360565189 -5.923490520258754
1234 -0.9210749507120998 -3.1516317998178796 3.0853173797531888
1257 2.0535887258494867 4.5086534411067625 -7.970587834913529
1259 0.0865202537534022 -1.5768705150621276 7.157541929712762
1240 -2.8479521381251414 -0.07686052886778888 -0.554296528626738
1261 -1.653980502542852 4.747318289355185 -4.391417204312406
1238 -0.6362117839936301 -2.1601871192538287 -0.9866652603504994
1265 -5.368004022679491 -7.099149873661283 2.9953069566410866
1244 -7.295943499125261 -3.3643457679072775 7.739751428910213
1263 4.418343352139942 3.0992171942872426 5.674955430043164
1242 2.028110303113825 -8.00841748913085 -3.410905700387376
1248 1.4014103094935586 -2.178197187896852 10.187803770422548
1269 0.0572736722213868 -4.681028803315074 -7.870828126874627
1267 2.178894109948829 9.58876339269385 3.481470369727219
1249 -2.807920897863049 -8.079711958874125 -3.8664275270072586
1246 3.9583902411941407 -6.195851804826268 6.878857059660975
1271 7.7153207318036126 2.937001714584965 -0.8908662184404602
1250 2.2839036252334783 3.5903520667507056 -2.1260537271283444
1252 1.555201900268169 0.977945181442421 -2.2512819984327
1273 -3.767253214116955 -4.150727358441282 6.580066980277197
1275 -6.5887649005771936 3.097654083108231 6.705490851868415
1254 4.41087451757292 -0.9356780544672825 2.6571329793012883
1277 -0.524256963337132 -9.496833753574032 -9.533561845155761
1256 0.23383584577110714 -0.6972610886203346 11.18395455560492
1279 7.451934353441114 -0.1171420195588481 6.244847809629173
1281 -3.869784024382752 -10.304531561792286 -0.7426737072840647
1260 1.6513242310359426 -10.346644399283619 -0.1783082852539619
1283 5.050308547149521 9.348669054615945 -3.343657009278643
1258 0.2548306092282021 -2.980118878845787 -8.803113908250515
1285 4.773852121458462 -6.427329205666056 -2.2653275650183633
1264 1.7540332956503746 -4.180666266118096 -2.07368448463492
1262 -2.6374900738309366 -4.682841617291673 -4.972978409444174
1289 -1.3389350098103838 4.288647081299355 -0.3048069538446979
1287 -3.3622128290243745 4.505183366251938 -2.8577893333417297
1268 10.206371932303293 1.935783866373336 4.967373771592431
1266 4.212700796954049 0.29224932558686595 5.6883907391909805
1293 -3.998368495364763 -3.8323988114290497 3.817682934212474
1291 -1.8416355545876282 1.6494427272276722 -2.6933784862191397
1272 -1.6665524485819891 1.3206491742236746 8.043422857535104
1270 2.0517647580632956 -3.454552993377435 5.457237242602618
1295 -7.43849146155284 -1.2595175254253856 6.142024407837887
1274 -6.802110051257864 0.6837514592096219 13.434053580252318
1276 0.5925711037023212 -5.079143564444055 -5.796366858641708
1278 -0.5537879130279015 -1.1640481955900615 8.86059654050619
1280 1.3050910583972286 -2.8794290687823056 1.056837997259345
1282 11.617226804223627 -4.665068303158136 8.947773666804437
1284 -6.8659846432021014 1.383458575896592 -5.493562208355023
1165 -5.7281876381690635 -3.4959985763052717 4.833063115282943
1167 8.613962122473012 -0.0923176851134313 8.06173759054997
1169 0.7929554470013617 0.11362778741603236 1.293603192873349
1286 4.3629155029745625 -4.286658050860647 0.7925181269620655
1292 1.16001894330222 -4.837924079008794 6.07426313256028
1173 -4.867755475487573 2.1388870400117828 -4.5599392998540385
1290 7.3820780021553345 11.99961569936638 3.2297983337860967
1296 -0.550457073030871 3.326257569314663 -3.88826037404913
1294 -6.13898102771742 -0.5284579245532762 0.6035916153072912
1155 2.6281929023250505 -1.4269107799700325 -2.6700882570503763
1298 -0.5383239985054937 -12.223418687351138 12.371995132832142
1160 0.8103475948781752 1.9975450780762634 -5.674632222342438
1302 -5.923184992698582 -5.695318579771746 -2.780970202944565
1306 -4.063226751005507 0.7986235254755063 5.365754900581195
1310 -6.917764779274114 0.7464870711963387 -1.4106097196511478
1313 3.986174842735269 1.1691505410565417 9.067972202592836
1314 -1.2893044922788897 2.0080772575872374 -3.1551853498845097
1318 -6.807118546220628 2.4062155715491493 -7.338841332549137
1297 -8.43118665239422 -0.7600043377386025 -4.3758695689114235
1179 0.6456762252233111 5.922698623769908 0.20853959331062827
1322 -7.303446778095687 -5.081689231257366 -2.3341750968417965
1183 1.16744523278229 -1.2791402312396432 -16.344728121318365
1325 -4.987542238149892 1.6832577261391355 5.49361551021219
1326 -8.50688689854598 -3.1002458462835207 8.96825215279606
1329 -3.589848453942373 9.131107662100025 -0.9007894904224542
1330 1.4992050357200886 -12.100714100553095 -2.9916883363555695
1333 -5.657270926136395 6.922675558862097 -11.395355315167336
1334 8.754606629857305 3.580461873248598 5.549184052526507
1337 -1.2181872842935226 5.509774541366028 -8.358806539487672
1338 -0.1331015200291409 -2.7830101347178657 4.489980397985819
1341 0.8529788745143514 -2.277341810822206 -1.945939393940062
1321 2.5580762217777857 -5.392466059026281 -2.716937026537927
1342 -4.088822817588974 -3.8546365339661266 -6.175919146593784
1346 -8.806881981412667 9.312991179660942 -6.504881382183855
1349 8.87932452361461 -5.619669914625613 4.691913071275151
1350 0.3075022915522763 -4.957920520598371 -1.4025086822412312
1353 4.758003398678313 1.2913896493818557 -0.1745643234314073
1354 3.3179683735677714 -8.89563876699264 -2.645465659420847
1357 1.7636067377088267 -0.3349643435337197 0.3808927662387167
1358 1.6408867302177297 -1.010779945465727 3.8594826547666647
1361 2.9586178510719847 -7.360333313563037 2.4389627432751855
1362 4.075792743255875 8.418626773443188 -0.7115991239386581
1365 2.581060360116137 -10.050239616811014 3.6746261727696377
1345 -1.8833058490245886 3.250197422238367 1.4535457360227375
1369 2.7513749307217235 5.636436763739381 -6.74959446114819
1373 -5.893608158769401 -10.076234358815205 0.3027700001763722
1374 3.691476491438635 -6.641275755325687 0.24449774709615282
1377 -2.0019520559341095 -1.2353348161470048 -2.300390886990459
1379 1.6154466184305016 9.9737709509748 -2.607551878969351
1381 5.576962486303014 -4.159608087958797 -0.31208640768154583
1385 3.3051483597336606 4.243259400972282 -1.2033555190160161
1389 -0.28500377010075617 -2.9800841807425074 -0.030917052647372264
1366 0.1008438796647027 -8.925916721261267 11.20277904986971
1370 11.122617512524203 -0.9785364088493992 -3.638486417901876
1397 -5.610752475762664 1.2558328573795163 -10.108534722716856
1399 9.21616387823745 -2.4601956786162873 8.74660163933257
1378 -7.190431504379613 7.279894873410964 -1.6113013856985208
1401 2.990560911022127 -2.3326495733248724 0.4354716506953198
1405 2.1571820174905554 -0.2901030450526225 -6.95161444327331
1382 1.2289197902363782 -0.8296296798798549 -6.960782504016194
1409 3.0826064307443546 0.20657858883271185 4.035789669040772
1386 4.630493093891751 2.3677995768892517 1.1295855221585334
1413 -2.2571030201115954 -1.2662237822814637 0.1664283674571218
1393 1.0042592059344757 5.166301766034773 10.473042669011123
1390 -3.788010228360248 -3.6665760030536907 -9.460718605306807
1394 -3.170760885471155 -1.9907321177913797 0.35068583547872245
1417 1.4409636524304303 4.207205239387604 3.683861444906602
1398 -6.343414565432035 1.185531427542456 -3.534009753601399
1421 -0.5546087783697677 -0.6909502501603041 -1.5608569866111561
1402 -4.16158723596805 -6.75107173490471 -3.4313672186531754
1425 8.331250214060336 -3.779545761227874 13.169178026658676
1429 -6.805156170563906 -2.31374897452541 0.18984462528222096
1406 0.1702260840870718 -4.765332376978389 5.6869669892036265
1433 0.30654596808996676 0.7836944827920561 -0.21687949860020853
1431 -3.92858233696774 -6.778797294003 -14.250765102302227
1410 -1.9636145055742846 3.375881252451096 2.7436904688160135
1437 12.733590493546505 4.4093213450413495 -1.3147506082693523
1414 0.4332092873144561 -5.661594690030505 -7.079298200352937
1418 -0.8808983151149233 -3.768410234682339 1.516691931298046
1301 7.664556813691267 -0.25316170214079436 -4.057724224175993
1422 6.572139651434584 -0.45617240764774347 -0.5726461884847667
1305 3.513884513219621 4.826028252453989 -18.23773529931389
1426 3.3289835952828213 5.420224097886735 -4.21799238433559
1288 -1.8292602251331993 5.755254465854863 -5.5905182996620715
1309 -2.2512179447501346 0.5031034121990013 6.104651071760331
1432 9.28078434006897 2.0442273887426206 0.7607076433129996
1430 4.194001924991572 -2.4817380460587266 10.841521570500568
1317 1.1895775436571727 4.122502158572921 -1.9669836920528385
1434 -2.763652351663341 12.582606435470314 2.44798937284411
1440 7.464944649093177 -0.5619045031932929 5.728446615015445
1438 2.2055200995904136 -3.0955124446353004 1.29206601855859
1319 -8.265095975965059 -5.064702115298102 -2.8549668478438015
1442 3.480655272919158 2.4305450485625606 -2.36669938879951
1299 -1.3663306513716853 4.053919086697156 -0.7935826716270968
1300 0.07843976290902877 -1.393250615065866 3.7719263972570936
1304 -0.24420800850291108 4.7362295054866514 -4.1883607395002755
1446 3.204208828297384 -0.2922853324076509 -0.7599146857115051
1445 9.982386352714443 -2.0215762590208666 -4.4053183048024325
1308 7.923159164915871 6.156413244436177 -4.697127871248261
1450 4.614939778532677 3.069508984594288 -3.573282278425911
1312 6.3571672382253865 0.6510335930095889 0.7742131143789159
1453 -1.1231859987359023 -4.5345053700023 6.699195052798324
1454 4.461365068322786 -0.6224838020179431 -2.0256322837799754
1316 10.735611236489307 -3.343540458901296 0.6565234314118378
1458 -6.6408554248565705 1.5296644978977 3.1547705277096436
1320 2.9795576846590794 1.293917236868588 7.247191199598208
1461 0.1948311921197781 0.8855577841714726 -0.5001729631014168
1315 -4.438141465205751 -3.05663621804673 -2.238011505352133
1462 2.9330674812210353 7.197936258862282 -7.935080440897451
1323 -6.247157501500285 8.33809231955037 -1.7248082064238301
1466 -9.542274000333459 -5.7669160772616035 -2.996174188012244
1465 5.4390166872079275 -2.2625638567951714 -6.557269057132426
1327 -3.08535739558559 -2.423922126808385 2.2816264044233767
1328 2.712380878804289 -2.5633077809216176 2.700729860483657
1469 6.777498942872444 -2.6271746364692805 3.8272636280591774
1470 2.6719510140813174 4.009471387650777 -0.3728293909904731
1332 -2.2016371313489516 -4.058157136664903 -3.732459066674738
1473 -7.911087809295762 3.385062708062272 2.8664058946176705
1331 -2.8434317874368005 1.9542614324736687 12.409075297017978
1474 -4.797111948908652 -1.3245656819593075 7.326185513640217
1336 -4.271620858951589 -10.766530713370397 -1.5365695810463222
1477 1.1239638194942356 -1.8725304351853709 1.2535408289691732
1335 12.033933159460286 10.551025158571017 0.7812542965676695
1478 -2.578101940793516 2.4444164225964093 -1.305640882824824
1340 -1.9552026183491 -9.352708868968602 -1.376896375481588
1481 0.6745500320981984 5.966936882647869 1.8223598827090013
1339 -6.097694814956911 7.028962277267561 -4.912253599474258
1482 -9.043856100532851 -9.229250813953627 9.805921670061005
1344 -5.139257745068479 -2.5505088303671677 0.5753948779718477
1485 6.126996218883396 4.26318501813933 -4.9746220996585615
1343 -4.273418457310661 12.834184895316017 4.1812670815738215
1324 3.4183418261686818 8.208358301918384 -11.092347373796688
1486 -0.9237016298006372 -0.07340062244290364 -11.058988522348526
1347 -5.0169892000488066 8.587968428555516 11.902907831661503
1490 3.6855540103878157 -10.024201298961652 6.629355574178182
1489 0.9113040898314964 4.540799531057033 3.0649718687126466
1348 -0.9501060941960653 3.4138503313659663 -6.714528055872544
1351 -3.9011122574844177 -5.9340485326702215 2.037546113537731
1352 1.2962400052514038 -0.9698315088234258 3.293044944920757
1493 9.56119810343352 13.520671457123989 2.6678818385917533
1494 -6.188080451588649 -4.413041681531109 5.246763877787042
1356 -6.513765820664672 -2.9007432432454654 -10.596906208932218
1497 -2.2079867005319063 2.439157591780519 11.123334381758259
1355 -0.3882505605756175 -10.782178850071526 10.406720282779363
1360 -4.210610904706117 -0.36164774455101206 -1.7831328736117287
1498 -3.593281009057857 4.0953463706200015 3.257368643795021
1501 -0.18285733250951672 3.2494119545767033 3.349690536423691
1364 -5.160077663638823 4.844279705606363 5.022764615020274
1359 1.922948781386098 3.964111136928301 2.520600887578685
1502 -1.3436783172181779 3.43997054892764 2.652848163785671
1505 3.7036019207888042 -1.416577337655965 5.090046215497944
1363 3.756185396343495 -4.981547819163272 2.792487593984116
1368 2.3507240338224724 0.05153446053975946 4.281973367463316
1509 1.9257161224684418 1.0139415039755049 14.299927382627974
1506 1.4913287306832081 -7.355472799855251 8.703044666104972
1367 -2.4341298742984923 -0.9169915462260059 -2.9989763420338145
1510 -3.8879106912420607 -3.7632243823161806 -1.9821668819151568
1371 3.0022958724380104 5.762257159682185 -3.3965728236653643
1375 2.993295523990132 -12.343732775772928 -7.692247218947675
1517 3.7559064661617767 -4.029337012788232 2.562645514613304
1521 5.37866596490186 7.904076733854927 2.7911822175698617
1525 3.589971679771671 0.34324611116603543 3.1784568217198754
1383 6.7147942467522626 7.112594862043421 -2.76802490953873
1529 4.976300433277302 -4.021719056913668 9.23600153828211
1387 -7.154419212370578 -0.9804810331889727 -1.614540041832605
1533 6.383353850863594 -1.551087939929113 0.981356819297318
1513 3.046019616273932 2.5082208150352585 4.825068279764493
1391 2.2999133930284823 1.4717815322171663 2.721695219002827
1372 0.1756639741256408 -3.0409334346074153 -7.764076376124055
1514 -2.119827013364644 -3.2741570245269824 0.5223460047280286
1395 -6.0670667341512265 9.892966565059876 3.107153922501386
1376 -8.192560501305621 -8.64253643144737 3.2239031211648874
1518 -1.907531558661425 2.0295035994925907 -2.6769578138453953
1541 -0.841362772453633 -3.194438568887842 -4.759181100727298
1380 2.0921625430274724 9.756356111872872 -2.322468719220245
1522 0.4046846983346483 -8.300275962055682 6.982986658442607
1403 1.925817731627564 -0.39481439281946606 0.13866600603907256
1545 2.768635179080782 0.4570800306108488 3.5243454286810887
1384 -4.385182359615841 -6.55992788894023 -6.50602332771984
1549 2.236301249101817 -6.98397439408534 7.800263182884705
1526 -3.884487308722766 -3.4890758510900337 -1.8718204264707023
1388 4.918839617502845 -2.6278418257271237 0.010402228619591324
1407 -0.3403384266201338 7.579970707705517 -3.705878136848076
1553 -3.918195876804462 -3.8510786479505175 -7.933497779743111
1392 -3.2156127534036982 -8.640354055981277 4.644668248137459
1530 4.243259596769895 -5.319775171357771 -0.4717086742328222
1411 -7.616726947316167 0.05584769246143958 -6.418893277401578
1557 -1.0170324029142275 -2.4829184069617733 6.379275959397328
1537 5.219597338299266 0.4154190989907972 -0.1984892632558487
1534 -0.20527964134351176 -7.75260014363105 1.7758197880559188
1415 -0.7316443781329444 -1.8400896104121267 -1.8207846475391845
1538 1.5339379832353577 1.5933295608097378 7.025537190100408
1419 7.46201157762907 -0.8172347344993335 -7.080352435330644
1396 3.1492222039927307 -1.4054768549040524 6.391237193632341
1561 2.9180401742018276 0.6982821349808346 -0.4480821198408863
1400 5.93217511947244 0.24769760296877452 -4.306021653593461
1542 1.5495039425375325 0.8149638703072065 -5.375996952684244
1423 -5.387625799958522 11.923893830846582 -4.45047870361492
1565 7.838033181260378 3.3306867768477644 -3.84264066082652
1404 -0.6821486251871605 -1.8356520818393827 -8.238347252307301
1546 -3.09720439206824 -6.494806371901685 0.31189412373299485
1427 -0.03941366151035661 10.631912823182315 0.39479089325275807
1569 0.18278430293846862 -3.652624553693736 -5.582027952189057
1408 -1.431300989787026 4.799630214313152 -1.7267622743729505
1573 3.474098541994971 9.494551274152963 0.6204715140558972
1550 5.977860024385362 0.9707237318716705 1.800609444632939
1412 -3.969808832064428 3.6024742378818835 1.0430618017062172
1577 -4.504762417509114 10.801597833022457 9.798587923216141
1554 5.56790463514372 2.324170650445116 5.839407443586181
1416 6.782592420249643 2.371580928609182 -3.007490145526655
1435 1.6708708573472215 -1.8954281162505053 -1.7775279998749702
1581 0.579268179140084 0.398968799547527 -2.6566631851103946
1439 2.6677697051926903 -11.330449677692163 5.005332911202025
1558 1.0507644301796086 -3.417605989418462 -2.3751512083530253
1562 -6.566128917811094 -2.0410348375908294 -3.075830492877052
1303 -4.17359285151263 3.510869154668693 9.629488978093459
1424 1.3543318470564532 -0.175062426102025 9.895342729051025
1566 5.737399620872131 7.7377867717242745 1.767646219579126
1307 1.404519812041302 1.478602106392422 -2.64345976919456
1449 -5.706663917538562 -5.215556231692365 1.3430767735047748
1428 1.1646946984078057 2.8954295319165517 -10.882016354093299
1570 11.41193368169758 -11.285972893290564 1.606055325016534
1311 3.00859625998195 4.538597840962592 0.5841546901215948
1457 1.0941421433899305 -14.002361242629839 -9.596511975141198
1574 -1.549914874608846 -11.210707683072537 11.85823386162435
1436 -2.3667244578443194 -1.3679585745270735 8.717328482970007
1578 -10.044933510275374 -2.9256925779502523 8.540168499183949
1441 1.4013731653045498 -3.86354562942799 1.1655546299788457
1420 8.616467850451931 4.993458998391413 -1.6032716872765618
1582 8.074180583017515 6.1411186536183004 7.591151881164
1585 4.5092770783500455 3.1884844004375488 -4.799522985606241
1586 -6.5720077824409255 6.392658833890003 3.451978501452434
1444 0.6550417839989624 -0.5942680837602259 -18.730634963658314
1443 8.201884765621386 -4.032317068807935 -1.4049305482664152
1448 -0.6215608155736365 -0.9338451993548099 7.182730614790807
1590 4.666726871418282 -7.183255340443611 2.1602650713029283
1447 -0.5070162388249965 -9.06974466671338 -13.626513514083369
1452 -1.597095775270554 3.8999760646884796 7.8867226859845925
1594 -12.78631282023654 -10.889002014965222 -3.442882365594304
1456 -6.929707620672327 11.133756891804342 -0.5883777327565932
1597 4.810656824768411 -7.229295491086649 -4.092230272381165
1455 -0.3952624805410242 0.3452494506063535 -1.7452236300725732
1598 5.8211980434775175 -4.76086621055643 -10.459134559868426
1460 -11.106916738033634 -4.498430841849192 -3.582618991904344
1601 2.6723924271902377 -2.9486865789506815 -6.536969072498371
1602 4.732635148561688 -1.2809544305968934 -0.49560547843792724
1464 -3.8202662484562957 -2.637744130678517 7.090758064478571
1606 -8.644743092052128 3.559155962846292 -6.108186827854012
1467 2.941042723034879 0.49486870670630584 1.482143808007655
1610 -1.8202801992459527 -6.416402615527466 8.696625432788503
1471 -7.673792060233049 -4.80102759066158 -0.20815928666745337
1472 5.81451885011519 2.892344433435867 -7.071032572077811
1613 -1.8389524861800126 0.2526683670929413 -0.11728383977133566
1614 -9.032238855013356 -6.193103711171805 -1.148728469219003
1475 -1.3251356872596396 -2.8930960033968343 -8.760926521236023
1476 -7.490917449347577 -0.5953980766907704 0.995693911378184
1617 -0.9996887331351011 3.857359559024231 -6.379057482507878
1618 0.8892316920262022 -3.5571134643422497 -0.31554001918252883
1480 -1.389649045356945 8.095342984575614 2.9147328182058088
1621 5.962093756603172 1.2829864127251542 -12.450607457908882
1479 -1.8846492377191135 2.9275113083536106 2.3279750475338483
1622 -3.1042327887588006 4.930796130685069 -5.55108297691188
1484 -3.3560493416815262 2.3266778507533865 2.8522837262186935
1625 5.734949977465511 1.0949123486422057 -1.4276823163140895
1483 -7.313320744564801 -5.271901508080478 -1.148514417527587
1626 5.84503455882107 2.060865388263991 0.9854445509081707
1488 6.250718330828037 2.978500782076409 10.15707059310983
1629 -0.9328698482787852 -4.017474527880435 3.7893560267977873
1468 4.862649436645172 4.665806047136683 0.7614704997433535
1609 1.6705465924754312 -3.398868183609855 2.8971744391885044
1487 2.441772736159975 -0.5450585472431098 3.9955816405280604
1630 -4.426121576103438 8.699188367740462 -6.19172548586706
1491 -2.92811695953971 -7.2914516181189875 2.910547176190761
1634 -4.94730163537483 11.557482578834652 -0.18663488672283002
1495 0.8692321953922475 1.1607431474653496 0.16674983818956268
1496 -1.6255766386682737 -0.24933267658531064 6.947255305868516
1637 -2.8396972637587163 -1.7434074977136964 -0.3093660854293192
1638 4.830813564096935 9.772355054752014 2.2079968920299473
1500 -8.625279651486322 -2.0229255687203422 0.7731137329317339
1641 3.322664006868966 4.0964897558697375 4.934802765090847
1642 3.1456979489787824 1.3716363126326128 4.613188577217908
1499 -4.5032681954382845 -5.2395972553545676 7.143821891251399
1645 -10.552483780057713 -1.457873915235083 -1.4467923730156973
1504 -0.3193700610262472 7.868364171336374 3.9441084522904535
1503 -1.0088522696436482 -4.7012311222967496 7.008293717951156
1649 8.15328757686227 -7.050006418012604 -2.5460482551333676
1646 1.1734023085796412 -2.1670929291804324 8.641174610961608
1508 8.91436377314375 4.473461572036628 -2.0394103233206198
1507 -2.98472572301307 9.128220731534993 -3.3094543626868433
1650 7.738510492833355 -2.8038788902369634 -6.6002139319128
1653 0.5522299561731404 -0.7323024129670784 6.798980704436387
1492 -12.005393404928975 -2.2727823566204264 8.450266713926707
1633 7.580306421942668 -0.06253774688507933 2.2268947204802445
1511 4.730127417442821 -3.2434996346458176 4.241421772947574
1654 5.902483132138275 1.202076763932855 -3.8226070406749963
1515 -2.2179909256512933 15.715914125484078 0.08791244209423063
1519 -3.901452713249663 -2.22892343734347 1.3843798302307688
1661 2.310436220384866 -0.06001148361407072 -0.9485450510892088
1523 -3.8551662941825553 -2.8595281915033177 3.6391832370555544
1665 0.6553136907605799 -1.3253164328540288 0.019071474383483635
1524 4.6929826290505465 -4.7175714403045585 6.904611964112155
1669 4.9132557057169794 3.2631086966333283 -0.4023271806520664
1527 -1.4520314657861804 8.764391445604788 5.739351713492518
1673 -6.774406948693048 5.229997452382885 -5.007421131902053
1512 -1.3140748322753693 -5.438915383366977 -5.222148768248427
1531 0.27883840455852676 -1.3571390455714432 -6.487680295579381
1677 2.4568652533786164 1.213391760033479 4.297184156444931
1535 7.551292761630077 -5.815141068780494 4.04781288742572
1657 -2.5524565561587056 -0.9047978708373713 1.069596680243648
1658 -3.5099177338537357 1.0102220191261655 -0.06659505900221815
1539 -3.6682866056911663 -0.02316606620301285 -0.7886345698783016
1681 1.355564311847585 8.342759608325228 2.5962563845884055
1516 -1.5538877367193882 -4.050119643423196 7.652011857813286
1520 3.79452019420837 -2.864971846588437 -5.716010845400564
1662 -9.34006050866722 2.3187278979473915 -2.47034801865749
1543 0.4275768408444543 1.264303304340801 2.5507854000997296
1685 4.103613186907121 -6.817018881625114 -6.112040349394155
1666 4.67324031573318 -6.006911880493258 1.776401024516227
1547 5.890523261934421 -1.1767036647658502 -2.6210667693006036
1689 0.7883170395238703 -3.7298752044427155 2.8508924791933756
1528 4.0793581466706375 8.270866523985216 5.017976769277839
1693 0.40452106686460576 -0.3837183770789333 -6.445794276839675
1551 -3.9012225972166776 3.7858442066023343 -7.492232735846782
1670 2.1368873599128375 4.372366441812633 -5.6482182011274835
1532 0.12891912749634693 -3.1232352348943073 6.15431715880137
1697 3.4830263702386985 -5.283938900980963 -4.196897029900626
1674 -1.583706734943335 1.1220147335239004 -0.8952518246268806
1536 -0.3646355917689571 3.7196738232804063 1.6667342152792188
1555 2.9925958689571472 -1.7846595512614274 -6.597921790059497
1701 -4.394979971973235 -0.6452971487022218 -13.411035970143299
1678 -6.345964044723324 3.1890747613881105 -5.619187129984736
1559 -4.714781781726907 8.957802459532408 -5.96782863273109
1682 -8.866784937476433 -1.0570004069013523 2.197687258061854
1563 0.44321476947948474 -2.4016628598733814 -2.884369593037258
1544 -1.5178280758108793 -7.067276295735543 -9.779363625391921
1686 4.143736229445287 -18.243458641688996 -4.171173088724537
1567 -4.205835553802262 4.282680481978314 1.8476854977439632
1709 -1.4001962588301455 14.137508855141833 -0.9577665300706308
1548 2.0292589785405664 2.4043475723919734 7.508349422585031
1690 -11.300691067025284 -7.50925478266933 -10.840322928059726
1713 1.514318323285487 -9.51150390407193 4.710842928065919
1571 7.311766341373824 1.7829996579632683 2.17271531115253
1552 3.764865890996647 -0.5159211471974112 2.1734262033175358
1717 11.28331744826725 -6.2483080165480445 6.7906558892486935
1694 1.1671713225054323 6.5872101537936985 0.3415885306629748
1575 1.3072169751273546 2.2861397834907584 -4.9329398725228515
1556 -2.5346177952631694 5.192282546381701 3.734688999141391
1721 0.24066677857207547 1.5231102615136634 -1.2303503178769943
1698 2.2249553794071932 9.81617708203163 5.299601998560713
1560 -2.983228546535391 -7.028875330312635 7.999861099539416
1579 5.192096493221293 -9.077542801609637 8.769136132486045
1725 -7.456953111622908 -1.4229765820764855 -3.2137254331698384
1540 4.535746574859389 7.706926262187603 -3.5457689307438436
1705 -0.5062871277145273 -2.883545387831936 0.9140635371981125
1702 7.9086176931919505 -4.54602644166479 2.5427596709481146
1583 10.477863223659133 -0.594268467918739 -4.556233851780065
1706 6.179263772544517 -1.50177126678909 4.527436413014482
1589 4.895377976600975 8.828561555014188 -1.0741117623757335
1568 -4.148793123631796 -6.987083567808317 12.322415349253784
1710 -6.196484052350358 6.229322784485363 -1.7420424702393067
1451 -2.18732260742724 3.0748312132190154 5.006625889523147
1593 -4.207305960637557 -4.36766157810617 -1.3011995899968607
1572 -1.4162226759470522 -5.444149475331347 1.1622854558194113
1714 4.384209966083663 -3.1171310550687092 1.1469895160726689
1576 -1.903163016178537 -7.347112989216945 -3.4569697100306165
1718 11.845029966002535 -0.4531099276030448 -5.725219765053501
1580 7.652917344987092 -6.762486059274539 4.955320461689848
1605 1.4486720040587748 -9.14592208597168 4.47925892267826
1459 -3.896941569814779 0.22410390646091768 4.411305503653315
1722 -9.394737645047506 3.3671238288442673 2.0382324352541015
1584 -0.9790506058830192 -6.071861176240683 1.7909913665285693
1463 -0.2158457304856709 5.602989393974367 2.1571222485088093
1564 -4.564573588237461 -1.819856575393792 -1.3006056505065606
1688 0.8437719089945998 8.959362202371626 -5.794372911117676
1592 5.080799122392549 5.624335067940634 0.707421114568087
1704 -3.052072099503701 6.603919643342233 4.44320941500936
1596 3.2846803355325838 1.7068814831797257 8.787099212602218
1723 -0.33232827391117503 1.9975179743408573 -8.329409653094789
1600 1.9630527514471106 2.359368847143056 -7.793447278722427
1599 2.1747390670296967 0.9910218591003367 -0.01174150832251465
1604 0.911223767711119 -9.10640425954536 6.506390326120399
1712 -6.997033575385426 -6.6890623786741585 0.8574792358438542
1603 6.425627847122311 -0.07843371417793378 0.42869319081866347
1608 -1.4675714977693675 7.621357915111765 3.4329777737612193
1588 1.4138939289061954 -2.2309686467567453 1.535314871165671
1611 2.3119044144408143 -5.126848027765248 2.3660453607316594
1700 -0.45742552564507133 -1.1824446978791066 -4.178912138807101
1616 10.645759224715084 4.01223929353282 -1.0486615634112266
1615 -4.959727659138865 -1.102194709109204 1.9770314141294723
1620 1.1166698399229489 0.14717959287646326 4.028932198822198
1619 -0.8641271840847707 -6.6351828239754065 2.4951546366002857
1624 6.521651407557522 0.8077040273446019 5.269476106077546
1623 2.6263945074572344 -4.862691408563577 2.9941883506144964
1628 -4.674886820715325 -4.148934708416523 -4.904803707967572
1632 3.0455299844330566 -6.229243186781873 -2.737331428242454
1627 -5.360045432448909 1.120650191183512 8.07546337077674
946 2.204342221935281 2.3703822936313954 1.060467021884919
1719 9.162569620855868 -1.8758055788347139 -3.563184393832535
1612 -1.9622103924550893 1.2292380795332243 -14.799411042712249
1631 9.253737450792007 0.1662340890652998 6.0299735516519455
1679 -0.3689223384231617 -4.48646768441739 3.505088893975453
1684 3.5690510034879668 13.049087709062475 -0.4776116606030591
1635 0.41703549294455977 -6.036833635696785 -5.541689510968673
1591 0.08831990279819947 -9.153460196540859 -2.8820960213052795
1639 -1.631656543088156 1.116934425899507 2.4954338727309264
1640 4.3496858008765225 -0.49120219417342287 1.0682503807093717
1696 1.9626426249346094 2.496844498485311 1.0098192547434042
1644 2.3359395343447216 9.78460744190694 -1.3474556347649396
1643 -4.32543510205039 -7.1887451056665554 -12.559130526437158
1648 3.778780616913595 -3.4744098775540415 -4.775946064411766
1587 1.9885375143759665 4.8952498993095706 8.945776563520562
1647 2.9066096878020415 -0.933440218898582 -8.261214482526682
1652 -4.135280246258667 -3.1509228205590163 2.7651328291388744
1703 5.949538564231872 3.2102635286782317 8.458592564848175
1656 6.391959149449042 1.1898287058012837 -1.8870264766043856
1651 -2.4470728458753808 2.6133632275808325 1.9229130623985131
1707 6.9283457006354245 9.102687023252516 1.6493923973405367
1636 -1.5925708591372132 -3.5575326987982185 4.38596983210778
1655 1.6058639942799033 -15.732719075827609 3.4796813167065292
1715 1.5752884448810967 1.9836892624644682 -3.9875176962005634
1727 -3.3046923442388136 -4.513583615628362 1.882792509750233
1659 -3.4085269562654408 9.361082406505872 -3.750559686680152
1663 -1.5201052737224745 4.091044903608738 -0.3102050337048421
1692 -10.65022511537722 -4.968515409618145 6.859457521628492
1667 -8.051907427766897 3.316588668406658 1.0381414928173078
966 -3.0286358787936694 -2.1236060973411797 -2.776660066420099
1002 3.592684669417001 -2.4278891500347117 1.5765506692199207
913 0.3548608265417023 8.288457475249544 6.925703461636551
957 3.5349250477642027 -1.7668192423350793 -7.482077779400613
973 2.9030292852745045 -1.5356547765762607 4.048377790558228
978 -4.660734377089309 -1.2399759245975792 -3.1405595391909347
1005 -2.49681409295434 3.709249801083389 -5.95114108272906
1729 2.0549628321095934 -0.5970785598334155 3.310224888967582
1745 6.479748961645334 1.1952327945636116 -0.571337130181736
1001 3.1508495522993853 -9.692484191691102 0.3387191554028624
974 0.45574264255498326 -4.629666696832628 -1.8820809871107966
894 -0.19291616688638402 -4.667658789506494 -3.9040645033534784
950 -3.899464849168384 -3.813557515742464 1.8180240092821829
1774 -19.720801619921467 -10.604301118990161 5.847691499551214
886 5.6520730213806365 -8.895543345352435 -4.21249421346788
866 -1.313173104031256 -2.3056117539927445 -0.8803981530152456
1750 5.225532939830346 -2.5031822480419916 -4.500692284525571
953 -9.564912857778687 4.158337635466886 -0.20980578852281911
1758 -2.5085527513037595 -2.581224264063542 -3.4414619317527397
970 -1.5655285078267391 -1.6325667467345493 4.827678322870372
1834 4.923679811667761 0.26964036083138615 0.19525234935197708
1730 0.7993486401732489 -0.6168234233658567 -3.6011955118262367
1849 -3.6753480349961567 -3.026791734720804 3.4523425966503516
1773 2.9783363294312375 8.930842520063191 3.7434960425151464
925 12.506026233441878 -0.9851580542542199 2.918459721308499
1805 1.2998446731344748 5.810642256333339 -3.0487703146309193
1746 2.1295455470203724 14.927278974355415 2.1921154245033243
958 8.906549775758082 -0.2542903399322566 0.058567022113033114
1762 -5.364790402449933 -2.7242837838938057 8.907326277937802
1817 -2.409684813809699 -1.9111809584264015 0.7523779056467071
1830 -2.328887809563344 4.050109356624349 2.2177454095491127
1782 1.9265302162796047 -0.38079056285079493 -3.1599298148141335
1802 -5.405715417806057 -4.8711918649599575 2.8318009863271443
1790 -0.5564370843090619 -1.968325296086284 1.5249013307402406
1862 -4.176662563048716 -1.7899321666658816 7.014621267098741
893 -0.9806437084508037 -4.52057973691364 3.5338337613051167
1809 4.519561145082705 -9.383896046478279 2.9179790040965288
1749 -1.38149855008758 0.7455852556206509 -1.949463664658695
1822 3.2874793799699717 -4.361886264257276 7.301718156265904
1798 -7.378309123811486 6.375438238973044 -2.101144802696667
1838 5.932167770139484 0.03273814962470011 5.55195298446294
1858 1.7837776455839485 2.3068119133184934 0.42726635817782205
1766 0.7156986280227134 -0.4316279093943512 -4.858629293094162
1785 -4.356470916954474 -0.1232034728307161 -0.08785744999859028
1757 7.7715840326562144 -6.712665730781513 -9.32161252440503
1734 2.9664121997079826 1.207414870808581 0.9356430191193995
1789 -1.5841795457910202 -11.243053102908599 1.2560401215889292
1813 0.6588473375694243 -4.645342305226993 -5.514994735333761
1793 10.342864184475713 4.521604150587437 -5.213038162784535
1846 -4.6257579840208916 8.844935260292965 -2.7483393992141725
1781 -7.679156856050095 -1.2688373665178074 -5.45903385155838
1814 8.282139070968103 -0.9013762853883492 -6.954276950354542
869 1.6466855334009216 -2.8834454005073953 10.037916348382632
986 -1.2977927781342755 0.33220302514923583 11.758158075876386
977 3.9429918357732334 -6.224368580184891 11.093668130136427
997 -10.285447442561123 -2.332491307932167 14.32656225411017
933 -10.464742815818289 -6.021972829796406 5.6973999490158
1732 2.4927960363858883 -9.762704517173498 6.7520931894732055
1736 8.240295441030968 1.2924123459414896 -4.671534593432868
1735 -1.634418968238084 5.507393778153804 -5.27556241647037
1740 5.246758516337646 0.6942418188773037 3.0514015617807604
1744 8.375127130930176 -0.5256632652277644 2.275325698787639
1748 12.219235385079022 10.9932263321294 0.9987608378648707
1743 -1.2078647525037356 -2.2319389609718274 3.9997143167396403
1752 -1.6533236164272767 1.231599746483299 9.378914899316975
1869 -3.997033844953883 -7.171948941641951 -3.378547385597403
2592 5.784827198507978 -1.8368394464220827 3.2660375837391293
1751 2.941927546859826 2.0458912113455057 4.852795717403567
1842 -3.148748949649395 3.445615521982197 -0.00208679587815211
1755 0.7122242463942363 -1.6942463117952766 -6.226204262803333
1756 -2.6396789802885867 0.8235428970940324 8.43353762528183
1759 -7.221418826268759 5.340798313284364 -10.90336044190601
1760 -10.217745195433125 -2.385794695460747 -9.104231683267681
1818 2.1849909166608463 1.53375409605391 1.232675739511418
1826 2.564951755265322 -2.53857426069937 -4.222685162826903
2588 -3.9610853565309725 -2.6262478903222015 2.4008975534741768
1763 2.772860897647434 3.9918336890389274 3.784240631792938
1764 -2.470163231569825 4.047392969539634 2.6110191997143426
2584 -4.495416026633978 -0.9091434416023702 -3.227990251885075
1768 -0.851785331866237 -7.446778876576384 0.5180491015570429
2463 -4.072884982545047 4.299140573704714 2.2015814041927304
1767 -4.622191805008224 8.145061610303355 5.231458766997161
1772 -2.445891003706803 2.1640492825898656 -2.4189111154161655
2580 7.6745245924149295 2.810906938458109 -0.053744115828479384
1810 -1.6521249905300819 -3.192159445947731 -1.0184252151225408
1771 2.418159970950236 -4.432335832886952 7.349809579926221
1776 6.162270161759598 5.741673769698933 1.8134487962760042
1775 6.2606025022603475 -9.194237325600337 -0.5754855201051552
1779 -0.8781626177035677 0.7695193389033506 0.5667708501452331
1780 2.5952685126257697 -0.116113394720098 -3.4605523195566565
1806 4.172375039833281 -18.182890904180947 -6.237345452137478
1783 -0.25362199952667874 -3.896115886413597 2.761890795647189
1784 -2.33816573492986 2.7828563225674365 -0.4203278005465029
1787 3.2680096712657565 7.296996185471277 -10.778783203613205
1788 -1.588649944497306 -3.6073586314895656 -0.39107687526564144
1845 -7.5955693281942835 -2.7341684095638534 -1.2810631309552436
1761 4.640630011209667 -2.447438660902644 -7.027219375484684
1792 -1.5201970126243893 7.036083224803246 -10.893957757412943
1791 1.7571044035982482 -7.768869112277236 -1.7948800657880293
1797 7.451862964612449 -0.5586517807333671 -9.031412536423758
1796 1.475538893873971 7.223976742302638 6.230280131184907
1795 11.310427375612932 2.566488994775836 -4.834947297176655
1800 0.5582184980673257 0.2247177728819115 4.4386736252297405
2576 10.644231051785622 6.512558299092972 -0.3392478472578771
1799 -0.3237228712292681 1.5729679314224683 5.998453084615675
1803 -1.241543087888302 -2.4368250938505374 -8.87343284340629
1807 -7.78486258448175 3.095182021326313 6.584145450514458
1778 -3.4057074039280906 -5.1542247398783445 -8.384229114781986
1811 2.2553290952433676 -2.415866377832242 -12.969885747107021
1866 5.727203592766556 -5.581068893404418 -1.6882733642187104
1854 2.4475794433733853 -3.0387063059927413 -3.6237328477413335
1815 -5.580656154530397 -1.7018621414109814 7.6969312025393135
1819 4.540516289482147 0.9395658531435431 -3.676185350200252
1823 1.6835839544680111 4.933148544007501 0.989621539220908
1827 0.4056819535654798 -0.2789285856438411 -6.643416911846667
1808 -0.5382237998090115 7.009310363057504 2.820610822714135
1831 -1.295239483256896 -0.04370259629768762 6.772782836855422
2572 0.9190863571840615 0.7122392384128808 6.302876186017792
1812 -3.079296678834574 7.704290969195805 0.46528161560226416
1835 -1.9553855273383445 -0.33023449388393966 4.214620646337776
1816 -1.5501583949409725 -4.208480162898493 1.0287552179795314
1765 -4.33398970900367 10.74390312330738 2.3639996699310335
2591 -0.6480727570894473 -0.3733924031401712 -7.599577161225808
1839 -1.6699785575658874 -2.9877202269060175 8.262013173111386
1820 1.7948219180277505 5.751438215590393 13.161215197909549
1861 0.9879139140906817 3.5290101483863325 -0.34959815784878284
2587 -4.545683881918899 -6.273766203697755 -4.454344080963636
1824 2.705018533352141 11.247475136902537 -0.25385047976780106
1843 5.008958839634586 -5.000130744877634 1.1582391784132597
1786 -6.11913762810874 -3.156531550172422 1.5087093709707993
2568 1.8386190717470616 -14.524183190920256 -2.5538936338788636
1804 -2.4729357642881387 -2.4856164575922706 -1.1108634942428823
1847 -4.368314766638841 -3.015159864600561 2.9103526094008587
1851 -3.816907577564152 -4.409302891475071 10.46736392550161
1832 0.6002130117852382 -2.8395117347238643 -2.645527774914887
1855 0.6058515708815052 -0.9609706379948225 -0.10436729214804856
1825 3.1413617561829246 1.3071579769846018 -2.282313988391034
2583 4.743017907372999 8.061314823336078 1.4540828761181441
2564 5.126816240255779 6.049132130673345 0.6401019457102946
1836 -4.737111735687276 -11.96282280931821 -0.4099588545369939
1859 -0.19682206726372362 -4.953244624097321 -0.17329118027607482
1840 1.8176817833762176 -0.60718579852072 1.8409196387547715
1844 -1.5771592532056724 -1.7439182379950626 1.8326813354442315
1863 6.724141749150546 8.250101400614446 -4.205625735262179
1848 -2.6442213924380527 11.035283050087386 2.799736240910135
1867 -0.19608718583783266 -1.3388690158227465 0.009985021081243817
1794 -3.229121130093257 1.0444009326717094 0.9375062480155756
2560 10.251400331341026 -0.5473926653309233 4.389619908321781
1828 4.194013178990969 4.627520035198554 1.7974245224216583
1871 -7.267998063701356 -11.067740548909088 0.23687764361655408
1801 2.6638168035176384 -2.498665460908186 -0.9175639770697246
1731 0.6130009790713906 -8.513637290020139 13.378432239203379
1852 4.888274244502523 -10.249418742668924 -4.758109262493495
1856 5.1964050101269 -1.327597209250031 -2.6802287089611094
1739 6.016599890357438 -4.680174621865594 2.9077270795069756
1860 -11.256066464637941 4.294116121900664 7.409895711019184
2579 12.006491675890736 -14.212164203942857 -0.10777994331930775
1864 6.812939089827631 -1.144981691278721 -0.16111639929282623
1868 -2.636785954833975 3.6799671450030447 -0.042487206288627934
2556 1.085847358245908 4.016027498124154 11.537616216023538
1747 -4.432619267171339 5.014813083690383 3.482375761542715
2575 0.6818276613544643 2.1682796748372453 4.258855860301181
1872 -0.5744186594932046 -0.40802297571617824 -6.763804305703239
2552 -1.6747700063336022 -1.9064996240623002 0.16778653575715552
1874 1.3078110319913478 -4.3468658488148995 14.18925754623675
1875 3.2525852795276307 -1.5191866328866752 6.275597630899876
1878 -10.90684797542847 -3.7510100910704756 6.747407360894816
1880 3.2856028790450464 -3.2646724278461905 0.3909020032793641
1882 -0.7897588689229115 6.707064458081706 -8.066255734924297
1884 -1.54844612659731 2.0818271623419364 0.8434435156822135
1888 1.668390134713472 -3.9003065793178036 -11.992899904514246
1886 4.07656022266126 4.3212901588907675 -17.905118270918724
1892 -4.877650055303641 -3.957635607209143 13.362368831883076
1889 7.169031720874778 -5.306293707158234 -8.217979106224233
1890 -6.466279902514084 0.0941416862953669 -9.56885869413826
1896 9.83771211417612 -8.037302097861357 -2.8312018698491728
1893 1.8288129609164474 -0.05912078066016298 -3.0287468344226203
1876 4.155744284888423 8.055870625852656 0.21124465764569764
1894 2.464567343939201 -0.9294176132399758 -1.1632322559338253
1873 -0.949046221343698 -6.906845480359663 3.9739279115425488
1895 6.500622285929559 -2.739255824894517 0.3171344962254684
1898 -4.808505930181399 -4.479423616993322 5.158712641570561
1899 4.98621691106872 0.9536704852461616 1.7504510008742715
1901 4.838069562418271 -4.881599935102908 -0.1054619387030254
1902 -2.187724638224479 -5.3593210522488235 -4.1100412109396185
1903 3.2450944142904152 0.9575105025342339 8.033708137513994
1904 2.9500566048696855 3.3139229564153103 0.8258591953862308
1905 1.4357744641497638 3.1765150812820115 -4.5420647468504844
1906 6.28492164334862 1.1205384778853142 -1.0079315191824854
1907 -1.168851188554622 9.482149432077115 4.385527168281298
1908 4.750523156521818 -2.9807135873440562 -4.554724227333467
1909 3.897231943693122 -3.1494683916756707 -13.529328237297806
1912 4.618012488516701 -6.26062908418112 0.6940913908272033
1910 -3.834290843672841 -0.24266037309862237 2.4745154328219763
1911 -0.6001991791467153 4.065040219949959 8.220318324083186
1913 -0.11276395411158284 6.1930971808097475 5.163429776143263
1916 8.007905124779443 3.4188239619789127 -4.2080890801816935
1914 -7.718594034172851 9.28552287561483 10.435624265526572
1915 -6.861047489196468 3.8965297092159568 -0.07857909001963387
1917 0.8019662163567509 7.020212683220479 4.909013653860019
1920 -4.827452784392216 3.762419997487096 5.992724051601892
1897 -9.575863646275298 7.871347196445955 9.063843786373287
1900 2.2259874319558985 -4.844332860427651 0.3008350633713988
1918 2.3849545480637646 -1.6433308856380104 12.359897658307675
1919 -0.300429859037375 0.8405819805416419 3.4337878246435936
1922 0.02216275052291897 8.844576801053476 1.9455940405146108
1923 0.9310677723059688 -4.51025091137323 -2.857840729617664
1924 6.384766351989835 0.2890656341607588 3.503987372146232
1925 8.320728817863868 -1.3518084332028855 -2.2409009069149337
1927 -4.408129894042618 -0.4128345041847732 3.549139169904359
1926 3.761019455330637 0.6497500718836521 6.984274322948174
1928 3.435873188296303 -7.202200131763553 4.497621247714253
1929 1.392615405339203 -5.861279599405017 -1.8030131601510426
1931 -1.1907857234477577 -4.767200042438341 7.789144957323394
1930 -4.0592955364629635 -2.909939767832742 -1.796676944319138
1932 10.253892255047571 -3.275179785179581 -7.760185579585087
1933 6.783951905445586 4.02016325466998 5.104586365251857
1936 -4.024336245586433 2.559557105343518 2.9468113179526703
1934 -2.413771005616992 3.071389610803893 -7.886523791675834
1935 5.849829685296122 -7.363389602620402 -6.152853030481552
1937 -2.1646691835176255 0.09645957426305199 -1.851430149373304
1940 5.37736622464581 -12.26989914658211 -7.879503818750043
1939 -6.53327333258269 -2.2629411482747215 1.705518010539616
1941 -5.9268147267254605 -1.5591992544362852 10.811753652980657
1944 6.281067717932369 3.5814379666664067 -6.933053160073591
1938 2.0498991349980447 -2.0929641256174953 4.127254694633489
1921 -1.3282923631161425 2.7366196553741604 2.4282055879717097
1942 -2.5042280447173306 -5.239113357158297 -4.83374270157814
1943 5.347330884189896 -3.230851831358139 -6.773810531775421
1947 -10.357497326362477 -0.6396346446670015 3.2638139322344433
1949 6.908949676522331 -9.81800206221493 4.908220083428352
1951 -7.3073913481101105 5.250682918253557 2.6879672016705567
1953 -4.6297523134889165 -0.4827590671745394 -1.5560584285457317
1955 -0.9764514858028478 9.152157681817128 8.384712172473684
1957 4.866880942466014 -4.440588085317674 1.8011303555767644
1959 4.43013373601223 3.39313841978885 4.657126430855281
1961 -6.41299629163593 6.0761209032445835 -1.150262719783878
1958 2.0129459923920257 -3.8314450309780197 8.464758082850587
1964 -7.770297608790101 1.870173570177456 -2.380056401376825
1963 -7.241493735980781 3.6357498387899936 -3.3072195216635247
1965 -2.4393912194336376 -0.10247421828228723 -3.5784367177323264
1945 5.473505362280204 1.6840488274805199 1.7010758952031857
1967 4.294430890860483 5.8844724864568505 -0.6505570151029678
1946 -1.1321869292381928 -7.251605985878617 -4.061124169456316
1971 0.16453673340442768 -5.1552723770148035 -9.97846219234387
1952 4.456250888195129 4.803013875646501 10.269125836938867
1950 -8.052595078774 -5.064656413352192 3.0442542603362432
1973 -8.707129028401324 2.4157400521253822 5.262657229224622
1975 14.867739406621375 1.1161099017204301 0.1271939518454818
1956 0.48621905101613616 1.4346986809571214 7.09020926480905
1977 2.498962506566079 -0.8532061299509525 -4.674907811533961
1979 2.6545461395324277 0.3923782412787472 -6.249952471646633
1954 5.8331592443813705 1.5898106119236441 8.118297821580917
1960 1.4905028463564989 1.4585353049918226 6.453867174938377
1981 -4.9256401848106774 2.3917639216464237 5.417675590746854
1983 3.1103501033088294 -4.6289234341916385 2.828891307234143
1985 -1.7376205110762408 0.4735154401929497 -5.163984061617868
1962 4.92711048759307 -3.2399800828280663 -0.49899569401441496
1968 -2.4448235644628933 3.8183931437883922 7.272412479144456
1987 1.1875455836245752 -0.31792169708673207 -5.108048920158233
1989 8.708646907520512 -2.3131338653398825 -0.6653117993239326
1948 -3.260749177511968 1.2678466655658294 1.810009854068545
1966 -7.060886907890266 7.641681852114136 -0.20343747602481607
1969 -3.099981559671856 0.8541025369496609 -6.538347489350469
1991 -10.362474820257658 -2.882970600660826 -0.10152780763778345
1970 -5.200971716101079 -0.09495127619095066 -1.2419110423945197
1995 4.7917755825537185 5.458828560534249 -7.844651225589283
1974 1.8503275565183708 -3.6502992444891116 -10.451684424832806
1976 3.004842010390983 8.283489508890533 7.750071913807213
1997 -7.802157058488823 -1.9381966774034562 2.9791560833564956
1999 4.626434991443342 3.205360183723237 2.1431474873836422
1978 8.489339756156797 10.874961132276528 -13.146096449866771
1980 9.510467316759756 2.288606559899489 1.2799111759701827
2001 12.386758454467568 -3.258493471773356 -6.534046691186153
2003 -1.225042041029446 4.018830267893588 -6.260946413666617
1984 -3.751473717075742 -2.8046375921930675 0.4770050356499931
2005 -3.3123322822634647 -3.542688168024195 -4.540704373800523
1982 -16.13325640129486 12.381203262604819 1.8740555495457711
1988 -1.4515279774238532 -6.931095717602162 4.506302702372363
2007 -3.2975342809114965 3.877752547360402 -10.18694305921447
2009 2.407955947048698 -4.176022157882538 0.8280908097810117
1986 -9.772774687646967 -11.67264110816693 2.2616940767899933
1992 3.6279234398782196 -15.327717868333977 13.706358478399117
2011 -6.545476050517441 -0.4727051149375471 1.0540200020188628
2013 4.815947296029114 -6.818330235628797 -4.07962007090629
1972 -1.751798595397332 10.791496835335026 1.5879030569873476
1993 1.0037932507711116 0.04081848774186644 1.2113888001816793
1990 -1.304460723515148 11.813812045358741 5.021473157201848
2015 -1.4262852744630325 6.565449997015296 8.436656010214813
1994 -1.3940957976061459 -5.689900152155135 2.368855556487318
1996 -7.38928456062606 12.54461507665894 0.025871321904872655
1877 -6.87800943823847 2.6503200144123418 -2.760878326703619
1879 -1.8603517989599947 -6.927607396543458 -3.708481796231708
1998 -0.7411119472695048 -1.255633061294397 4.772194200340079
2000 3.263847141159389 -4.313120485168494 -4.012339782922873
1883 5.55362858425722 -10.835950444199403 2.6540181853146274
1881 8.070404616592876 7.306957773176614 -4.85582155278251
2004 -3.7075513219968537 5.307899464991803 -8.051375419004124
2002 -2.1958369822864725 -4.097036218484186 0.17475971117412548
1885 -4.85788878946441 4.345801146910333 -7.6758782229780955
2008 1.2844299098012972 0.02109239871076027 -1.7782068675668334
1887 -1.2593572972811105 5.526412429892919 4.491833617559151
2006 5.208151374062456 -17.833491621695078 -9.390396264157598
2012 5.992125976918944 -0.030916196248079883 6.717183121172131
1891 -0.3521026383480826 -13.297125269905003 2.378917852890768
2010 -7.160467367856044 4.884426865968556 -3.3956941330254127
2016 -2.2892306789553127 3.1998036634288747 -0.2992824974020992
2014 1.333662007271397 -10.495947226769706 -5.7653337736208705
2018 -7.52885555529305 0.059914849651818716 -4.5399991833388
2019 -5.673466160224316 -1.9435562821278252 -11.505740710267819
2017 -4.078253882797277 -3.842386587570683 -9.264175299318245
2022 11.170605825356166 -5.33975081687954 -0.4637061468690609
2024 -4.632679733587525 4.500186769699776 -2.0214636094569123
2021 0.41172389967813644 0.13173578039629702 -5.047224433796351
2023 5.822874797933826 7.61468464118371 4.425550495827951
2026 -16.120221266478584 9.198174579188981 -3.4638213778267035
2028 -5.212929340439475 9.543961913235995 -1.2251422855478107
2027 8.470811909055287 8.680578713435114 7.218647099704802
2029 -4.1325924435937615 9.617476000397147 1.5814289903455452
2030 -5.731954515748919 -2.5086039922927195 3.170196097462599
2036 -1.8640102340641764 5.7179723715885515 0.3604144936990569
2031 0.6153120682988823 0.9382508483034014 -7.97401786174348
2034 3.7632824985279254 -1.1454813046147725 -4.581040037824925
2040 3.2698437099631628 1.8345420523694247 9.177444818948777
2037 0.08108263560253941 2.344530953384253 -3.0521482025103706
2020 3.2210638139652232 -2.8961288096533315 -3.029052451912386
2038 -0.4557961067960145 6.06719012185512 -2.076928703485365
2039 -7.271206814235253 -0.4533669789009045 -2.2917085149511762
2042 -4.098332220643657 4.395502708873128 9.053899880703856
2044 2.7127731778649586 2.5721059980392593 -2.0932236489357665
2045 -9.274511829710958 0.13629668089001692 1.585105954405972
2046 3.0225886690642776 0.6604504429047416 -0.9832027534324721
2048 7.169112491640276 4.894351061044245 8.407702683923198
2047 0.1278387434291666 6.045150319885501 5.447464049621992
2049 1.1516557242273737 5.3810837212722795 0.6728291225091451
2050 0.5279169517226374 12.6664009615396 5.213386299164154
2052 -0.5770308245387425 -6.653015523512875 1.8769831055275434
2051 -3.0556782684866244 -1.6859830874900485 -3.896525272228098
2053 2.8480878380689263 1.6756105151008884 0.1013902054844301
2056 1.3193809120617699 -2.869338421138987 8.552998291801357
2054 8.598903534372552 0.4490565365235615 4.744347164362852
2055 8.792698510572007 -10.429213620115753 2.9067124157395074
2057 -5.782243755107955 -7.895853818023713 0.6697155785714752
2060 4.237214445917033 -2.1410525727661374 -5.96358669795757
2058 6.1431727717930915 -5.244243654988631 0.8611009387201644
2061 6.050507605557934 -2.085822727682414 5.615399569433461
2064 -4.894508114804224 -4.519440651859286 4.169018206638494
2059 9.059760357435087 0.2966397453153754 1.42048780348425
2041 -6.682624218981925 3.50983198781033 -6.258521946929499
2062 5.619638902194222 2.9387831137416787 -2.282342701509324
2063 -2.901882842972587 1.7498795182799007 -4.42966941144936
2066 1.980796506801195 -3.585235426056372 4.28185365241134
2069 5.670986271979564 0.6587547996226926 4.602403781418038
2070 6.155627270513395 -6.90226626569163 -5.393254739029173
2071 3.4869392662781555 -5.294817951294283 -1.4608363663143662
2072 4.265055684453414 -1.745323481388833 3.6215206061721625
2073 -1.7214197180276272 0.7293114641784895 8.014487353830667
2075 -7.94600064563075 -3.703412100131348 -6.423233093093404
2074 2.055232547302144 0.7404431816239804 0.7672114139012473
2077 1.5051559241775387 10.487293886935579 2.1960574297640756
2080 -1.1042891956887502 7.275387732276114 -2.032146504658236
2079 -2.933362507552977 -11.810606261697275 1.3398700305584428
2078 -2.8606466143815283 0.19437462972105005 -11.897103862293081
2081 -7.243842817780573 4.27801487579396 -2.678311180742718
2084 -8.40713164211179 8.998126814658656 -0.499201031163928
2085 4.958440227534385 -7.84466690865682 7.694239865870684
2088 -2.137835243122385 -1.1241771328212338 -5.835120613152753
2065 7.373719698217103 6.182748648682971 -5.371872056487437
2068 -1.882419003099135 3.2427220751026864 0.16846463317499685
2086 -4.918513976811543 -0.7601981525811309 -2.288982020379051
2087 -6.453306342791188 2.071462525344138 0.7140961675979571
2091 0.9141496747161535 5.784140987310576 -4.328536215390388
2093 3.2600812315817067 -2.284507398722385 -0.9413155708648504
2095 0.9926705815171694 6.348872523142048 0.3674147616045936
2097 0.7204343002423005 -0.24940761414013307 -0.5021311787858314
2099 -4.7734943509659615 5.175001280557866 -0.40364973953597494
2101 -0.9653310604301163 -6.049482462218638 1.2457930337905563
2103 5.746713270871697 6.694639117668513 -3.6991608089756465
2105 -8.661457761572755 5.425453334879458 -2.3480280400040274
2082 4.4981437402406454 -4.184238702731984 7.50432548417823
2107 -2.595146684402001 7.16111790668041 4.6214364049403756
2109 -3.4696305912978227 -1.9312886125577011 5.152461411296719
2089 1.0704955809911119 6.222086182400285 0.7252237960044242
2090 -1.8519891861973774 -1.971960047005126 2.3018025431279283
2115 13.4311225670552 5.549066821699811 2.7265636171705827
2113 7.736436275401089 -8.699346193513671 -1.0896275073690993
2094 -0.8408518444454003 -9.67370319189429 -2.830217879191286
2117 4.024597101164583 2.913994533477571 2.596786375732642
2119 -2.870999796551789 10.298515759591014 -7.834454576978126
2098 -9.387282384020976 -9.78170722598848 -0.602379178205471
2100 -12.422389954577323 -1.1792627890577574 0.24209231681707374
2121 -3.2186119549657386 -1.60805568526509 -5.0076481860120055
2123 -0.29504298397443 2.9759629859118695 8.005721701906928
2104 -3.8323607335373544 1.4146107056517874 -1.4974648350726243
2125 2.4092638742400796 -1.7946322902161251 -4.51689609008992
2108 -4.275371740076016 0.5071378256644524 -0.5181980591739012
2102 -5.558737601626012 -11.185581560293638 -1.5145526738720803
2127 -2.753593108092663 1.276515155894765 -0.48512399269297246
2129 -3.5052179456536696 -3.6612719279603847 -3.634439629894952
2106 -1.3441408336716174 -2.8858624337891983 8.185752449209435
2131 0.5715491371805712 -1.8266178435986276 1.705344392916447
2133 -3.046021031967359 -6.351297309254255 -0.8512871099681639
2112 -4.517773642977697 1.9334402079358455 1.136993837161079
2092 -8.83821488036097 3.131827532425743 -2.9340446462286383
2110 -12.825805311861313 -6.0073878115332695 9.990328378476287
2135 -1.2759181076374426 -0.1550817765227559 4.685550645582531
2114 9.326429629527533 7.66973792814723 2.2352534871581144
2139 -2.206944800793129 1.7024057724295072 -1.8035836867435149
2137 8.869720222307006 1.6070568755407684 -4.684272921367071
2118 0.018332495406930348 -2.3168613980874846 9.387821385676194
2120 -1.7720840423035866 -9.05895103180135 7.17234501404508
2141 -5.340084577778619 9.710284450986292 0.8986325624009717
2143 7.716116444499468 -13.738320874237186 11.180348828009675
2122 1.2997262627089823 -6.124663354720673 5.260237348436717
2124 0.6870580477449959 5.900954609086086 2.9716734726757585
2145 0.3569060947635613 -4.010451280655581 -1.5388947953685075
2147 -0.7495585882214374 -3.391036234133047 -4.57832118414047
2128 3.6310189936604176 1.0611572276212016 1.3748287852642456
2149 7.307040400150825 2.314758058091955 5.471067132348701
2126 7.855630464108521 1.1088710242133548 2.7630074795516575
2132 0.381420719808388 -11.199215972929482 -5.669863805914026
2151 -8.767229069573949 -5.213679426832841 1.487099558104906
2153 4.4133477903475695 3.0160545955464695 -5.360588158432444
2130 -3.11450683872734 1.5311331296991328 1.6669492582741454
2155 0.8286087424757738 2.164090218480624 1.772932471350966
2157 9.351658315603672 3.5337295353237876 4.462101827703213
2136 -9.46447759207527 4.119808533311174 2.465071423088683
2116 3.2751371297015517 -5.494421316088497 2.504481307995384
2134 0.6358970487442411 -4.578439706602753 -7.805144757581796
2159 -8.905402606879507 5.971431501831357 -0.7429448653707829
2138 -4.909860688613854 7.669422096007858 -6.49477283129049
2142 -2.0594474753464134 4.386881494950131 -3.811948290985607
2025 -6.137057020269906 5.515150546559902 2.0457471294134906
2146 2.9950938554579145 4.989003337639516 2.40323102082112
2148 -0.15112905130447352 -9.043613216181912 -0.016232145073847525
2152 11.710904327807762 -2.9488213863838477 -4.253436787030302
2033 -0.7852597609822014 -7.144532500639818 1.7985763668055823
2150 0.2440035653628758 -4.057524580808302 -8.114425095208261
2156 1.0615065868863807 1.7998142008676994 2.674745548200557
2154 2.8940336737238903 6.4142591358098136 3.5098988417688277
2160 -2.254371389172093 6.528967313281202 4.28187040559529
2035 -0.07250751857104504 -4.794064525444422 -10.090997440812687
2140 3.6555199750521217 1.7484955825685131 1.6432082695668864
2158 1.15406708942388 4.158025265565476 -8.600309954066537
2162 5.702451231801162 5.171735738774036 -0.9270886163631473
2161 0.7699852642982064 4.767700022541267 -2.5410541665159028
2166 6.245677557272836 6.6269731971390495 -6.203147376684227
2165 6.60351944028319 7.556008872071867 -1.613548344327307
2170 -2.9994040903696835 7.2759804339648975 -5.7158573337380565
2169 2.721466863892406 10.629901119075061 -3.7365037428136896
2032 6.7240369903272565 -13.946863262531103 0.7947677756506856
2174 -0.18237401401715803 6.89915717755271 2.153876818922321
2178 -6.971657024032278 5.656939003499798 -10.280144086875634
2181 -2.543306330672535 -5.917141979303553 8.939728845429922
2182 -5.5838441308306574 11.329351369627211 -1.1203703405110084
2043 13.837054121461454 0.7516366329292722 -4.7181692345768615
2185 0.3316889351616438 1.9222754294647526 13.755795175514953
2186 3.4768094723700123 -0.04121134181229205 2.5459572606379837
2189 -2.717017354273648 3.742449044636351 4.993228812026419
2190 10.043600289702562 1.6627474694011315 -5.1183522722648265
2193 10.961591059876941 2.6699425472996796 1.4466941298717464
2194 -4.802657128045355 -5.577478971267424 -7.545194406792094
2197 -3.870851869097276 -6.89713808896002 -5.989192785918273
2198 7.422675468957016 8.385410809019408 -1.7216070098520428
2201 -3.0617042055034926 5.7386405693789655 2.5734168559890205
2202 4.953669830270622 8.245875565522397 3.096955531051193
2205 -1.8625643211524663 -2.378462260461587 -0.5656722059080356
2206 10.477342133592888 0.9058609025089324 -4.898633006915799
2067 -2.3174817904592553 -4.393590816148617 1.764892224233782
2210 4.228338141750687 1.6610960192415265 6.6991970299914065
2213 2.47360613552824 -5.249500049064121 -0.2821304792504155
2214 -0.9006118804275606 2.336198351577782 8.042116717637965
2076 4.6989504240550515 -5.233603851364508 -12.538137123406722
2217 -9.22438078320658 -0.14678943324626845 -0.9003901391401712
2218 4.38417145833905 8.34301777894473 0.64316589659192
2221 -5.672528837561881 14.178626174158683 -10.68599926199566
2222 -3.723602899704001 3.2115742859960372 -0.6821934715008978
2225 1.744448966881894 1.3752025242823358 -5.760431557187929
2083 3.085949599339364 -1.724913641430125 2.0500421741150316
2226 -6.090158949732512 3.065087181340654 11.504892632798589
2229 -0.02120919101145032 -10.388425003318714 1.1713749056433405
2209 -5.485458137221746 -9.460769538146236 -0.27692222846489967
2230 -5.0333127990377955 -7.467026072305791 -3.0802593805898764
2233 -0.20521088247403338 4.252697035125145 3.5272022082448937
2237 0.2896169199636351 6.32182370362175 4.502252497540939
2241 -2.3389381346666283 -2.494555613225757 0.18075150191046288
2245 0.32408171540980635 -6.956735178941184 -4.777770126119746
2249 5.190782821440325 -9.129918330762624 2.9082398284717836
2253 -0.30913656416797614 -8.294582576949525 -4.6118944185592206
2111 -5.102926134609782 1.830897780468397 -4.840685729432604
2255 10.825812516563799 1.024672490192665 5.935492863958116
2234 -8.393177577893702 -3.606319591139084 -5.444730215007336
2096 -6.628747005473943 -5.511295355847949 -0.6097249781819036
2238 -4.431862032270572 4.567598704017175 2.1703130117183833
2261 0.1128786494804287 14.868755821588339 0.5329145913992165
2242 -11.505755262967332 -7.447305764858041 2.358436140426459
2265 2.556036554391216 4.484278764471781 1.4326891732513474
2269 0.7183665708516115 -4.509483873307778 -1.1126726911468574
2246 -5.031566388847137 -6.890635594232352 0.9073405184338148
2273 6.182199195329461 -7.137847279282944 -9.961935225659024
2250 -0.7989635208340786 -8.695605776521788 1.99822001525447
2277 6.454303205729536 2.128989939396908 0.3756074978498258
2257 -6.590221686917365 6.926549814165937 5.2944770356808695
2254 8.269119347005896 -0.41587578904572436 9.15038560632836
2258 -11.441858923246109 1.273683502332754 -1.968686024466507
2281 -2.5999110938938896 -2.8034148777293395 -5.305738057384393
2262 -4.576233605507139 -7.949445368260643 -13.176972368411361
2285 -10.310671349299229 -7.08408922027615 1.8250451494849176
2289 -0.6955571189220966 1.2753553970213503 -0.2539144001910681
2266 0.6936320216864094 5.858999619638854 -1.2202767113299797
2293 -3.197053090013445 -0.08489812389437949 -3.725694919074531
2270 -2.8401768554806197 4.1518141549349 -9.082534336825102
2297 -1.329794749018446 8.035590332953383 -4.679758136401496
2274 4.211982328209319 -1.9365527249978263 -4.364103597909543
2301 -4.021142422277665 -3.1966733359839923 -5.611708953167681
2278 -1.0546455793932508 1.8686375167675888 6.6778693065449986
2260 -5.7219233766821915 1.6630783812635468 -4.806702576748505
2282 9.493903147786662 0.9135738092264025 -1.7921992673168603
2144 -4.4242414368626415 -0.023285831265895562 2.5183114063675833
2286 4.443611503713661 -1.2922690838993256 -0.6847165310043041
2290 3.306550983305467 -8.525048396611428 -8.672973398408805
2173 8.894225074884956 -5.6240645067050234 5.6144118837715
2177 1.042167559806181 -6.7065556234042045 -2.059774770773622
2294 1.483003699816999 -5.650357929351453 -3.8303200094970506
2298 6.716471678950155 0.16702708406392042 0.25349058718574097
2302 -4.590775869896791 6.68314429576714 -1.2075786939778315
2306 -10.762347937983598 2.4184589640098633 -1.7131531225772816
2164 9.710000330059014 0.6128985810480055 -5.191156993796529
2305 -7.07499176701495 -3.1990571533496066 0.4102281030796675
2168 -0.3629117113914811 2.68786420698369 0.4208911897050014
2310 19.300974135604474 2.319967867697067 -7.280705835415699
2309 5.540347590488494 3.0985440352546267 -2.4158905144818457
2167 4.4274913610540985 8.982277285923596 -3.189606148610648
2172 -4.613130521057616 3.539168908683534 -3.056933923548203
2313 5.303377429033808 2.260678141308443 -2.3128089986239697
2314 0.7768079074045409 -2.162654277339551 1.1882128684315525
2176 -2.4803988182802437 3.358483490773573 0.6500441095624717
2180 4.811708845395011 2.712961918553133 5.493090933833733
2318 -4.811665082811561 -3.6198932216560737 -5.821856278782605
2184 -5.492357809630644 3.071574280080997 4.364138488684723
2322 6.449179506493147 0.796754472626613 -8.587202374000814
2179 -6.134825812987167 -4.761593371063225 8.527651097326746
2326 0.9636174121162726 5.068318713620601 -4.952457445549724
2183 -2.0716186926955555 10.65789537343672 -5.081126444502287
2187 2.887120376262048 -2.003463314428906 -0.09131632092819511
2330 1.0929404769131812 -6.172689533404754 2.062843608672495
2329 4.764854330330737 -6.177340161943558 7.410985551452497
2191 5.082806007615841 -1.036443849708178 -4.122461943908445
2192 -6.254797346267559 10.606654351409755 -5.000946729918364
2333 6.339652439718461 4.444258836402332 -0.07520695077495577
2334 -3.2814982953809477 -5.777414193473272 1.7427950518265267
2196 0.5838700191946675 -4.45212087218107 -1.6433610749309513
2195 -4.137065553695419 0.30299201230999967 -13.070531952687105
2337 8.553749870886945 -4.181092657361888 -5.485289565355789
2338 -6.008102056774664 -4.636538486434589 2.9972706047355326
2200 -2.765032477377772 -1.6808152289267093 -5.512149899815244
2341 -5.906156317214993 -0.9879453066849536 -3.260354340805702
2199 1.337964599937382 -1.031602779212374 -11.80606898829276
2204 1.910818371597773 1.4047683719298403 -5.2844638177217576
2342 1.6892433816950787 7.591383310501492 1.385827264625488
2345 3.892578840837088 0.4451289139151693 5.169129674297531
2203 -11.571043867684876 2.7273121835203478 -1.405711657871746
2208 0.12450432528423688 -2.985881255412493 9.919623804586582
2346 -9.408495495260796 -0.6583134097239098 -3.5319897212412394
2349 -3.7048398569305485 5.116986252792042 -3.3838963125027273
2188 1.572446787361287 -0.24900409609169305 9.0951708251115
2207 2.508916320823717 2.7780358346312832 -3.213607134572877
2350 -1.6134351269421079 -3.2303961554492298 -0.9722882170480939
2211 -5.223491151397271 8.40903219193209 -2.6705603401301947
2353 4.6890154008116625 4.437763059159144 -2.1372858594967554
2354 -7.288939733233424 0.9191433365064844 9.452885112795004
2216 -4.520520780650551 -10.834369809830783 -3.593128123230667
2215 6.268171737366832 3.0059921595579664 -2.7174932448495626
2357 -4.613838106658681 0.8457689415405772 8.06786710016323
2358 7.0872686686245965 -2.044075109868406 -2.2958585721520293
2361 3.0189658932120387 -7.86987797693757 -1.6728191617020858
2362 -6.208211347569826 -0.5980771308915781 -0.7286495952255816
2224 1.9455382158493513 2.96777117873359 5.799343966177778
2219 -1.8082598783704187 6.222862689636673 3.6655700414102736
2365 1.2839790581803447 0.5567942238813657 -1.4773524285282784
2223 -2.7539562806143376 -5.880708223494347 -6.698858902633012
2366 2.8364892302882394 -2.4869335556355416 3.0281411295242084
2369 15.78480888112161 4.907523506119876 4.043846434102674
2228 8.763184589327802 -9.506346230695584 6.8627595703031785
2227 -7.189706090921747 -1.71050723109342 -9.252739679061584
2232 -6.77418068653785 -2.589829829836163 -2.258965733780962
2370 8.571493395845518 -2.4379249094148294 -4.460687159579021
2373 -3.9624689725122457 -10.339351485173324 -7.5779967192709545
2231 4.638170938816 -5.004203213464409 -0.23345680983532863
2374 14.364382188904326 -0.6931202682214078 1.0482476844182276
2235 -9.51287482755261 -0.7862156638256134 4.154396357181856
2239 -4.630750899347457 -4.589671093401718 -1.4260364669931136
2381 2.4667596649876633 3.249970878829076 3.5978771983101754
2220 6.8827962446154745 4.896994169807215 -4.480094349982563
2243 -1.612932643063813 -4.789353342583911 0.7335251555024811
2385 -0.30855627664959867 -2.493679221329647 2.6981689857820816
2389 -8.317047475064296 -4.828751780011403 4.763289319311326
2247 -1.9185052343291722 2.1123888588055433 1.8952351720017184
2393 1.8123353028166866 -1.751889042154257 0.6871000194061017
2251 7.82460841197612 -5.828462661768224 4.126302598084274
2397 -5.195779217860365 0.7679734522764807 1.1820002954292192
2212 4.638208100571821 -3.010809999918741 -7.686750090928431
2377 -7.180740804380367 -3.363469782910812 -0.11354581673976251
2259 -1.5813929956439277 3.048577026515673 -1.9257047426412275
2378 -2.059771243462494 15.139419349505467 2.7520555910993307
2401 -2.0455169326828977 -7.930495901150858 1.6809825240440701
2240 5.620608047107089 -1.127270945535795 -4.62979968984338
2263 13.435301461083686 -7.464095505939361 0.14515684648306845
2382 9.4250537868242 3.0535674024537274 -7.596459208148322
2405 1.9539773212424567 0.07837641405491834 0.07399445541674358
2386 -11.789488489940977 -4.734777043034027 7.409035193679856
2244 1.9377236005154634 -0.4706884994130439 -0.768972691906558
2409 -6.247805174959271 -3.5626800141753603 -1.5812776988686341
2267 2.8165414883289266 -1.8633899195470682 3.9205604697165213
2248 0.45018104891367466 1.9777935812271974 -1.6523975190611229
2413 -0.8649723213909529 -1.7720233770481006 2.0119000329111665
2390 6.576232307413788 -2.0588778488946047 4.4055201578601695
2252 -6.594956685759561 8.424619753094522 0.6547201696471091
2271 1.1501289113979871 -0.7456397179507391 6.525183110838045
2417 -7.422781165241347 2.8157391511368743 8.989273187902857
2394 2.602855653734757 11.20595907422335 5.961365585111609
2256 -3.8893384035216636 9.497813204579968 -3.2455586070485283
2275 1.439426835285884 0.5526272698743961 0.6136793456309064
2421 -3.699227026742013 3.3086975002750645 -3.334987472865565
2236 -2.5251589022744794 1.5471078755983219 4.708235193721033
2279 4.326705792645997 -9.056249450583381 7.451895909177917
2398 -1.2806865848421514 0.4702165368023637 -5.429011239788926
2283 7.4597890989143405 -3.1562202975318 5.284723835316135
2402 2.947794177257125 -3.910108290644644 -2.4542300278248024
2264 7.503974176595594 -3.3985080808021846 9.3227397033681
2287 -5.806657673283553 1.1699708451043442 -7.057096222864302
2406 1.9836310620748356 -2.25774993906244 -6.392452967665308
2429 2.1867654898190105 -0.17737645886653264 -4.808603021518977
2291 -3.776167066685445 -1.1766591089403298 3.791470317938214
2268 -0.5254834058979196 0.1744127898195551 4.893491652397858
2433 -3.7779063121903285 0.22510451527105743 -0.2689501259448125
2410 3.7367094279798856 -4.0578500052456485 0.959471152624234
2272 -0.09968659462241633 4.73783772703182 1.2062335443449204
2437 -1.025412536791646 -7.8876380389932015 8.960034397154043
2295 10.800527232339222 -3.7520731170251067 13.70087334821711
2276 -0.6773420816687936 2.0307259396510133 -4.795031160850395
2414 6.2550933601379795 5.603028516873548 -8.0769682137924
2441 1.7158410325407099 -2.696291367717447 1.7819157748359105
2280 2.325352723598079 -5.05017553610432 -0.30265991254158303
2299 -0.44746733735139216 0.9558942352233136 -4.566966218227416
2418 -8.148749646366673 -12.375931178109093 -3.857322008644073
2445 5.190725661247081 1.170426870824739 0.1442841840134584
2303 -5.387809584058002 -13.669632534752077 3.905848418451974
2422 3.0589809692255643 1.1749694243408952 10.502587537581034
2163 7.624385713622709 1.305656826098787 6.423079365485784
2426 2.99741517197334 0.6168431854105614 -2.010674933296046
2288 -5.086043537746983 4.899987320626582 -1.8647712752549834
2430 -0.42883650303618487 1.1381423894885088 -3.9016611631237215
2171 -4.1759511393934305 -0.27915148675549223 5.757736521662154
2292 -0.3443207823444447 6.31055824210914 2.2179519816314226
2434 6.298552184914125 -7.304272830760601 -2.2542065598160663
2317 -3.1902566024599612 6.526660989331907 4.664642767191222
2296 4.58661535831776 10.034902453356445 2.0807918607345512
2175 -3.461417259237713 0.31042169081255677 1.9642588117964097
2321 6.077225813476132 1.9566744070599356 1.3775256495490646
2300 -1.1532917596166166 -10.403183859343601 -6.7808980414939635
2438 -2.976177366012751 4.001532544609369 1.712156075609553
2304 -5.679427720014479 0.42811342482386533 11.141811478837186
2325 -2.6285421517614327 -0.15506013374646552 -2.318351830779326
2442 -4.217105753748407 -3.211257818038195 -4.768109762132584
2425 -6.889917465471167 -3.278570920078772 -0.18343216621379207
2284 -7.214014237354979 -13.134805240248705 5.894290604189679
2446 -1.4250029460496205 -1.6777725717305476 9.874754316260216
2307 7.118543420668112 1.4388556430312587 -2.181738770857323
2308 -8.611149467874602 2.2768014251614432 -0.9332317454860483
2450 -6.212007977753968 2.992927790519092 -2.1696503314851574
2312 -4.000040580362868 9.057701798018897 -1.799019832163725
2454 -6.85201701375677 0.7916600857404739 7.876206190226529
2453 4.956344190474272 1.1553871789694232 -6.787397073501839
2311 -12.521088777313302 4.16892128209188 -3.6545852568018833
2316 -0.4765060090068308 1.4485889231045286 -3.341739103943276
2458 -3.0461998248666315 10.978663371270423 1.516721450903006
2315 -1.814804828452088 7.205624182970991 -1.0369918909447737
2457 -2.879743151745501 -3.951902696687346 -6.406445160682594
2320 4.481955646689561 -4.260366723744784 -0.35996678095513374
2461 0.25059568332070314 -7.50277905723786 -6.3755809654542235
2324 -14.223565846996706 4.185971490215872 -0.018342698814986083
2462 -2.766709133362957 -4.386212068431643 7.508778511292922
2465 9.78361052024629 -5.961685497135375 2.0527866077740504
2328 2.829731690664606 6.15886639069597 0.961240007319724
2466 -7.442784152453782 -0.49493394578257754 8.110790447179662
2469 0.6641892584018807 -2.1788372865287884 9.041148187586632
2470 -9.197920791111672 -1.0134891765727052 -5.565337743089708
2327 12.387956962820573 7.476706611182405 5.063409081361481
2449 2.9274533282364477 -8.445150511765215 1.9625985040986698
2331 -2.2834487007585107 5.181962132102656 5.335961855872208
2474 3.162805233713568 5.049975756802006 7.734780942279069
2473 0.9300089448968377 -6.22596405506114 -5.079084024225729
2335 6.980890319258592 -4.682117391444583 -5.636129051514762
2336 8.57812122893037 -0.38735595416412677 -1.6168391485044922
2477 -5.648996543997467 7.941037364734358 -6.203193298574883
2478 6.134619420009418 -5.212683670996357 3.1866098487128847
2339 -3.8224241048686225 1.8117272392938384 -12.946895257071857
2340 4.602010848414217 -0.8242688316023814 2.6244358575540594
2481 -5.339333037917887 9.039692302741638 3.5455653103133606
2482 -6.11769506234569 0.944646653256317 -2.5132405462363456
2344 5.535963352427879 -6.208850011807002 3.7377577095945007
2485 -6.637824448261379 12.217009083750508 0.9175351489432502
2486 -10.150675342154948 -3.5120607655897778 -7.8529097694880265
2343 3.01720178844473 -9.443002138517173 -6.294348485102691
2348 4.385391289678324 -0.40284189344251703 -0.7021864222479685
2489 9.60474159284505 1.5104601444861587 -7.502974269146314
2347 1.6746372147356552 -6.157058034610406 4.9619112891294614
2352 0.69813199431246 1.8633469757384924 0.6477884003095689
2490 2.6791707868020365 -0.9043508308926743 3.240190042476973
2493 -0.654973699049391 -6.4269721594822755 -0.0795042222549109
2332 9.205243720873352 -2.7199375402661174 9.798409405828185
2351 -2.11025635865289 0.01665848113283589 5.7409548683219045
2494 -0.2876990446148246 7.776439576934841 0.39369114215509327
2355 -5.591183016741551 7.182084536903209 -1.3354597145373441
2356 4.032599816464572 -2.8438889499583553 2.4707475959983003
2497 1.8888101878579169 -5.0596224209848275 -2.843556194439241
2498 -4.27725550652534 -3.4066483664318996 -4.845847732156212
2359 5.114982037711519 4.298328001674021 -5.352649982286036
2501 3.7179463652528093 2.095892175521108 -2.684115402661007
2360 -5.2649133937963875 0.027774418520346386 -7.663517942249537
2363 -1.7871530491080692 -3.607957228708136 -4.677250608836644
2505 5.452924083595602 5.776341720711179 4.628385035793898
2506 0.01542228128433796 3.112482376185516 -1.7689337499690219
2364 -9.407192074683167 11.241227690634346 -0.06620316500144302
2368 -3.8883378505579405 -3.651716814125362 8.227079708649757
2509 -5.222735269273441 -1.4438909317188149 -0.0677018967844876
2510 3.233870781312473 3.857115908811499 5.558750184275173
2367 1.3061655687256983 -4.841306502366305 -5.546960764728813
2372 -6.366664954170556 3.8896566605307643 -6.013880735134006
2513 3.024911742270746 1.3343035571428201 12.991695799501839
2371 1.416095600789452 4.1627960329648435 -2.8347034622599274
2517 -5.593106499322864 -6.994042402220663 -0.8717519529249695
2514 -1.7324625585224869 -1.1078572050111934 -5.1041402595596
2375 -3.559248836744449 2.027369676354896 3.938684709516016
2518 0.5859499041875925 -3.3553565167072623 -4.409219439329257
2379 6.025778783082457 -6.393360206552675 -1.3810524454197282
2521 1.8798931081076733 5.147772303457104 4.824980411775298
2502 -5.751103720708605 -4.203233744151238 9.660904214964333
2383 -12.010343967580027 1.0595906345478452 8.462547345621857
2525 1.460868885986277 -1.63435572759844 -0.09489143224497149
2529 -10.339757189152015 -2.2081096960529023 -11.689786344048562
2387 -8.814516069752498 -10.320236691551012 -11.826691046969087
2533 2.1187029755315288 -1.8215510053279151 16.337155920262948
2391 -8.121497804209994 4.913663907998546 -12.338547034614448
2537 8.891454401574624 2.639498699736946 -3.867335869529632
2376 7.896992140450888 0.197043567491749 2.3417061681787583
2395 -1.0081198389502428 2.677427211110149 -2.3665157898075972
2541 -2.4118516761751914 -5.253015516922286 8.1062658730884
2399 1.855650664832002 -10.331576833721586 -0.8325865297950306
2522 -5.319955733680678 1.3014235938188725 0.9476580974532177
2403 -8.210916031649546 8.319537525861934 -5.150197703004892
2380 -0.30122261575922255 3.1579746152671784 -3.4342958629614997
2545 -7.142429828329079 -2.294894003877497 6.193050335557499
2384 -1.6556282614194393 -2.555137511619694 9.847130807203131
2549 -2.452242449452507 -1.7196180149720643 4.260815033365131
2407 -3.2091683391310446 3.3564913874062436 5.86127126591795
2526 10.854531867549417 0.8182323248856112 -8.191643112077942
2553 2.558684759011479 1.933394406853364 1.5019050372777303
2388 -1.757195843047719 0.0297569816355941 4.809550932744452
2411 5.043365299237273 7.25435308442858 3.196259448702968
2530 -11.225072000563905 -2.934121781752727 3.249933421973865
2557 -7.847853012858841 -4.29127234706321 2.7405143279947173
2392 1.9404625993857323 -6.034669654730104 -0.8472601002759894
2561 3.5127909045417396 0.15576526276524286 9.773178369193145
2396 -4.204738125028185 1.8934359515136219 -10.445203666436553
2415 8.29419475446292 8.641956814065784 -8.017046385991438
2534 6.4314910229229785 3.9592890057886136 0.7780270523161583
2400 1.5546714452904746 2.5548583542527097 -1.886404327135521
2565 12.94099104591976 3.5647628820740964 6.569864217768044
2419 -6.724724728557052 -4.632274143936658 -3.129317941364161
2538 3.34344548152673 -3.468649443640154 -3.4303836832351933
2423 -6.325663509463477 1.8143006455509236 2.647943270240383
2542 -1.2573959333913665 -8.01451409986401 -4.4412569659871854
2546 -6.974011071090621 -5.580896858867679 5.194820026820513
2427 5.9024141847495 0.7774851145480192 2.05007354181702
2404 0.40583382390586337 6.571495518533369 7.9416463517258675
2573 -6.624475373499295 -0.559266872036118 3.4702035774269633
2550 1.0966640486438182 8.869411048817497 -4.2547807476122035
2408 -5.4054155976352165 -9.123026657608595 -0.6226242052952812
2431 9.342406871583139 -8.588985420572069 -7.0178855555954796
2577 0.7427917439902639 4.0712010053314325 -3.803457428397345
2412 3.970228978456069 -1.1595488142307107 -2.0540321206579755
2435 -12.895637143054996 3.0059225322413714 -1.1965250257929383
2554 -3.404449405074615 -5.029451000926489 1.5051690006663392
2581 -9.176579309402653 4.771838812611328 -1.7896266112001886
2416 -6.352866293026847 0.5226771769963607 -2.462594259687488
2439 2.977894286242169 -0.08888402087804015 -6.9192822831952006
2585 -2.810664170216894 11.437986523328735 2.1102363289369173
2558 1.86524690503506 -1.053660904816655 4.303547215575138
2420 2.6707368105074565 3.9494014670428674 -2.6642999454889456
2589 -3.4347287013079537 -5.910826995492328 -5.2270342456582615
2562 3.7732801655945907 -3.6816099319229942 -0.6749315287667582
2424 4.2108548016367795 0.23667539501437168 -3.130294637191256
2443 -2.8205360187396584 -8.445365312276337 -1.875825283466526
2569 -6.1079574097201 5.009137404583186 7.4857900430590645
2566 -1.1862950973458064 -1.6453862877391836 4.321424739932786
2447 2.6465725216804166 -13.466601105712071 0.37509041434591933
2570 -1.7680205172438064 9.609790004107094 -1.860834753652487
2428 -6.542847171677394 5.8949760704279415 -7.256004450378209
2574 7.865953597634915 -6.722574382249741 -4.049850088561648
2432 -4.02825169295905 -1.1125160060648167 0.46304434524607935
2436 0.15096154228598904 -3.6898114374437285 6.384625848381274
2578 -2.0483317946535418 2.8213446219692497 -6.140407128102777
2440 -7.036623075847628 -0.254730494042864 -2.5532489427788616
2582 -0.6248857392984245 -2.8132113415105264 3.933161777542496
2319 7.422834335864508 7.097700351491094 -0.8084616124594024
2444 10.207711244465257 3.3173577841746975 -3.3982185952141832
2323 10.577995079116473 -2.128577210528267 -3.885358940139942
2586 -7.163962197381677 2.361417044038982 -1.5467541963393836
2448 -7.942399806345781 8.291050669733005 -0.34063781984404123
2590 3.033860342912645 -2.187735813729633 3.2087520688218776
1853 0.8634069269308308 -3.2495290368832466 -0.9739568884771572
2451 -2.384576809986803 1.3220937059236377 0.30111437725229645
2452 -8.24036856505842 -4.636318815219189 -4.907486741831956
1837 7.377779798978408 -7.523809384092619 0.6756728573857524
2455 4.032439173908018 0.12976496957145753 -1.8474835297313514
2456 2.118562185684114 2.523146118729749 9.832670067891154
2721 -2.516728924449116 6.489008345220951 -2.6759122552875554
2548 -4.39320616691233 0.08972773342005126 2.685670487111985
2459 2.0322410048144293 -3.9759544058342713 9.97428471774053
2460 -2.191220510700139 6.04130705839932 -0.3732827896472625
2571 0.9396837597444556 -5.745646081443663 -1.292081528024417
2464 6.495883758271527 -2.5206704596343394 0.7281794455621026
2468 -1.9865449632309713 0.43659893869127697 0.41458435622090206
2467 -3.3128546589659646 5.427668890997583 -2.976325694788947
2472 -4.139820874485138 -4.0633597948848275 7.4988780421874095
2567 -9.62435128669248 -2.6816339981231923 4.66046723611793
2471 3.7072257285331562 -2.3150405462387087 3.430788369991138
2475 0.37116474252531734 2.4509504965354787 -6.574639115415012
2476 -1.9443810305698845 -1.5027975859009424 -2.638509425832251
1769 -0.38197072027462975 2.3308537743814877 -2.121478261874507
2544 -6.161785597716449 7.4155381737607575 -0.32247104298350576
2479 0.581747418512936 9.77300053326383 0.851224176617669
2480 0.22107468011390138 -9.558792170561494 2.4717329526750063
2734 3.0536536520753983 11.263535772377562 -1.4039997415901053
2484 -1.0426178398359998 -2.147093922956235 0.9327990780272543
2483 -1.288672585172237 3.1995053829962634 2.329684585820035
2488 -14.742899980969474 -3.474829153490715 0.5923769043795084
2487 -2.0781348159467816 -0.20453129002553555 -9.594614545417814
2492 -6.477054141746128 3.3601473465397644 7.022359510231257
2491 0.27866495566133925 9.546599087668799 -5.298824850915568
2496 2.0384497703201063 0.694080677133677 -2.620530269115726
2495 1.817177967143175 4.117296024379321 3.0280722252389127
2499 -0.8963336668869684 0.015386578713003344 8.06240614293099
2503 4.849934450652824 7.2865381336453465 -11.663418524422017
1753 -2.246865274974863 -2.0751408572570513 -0.6050698113037554
2507 -3.3206054605482174 -3.629724000118898 0.46225866949959293
2508 1.0942545824797676 -4.11622241451966 8.790798149531968
2653 -0.5288208864125217 1.6255629602496395 4.449533407435572
2714 -3.5379692030956376 5.441869782377399 7.701474487800559
2512 0.0984424921379942 -3.749086233512924 3.5970859535697968
2563 -0.6007367799353679 11.325035081748153 -0.17208795853873687
2705 1.1934074222976085 6.4446314991188185 0.6853713537083255
2511 -13.71140309952065 6.507513735219202 -0.9327207124492918
2516 4.341684131135799 -1.6659525832448805 3.9432095513010466
2515 2.1893379554330346 2.4124205081204653 3.260215814103999
2520 -10.002156524760613 -2.8060683308885026 -6.624896333502259
2559 4.599044485023589 2.2611042268841666 -13.102504926501368
2500 4.341069484268969 2.375254663984851 -1.013508467177495
2519 -4.538662412218013 8.958978328139958 2.556603607715228
2523 -9.720739263953243 -8.232716849485321 4.1931812023811945
1865 7.923686801670098 -4.536671941070579 -6.67467368061947
2504 -7.244459032900494 -0.2534851704933752 -6.997637602947073
2527 0.3963015109639863 -0.9100874891958057 -0.5460907067626237
2540 -2.4952362326849853 8.770448348478306 9.27808051820298
2531 13.81757532747702 0.08530585687718459 0.9667652659608857
2535 10.600839733690464 -4.674398570051638 -10.477249646448342
2536 -1.7511149949314817 -8.21646180093679 -3.2001777024241265
2539 -1.2316627498460349 9.687473319416071 -1.4558204243676633
2637 5.992212165592095 -1.2391903913777214 -4.91902388892569
2543 -3.796813283428209 -0.42749938889669437 2.165688064110927
2547 12.556557247693513 1.1924415546692153 -1.908132387601123
2524 0.28351065718617313 7.7827783677697875 -2.905815127594658
2528 -7.20065674435675 0.6693455989066852 2.655639723647392
2551 9.446485047441598 -4.757656760501284 -0.18189840631584764
2555 -2.2021016571406724 5.502497716819567 3.1855112362107643
2532 -4.5066082857376575 7.3837316091035 -6.017053477684771
2661 -4.286346986129457 4.392489416665878 0.2767874633500376
2658 3.514786681479394 4.752135654004015 1.6144014160900173
2638 1.9859620643030165 2.6361537508660096 -3.128074145068235
2634 -5.6763338193044985 -3.248043614807596 -4.144298924674976
2669 -2.3628178149228516 -3.7792828274401007 10.303700780460288
2706 0.1077069087319254 2.540354019642332 2.977505524169361
2610 7.629521798587052 -5.958092846542518 4.4570472699538675
1829 -17.707701932484195 5.260455584590855 -14.756482917687274
1733 2.0685443260643908 -2.126418327546136 9.045136341125383
1770 -9.820719353523039 1.456955524094573 10.077647508117687
2729 3.0238121165818206 -7.978784149390812 -1.6357844995534034
1821 -5.269537790816189 8.573393297131675 6.997263594890383
1742 -4.620790105004552 -3.663904209790694 -5.201162133583993
1738 3.1482828882245024 -3.356349507445258 -2.0144321290618903
1841 4.687046323122653 9.250435921212967 -0.326404305865993
2685 -0.47823848438828603 0.12725303837706672 0.39319574802133694
2613 -0.3592806052976119 1.3145200754025363 0.9603481193055122
2633 3.041058437623208 -3.803392884390864 3.810030001842636
2665 -5.670721622814995 -0.216118608789455 2.7451622802613787
2693 -9.561587232175789 -1.6394660613894427 6.926095143282463
2718 -8.832665595027157 -0.8070408909792259 5.415060202055059
2645 3.615525955578969 -2.8794683283980436 -1.5065521128160613
2726 -2.673868249819896 5.204512956612833 -1.4268067566550187
1741 3.48707965796118 4.760881423304533 -1.5468103333966792
1737 1.3473726328280855 1.2260164068376789 -3.0287908645878585
1777 -1.0443522748262433 10.542880419291652 -3.317351002409301
2594 0.9311361744076456 0.15082627925951084 2.2142199041220536
2717 4.197632822558545 -4.735898121203364 0.8387456735932011
2733 0.6686463206854407 -2.873099231216293 -4.136306340181475
2606 -0.3207918927410908 -4.341588877588303 -6.822456678733955
2618 10.462184591916145 5.625788598582692 -4.662043846508679
2713 2.4547885165716727 4.528546895402393 -4.72666587876357
2614 -8.351265089149459 4.042759759578372 -3.4573126623980897
2682 -1.938180530344032 0.4752223799702658 -5.85512097985496
2678 -3.0306895573447448 7.249688238457655 0.1371066646950176
2694 -4.517040933043389 1.2104122445519692 2.669956911709459
2630 6.747623121298316 -2.204013318751927 4.9749481112600105
2662 -1.2545381012506436 3.614968444524992 -11.093182848572308
1857 14.394172228362613 0.06343752460013301 2.9734788430528662
2681 0.5470492967015521 -2.138273860798361 -3.250033013788625
2690 1.2479225169780774 3.850951695973025 -4.279343175632077
2598 4.9900505976815035 -2.4638312186737648 -4.892877030730147
1870 -6.44675138573225 0.3655082260341545 4.1381833909839925
1850 6.936770775899998 0.9135133455017904 1.0899468385670503
1754 -4.7188114727177854 -2.078131257656854 4.177447261453454
1833 -1.359721957550088 3.836945523582717 1.515438593183427
2596 -7.473919341983634 3.931850714897118 0.8234798953950743
2595 3.072659852857486 -0.8074540002515531 1.9711069835113932
2600 -2.2658020583230183 5.856114869003661 -22.46931892968735
2599 3.4308074297223596 -2.440925755238564 6.9732224588773235
2604 2.2258027109085967 7.391067865499208 -11.044448949828237
2603 -4.045148223978996 10.432228946014803 -7.907682370093666
2602 3.568210621886997 -0.04980238998343776 0.8150285132683998
2608 4.467961225866429 -3.6065343907954666 -2.9633323558842055
2701 4.240621992846989 0.46728992841711625 -3.0013330251923143
2612 -7.341147063781918 -0.01189485770727462 0.8631087800001581
2607 -0.6352811907285361 6.633193567678578 -3.1520659043860917
2605 4.739775460178117 -2.5104758911365974 0.3810059378426579
2616 5.618471151791906 -7.467042820564359 -5.305748709747873
3335 -6.386375997765575 1.6494973592821827 -9.388684252459022
2619 6.542009227854339 2.956893717820646 1.4597710340279457
2620 2.840085968847867 3.5534779608951497 2.5717712700592434
2674 -5.050498066493514 0.9120414648395979 0.025619055176631145
2623 -5.083226793003983 3.92810711453608 6.087920729965908
2624 6.494487885742041 -7.126096428744052 4.799364412840975
2641 2.7905492610882052 0.053022769118098355 -5.428245897280502
2627 -4.960214106667335 -6.247167596850799 3.851966265164113
2628 -9.511558980743633 5.324445234563398 0.9120143910246417
2677 -0.6531386127238145 0.1665412692127032 -7.323672977551543
2632 -5.214866162670621 -7.281113693507604 -0.24621457353930803
2698 7.278398979507626 2.8801700884393355 -8.185579615832141
2631 -6.7881057546730075 11.315650849556032 -10.66274425641206
2636 -2.5289705554398583 0.1476813392842537 6.222992235205515
2622 9.825302088556105 -1.4699591064769388 -2.1257722648168995
2657 -1.2317553645603274 5.589162476717884 -8.633093398019936
3436 -4.493974294351428 -4.169515820410471 -1.3576982268306708
2635 2.9784691261845806 -11.296060941965807 -2.1443165080018756
2640 -2.1605014656791663 0.42967951490400674 1.49715744420902
2609 3.077191335185716 4.781185849050512 -7.03020325749011
2639 4.540649806519383 -9.500512800662026 -5.134062111611771
3331 4.6489267257666755 4.143199858024959 -5.2439371822714556
2643 3.5372423417672754 -1.9626725018093825 3.837016338048872
2644 2.550091910953684 -1.4491811203548621 -5.879672358128573
3456 15.897504680538043 -2.096852312615624 7.16989260316281
2647 7.954141755507013 4.5685678094212605 1.4544156274732964
3452 0.017281187598500874 3.005267961585584 -4.052323664643098
2651 7.6723132191883945 3.253125795921113 -8.453920392668271
2652 2.2247812621038516 2.4851523341269632 -4.31925678824913
2656 0.5702358243439796 -4.231529393965223 -2.1501292603102042
2655 6.124805310413386 0.759410270167959 -4.911774019026437
2660 -1.2590045355154404 -6.3094094704791495 3.1648486717160456
2722 3.9301752852838296 6.090789826460167 5.9156990194967385
2659 3.925485976157361 -2.2220602766658883 -6.095273214344796
2664 9.355466818732202 3.634070284751283 -3.252727535402015
105 -3.8916298274350845 -3.1251377728162524 7.895894767648193
3448 -1.3765309735645628 2.7638191477805916 -5.9599136089839435
2663 -1.7587355031570375 4.0073489924416785 2.308414695936922
2667 0.07289741323245566 2.246155248559381 4.408117910098013
2617 1.5265412778850553 -13.455687423383292 4.524166164616855
2648 -0.5293887627541373 -6.403193038253428 3.5444835585133023
2671 -7.9618229403684975 -2.3576511738221275 1.1997958902465098
2675 0.38817255184051314 -8.221824047600006 -2.8157146030774465
2625 -3.263012494652456 6.6487915329051805 0.76368377430822
3323 -1.6767314241782938 -5.764957285440687 -1.8622899263070105
2679 3.118831527379137 -9.547214260212597 2.828470012171315
2683 10.57583230897986 -2.3911768539336418 -0.1324436138777242
2687 2.2321259279676298 -3.9686388879577046 -4.3470856778887965
2689 -1.2396343880932268 -7.035316308923712 -5.953161234227661
3444 0.34880711120782315 7.162680701691197 0.7194187480322376
2691 -0.5190066721480924 -12.23967398106408 -11.693084715224956
2672 -2.107608761829418 1.8854528251971194 5.0101304911510836
2695 0.9068113442047089 -0.30889493452092837 -0.405293591328193
2650 -10.332867805946103 -9.38364865575066 3.584505618260658
2654 -2.120954450085193 5.149262523558029 0.5929179819058652
2676 6.0934172633166055 -3.2438742741753357 0.7396425544849993
2699 0.41129012483715 -3.4332143763598886 -0.5005994648777458
2649 -2.7854312070087217 3.528054872160787 0.48572534368311854
2680 0.5807541112398026 4.887183729506532 1.1524519191944622
2709 -4.244307939058699 6.427123784926709 -2.5949948981285886
2684 -0.8502492810298148 4.177448892113589 -0.3059828830019874
2703 1.083065442464151 8.967487226956292 -7.351985516821176
2621 -4.021781594134059 2.9907446153681665 0.17679422144133594
2688 2.907120882557742 3.2977235654657746 -6.618740954478672
2707 -4.3707803915484345 0.6375035321324893 0.2729868782605641
2725 5.477878951775968 -1.5049377897714173 -0.3868038978714393
2668 -1.4289847494961714 13.141010247766983 4.6795895873753866
2711 -2.46399864162302 9.583527134250788 1.3242786538137374
42 3.6903313563152973 -3.0424419538003424 1.7582805477256436
2715 0.07339943280374214 3.044311124933593 2.57657873781068
2692 -1.6245513092407309 6.330033654503689 -2.213117663076894
2666 0.8384848997520961 5.439497612354489 0.34443694995913976
2696 -5.846871175312895 8.637520607865122 -0.47078842290275863
2719 -15.041960814031503 1.4527769095574874 -2.0878418449031684
2629 2.601277444684396 -0.30948322819190327 -3.425059093670284
2601 -1.1720255791568837 2.128141857770273 1.5889803087957937
81 -1.1351400881998523 6.198178261121752 5.278303144423704
2700 -2.3099224270999144 -7.055090616307729 4.118956900309434
2723 9.0360624408179 -1.0198820953897103 -0.33808817325855806
38 4.516660206582563 0.3576150517232192 9.339768792848421
2704 -4.1073458040394675 -0.8790721715537912 -6.422665528525935
2727 -5.523639883814815 -4.500892371898104 5.547326253571306
2708 -0.6022445193035891 3.05024837380462 -1.486237258726239
3440 6.244152485288978 -4.248313667820083 -6.083258640263383
2712 9.06401402897939 3.8203465206619027 0.813854426929575
2731 -4.940811712058615 -2.143807685080436 4.939925272389026
3315 -5.8203289687516495 3.0647503756345635 10.258150561386996
2646 -3.9690608109973144 1.9585165084733003 -3.4285584579654955
2716 6.819683385658884 1.6270716797369944 11.044350314041353
2710 -4.423467773407629 1.012943874472549 2.7552984026433327
69 6.231566995486093 4.648356610659544 8.016102069172183
2720 -6.454746499616549 4.1379932423266315 -3.58324988343109
2724 -0.20849708440244166 10.218906291182025 -8.5814875980091
2728 -3.2374262850385227 -3.5939387578473085 10.308853417285546
2732 9.868627199542507 6.659536949387607 -2.442566765707816
2702 1.861823724927547 -2.7296041464855603 -14.397282225212702
2611 -5.9626629350661515 4.731574343318389 -2.874868920591587
2736 5.940730485778723 -3.9465254639528657 5.414347486282255
3455 -5.160759196107826 -2.383301279329701 2.307771035499147
2735 1.7727505989448917 -9.218651208426529 2.821909444567666
2615 8.959489569655995 -9.449352809528149 -4.54913670328628
2738 5.585980168788951 -1.2698045160644014 -1.1819427548057113
2739 6.7091057555117 2.6382417554847626 0.9991795702926357
2742 4.479997670577204 -5.6070127284259685 -0.13840378784917648
2744 5.4831212125380135 1.5848176440101784 -0.983106215980867
2748 -6.678765013727826 0.46768635753616117 -2.227438119201148
2746 -2.348919617690862 -3.515053192563699 2.1990078814720495
2745 3.8577915481338 -0.7840450221304106 -2.629648935697544
2752 -3.890718656478616 1.9252129532714208 -1.4915481567572362
2749 0.13847385364144751 8.33268848315435 2.8046534407391612
2750 -2.884576814418462 0.1692442483336036 -1.0718142405037145
2756 -4.054453220840077 0.10348843332333611 -6.2590501232874285
2753 -2.4731677784722357 1.8025967381700922 9.36263604668525
2754 -5.802789948581266 -7.179186275001281 -10.981722510117967
2760 0.3790750205109842 3.356624013974237 4.13221597068291
2757 -2.1664409827477327 -3.0397509676268006 -2.296076973730175
2755 4.193884212140509 6.71680064245778 -11.740089301445176
2740 2.368060463264232 1.44457712213966 -9.940033717041212
2758 -3.7478985347291927 -5.327773151962529 5.083914891130862
2762 -0.07172861907528212 4.1525951214265 -5.634076967060057
2763 -3.5700588474651482 -3.5264840536037476 17.63632239806054
2761 -0.2915956812141975 -5.997796137425526 -3.0995733613260668
2765 -4.0855640988376525 -3.185781823501378 3.568157562141017
2766 -0.32914619730873207 -2.6398193751878267 0.21913733402667201
2767 -10.682055433836291 -0.5167310574240777 -5.235425942108977
2768 7.839866474610226 -6.091948358086697 4.260235334120743
2769 -3.491283023564469 -5.034050278596586 -0.029656067886822852
2770 -8.62056829818093 2.43784962327875 -1.9299889106323098
2772 6.604497768568001 -0.15224735869123648 -9.758989099422461
2771 5.775346293080327 -3.570867726629558 3.631366577558742
2773 -11.61969082833245 -2.3094492232471655 4.868176712464354
2776 8.209073040986953 -3.701389427924675 -0.3319066780663444
2774 -3.1443978043700445 -10.33302932113065 -2.4723119079968447
2775 -7.054918300298676 -0.5879006582103222 -3.053853250444984
2777 -5.628238347222428 2.1051595050282916 -4.587737997536256
2780 0.4003061198885417 0.3419602742995261 -0.8031639858268886
2778 -2.852771144784949 -6.565114691401259 -8.074288029836854
2779 3.7774034353409864 2.0124639806986435 -6.365712351177652
2781 5.168456101539892 5.674429871812837 4.173551175824276
2784 -7.409630624805874 0.16062973854176663 -5.108766294007022
2764 5.672282122047956 -1.133180711660738 -5.702297542058993
2782 3.468377830083134 -4.905022383211125 3.303820097663641
2783 -3.156376529528927 5.621878187837309 4.740339418587448
2786 -1.543764448561829 -0.8316459849401799 -0.6218512715506253
2787 -2.8758207623779133 3.8623107717240455 2.5454543676523023
2785 -10.448130215435555 -0.9413721581830647 -4.180452390649315
2789 2.8977061170122034 10.112249053516456 0.7732613577283847
2790 5.548820533803361 3.7852070789225167 5.019464792049611
2791 0.9902473127581278 -6.137023437725568 -6.32773955200985
2792 2.427591610376633 -1.990936901779471 -6.200141371160898
2793 -5.747317010750887 -13.700320343549965 3.5212783294585397
2796 0.009471654700761145 7.918355014958983 2.5792924575548484
2795 0.7834175896633673 2.234161075582051 -6.046275470435089
2794 1.604793506367284 -0.6506394788692124 3.7147155057810286
2797 -0.246393526246397 -5.933982631513349 5.712553358395644
2800 4.135798603879636 -0.45135045571780313 -7.847587523953735
2798 -9.595511053256663 -5.388106420379257 -0.6562709268971122
2799 -5.355714944837228 -8.952681845186161 -5.492408811993713
2801 6.2018690180626335 -7.232813358643218 2.118350044038458
2802 2.7205312865925726 -5.568228020262183 6.328861171167919
2803 -2.2883436259798806 -2.681236899482428 -3.8427174609847587
2805 -1.3609200214278445 1.800241086625604 8.747161476656451
2808 8.652748257368705 -1.2429339048909376 -0.014591650637221659
2788 -3.2233611818345165 -3.8323511843843656 -0.026427824409536626
2806 9.93087263996323 -3.0943778432851374 3.714854397622942
2807 -3.5246871196149105 -5.035974497637292 -1.627000281576449
2811 1.3864836805299663 2.8906453885252694 -3.533907226682513
2809 -0.9193361326689998 -13.570725714145697 -6.6479537146511865
2813 -5.677854736980743 1.4375643777135987 7.817925334490425
2815 -4.932864564037283 -1.2944043413992092 -1.8468956486687973
2816 7.932658825484444 -1.1802223659617979 -2.3475488844434698
2817 -5.254983144289403 -10.263100372111582 9.540524088854864
2819 -5.333367005384371 1.3139367192480518 2.1266449082632928
2821 15.848973036684711 -6.7927505246203665 1.508405023339032
2804 -1.6485218766244185 5.002330866964931 7.544403705852778
2823 5.478759864172852 -2.5909921855809572 1.4272379008728262
2825 6.013970817528952 4.0312775708676565 2.341243591065333
2827 1.7746716831809337 5.647492310610147 11.435562064442026
2829 5.3518272770364765 -4.933330645139859 -4.769509982112857
2831 -3.7558586268493035 0.5349964340040941 9.147064127824368
2810 -1.057212956968008 -0.2503363528115094 -3.4381463793044866
2835 4.693145892951301 -3.1333040838969466 -3.5959672311067146
2814 -2.1985919686736914 -3.0497742299595325 2.199787048004622
2837 -1.0759272551706462 -0.17690125257276168 5.480467121382576
2839 6.003592245160652 -2.239995954136333 7.726309202936312
2820 1.360133428848562 -4.519399513030537 3.362047895524767
2841 2.653243034057024 8.507234226335127 -8.046733264593593
2818 -4.100728343197335 -7.52152083323688 -9.44557590764864
2843 0.32920569549845596 -1.426686283415327 9.043918051432005
2824 -10.520638496523576 7.503710944380852 2.8411362387580295
2845 4.225268352852285 -4.094320833236312 3.5704897627082905
2822 0.028001721666312304 3.420131285312403 -2.1876591013798525
2828 2.0933483501983043 6.251763561260018 1.8202462136293915
2847 -0.03841395416005989 -1.2957819525003396 -2.0678276929071475
2849 0.07619832921875046 8.514432978542589 2.687423534848754
2826 -7.901051431929447 3.9729436827822817 -2.656010574159425
2832 -4.665768669310771 11.280527255123207 2.0987811877815585
2851 -2.434796756975293 -8.680235142387186 -4.85010185780326
2853 -0.24010319857013912 -9.35841382954932 -0.800294199933258
2812 2.9728856548370266 7.970809256142198 -3.1008698235864514
2833 -4.588498953273042 3.46300967346345 -0.32352970365426953
2830 3.694425729715226 -2.3045479169282754 6.9903642443791485
2855 4.9978931945300005 -1.38076478470629 -8.488990361182987
2834 3.576391945403162 2.167222163192446 -0.5390641402336622
2859 3.3117755558257693 -2.3837765345947024 -0.7684525954852824
2836 -6.219079689692257 -3.745128180010189 5.700621617503963
2838 11.797682536362805 1.034476644948712 -3.8903812176819605
2840 -11.63492508099048 4.823446264948674 -1.5983088256096945
2861 3.5662776353299352 -5.087766765623326 -2.6418670178884813
2863 -8.653659217176564 2.408949795629511 2.552991507212628
2844 3.6360177112134133 10.217610933651741 -8.584596179129447
2865 4.037075852625013 -2.9959689754473144 -5.607729917850724
2867 -3.664094672217778 2.1768065172742834 5.627649825241186
2842 4.545506346349124 5.5670887257103345 2.8392502617225097
2848 1.1868123551714298 0.2891859572321465 1.165920183045035
2869 3.4575305753873415 6.329066279900758 -8.612173182489418
2846 9.065298501680187 4.566943875770719 -3.1829138553996033
2852 0.028142764608086745 -6.029877341365876 -2.027761035916482
2871 4.849499517372511 5.076204595502913 1.4047740574696077
2873 -0.08100324344454848 5.141767990274965 0.07639131924907136
2850 9.200407251166869 -8.277848398807405 1.4400116232970235
2856 4.920326920325105 0.8788997595526049 -6.231172164713046
2875 0.6616121895414127 4.343939432089812 8.840299236955222
2877 0.7996814040525205 2.2036901543617535 -4.328354069962434
2857 9.134435877493459 1.3124599332929767 -0.016266985522388467
2854 1.0459868373914174 11.37340531855573 5.583190468663709
2879 -1.5237526442997804 3.113109760820312 -0.9543404769360689
2737 -4.324315338962509 8.83753035223237 -3.2337935016711676
2858 5.92170904228734 -2.547255607795609 1.4607388230403793
2860 -3.1833488892266035 -1.9968358265877857 6.486656596119778
2743 -2.757776962218695 -0.22251184489746476 -2.1759881310138467
2741 0.31494701655751434 -1.4157069641079163 -2.2218074052556993
2862 7.915231508873286 -0.11385567081238034 0.43624376906914775
2864 1.207285819061888 -3.3349390724338197 2.3532749507167714
2747 1.0309272012944788 6.623675332856414 0.5113647354449042
2866 4.701288476492143 5.131659693861785 4.0379885173994134
2868 0.0954436696535736 3.5889063929870066 -1.4477304965765248
2872 -1.701152577904707 4.166244508141443 -2.3354843675101176
2751 3.146538595531865 0.5170831483401777 5.717708253715873
2870 -5.104693950929395 -1.8117020084383002 -5.223205665386521
2876 -12.0094826901349 -2.503088521909364 -0.5677872547775163
2874 -1.1895947357266552 -14.782483912015616 -8.968515579104112
2880 -4.073864766251307 14.533993570189994 -10.209449652858444
2759 3.324828534422979 -3.879935899271477 1.7646857547982602
2878 -7.357677833798666 -3.269366346366778 -1.5452626106468816
2882 -10.682958361855315 0.38067552369908453 -3.1587950996439633
2886 3.4547293057908366 -4.781465216673751 -3.650119117639698
2888 -7.164862185503622 -4.289470725783287 7.228688322910988
2892 -0.21804293182560672 6.789738036515186 -8.092379277228753
2890 2.5151676567336816 -2.983394315563935 0.8858560392562583
2896 6.366105335690262 0.4431751836444071 -3.9459134217370067
2894 4.584807261127346 5.129482830226808 -1.4229117820472936
2900 -2.5865634413010605 -2.635198197299767 3.8701418773316445
2895 -5.462749595115214 0.014645903454105793 2.8869383967892057
2897 -0.36147488178011145 -6.691052281749343 -4.8422959464878685
2898 7.347609981263234 7.652406165802481 6.495613140580401
2904 -4.769718438930493 3.365073502827974 2.6664188203610943
2884 2.66553781660953 -6.382574314692434 4.644833977218079
2902 4.830441157320271 4.425943419410406 2.4197823878289113
2906 4.701888916335731 0.697960245873443 9.012182113233699
2907 11.941783841627739 -5.2922507430663766 -0.8929014213877655
2909 -3.9692057555832054 0.9191472200754489 2.322322283128626
2910 2.3961158439443864 -0.5964792126527395 10.532726137442395
2911 -5.291913309323964 1.9123146092596754 -1.2532549406700109
2912 -5.763810543578453 8.472409311726183 4.243641771954692
2913 2.4618846458622343 2.0370713756037993 -0.35397106727140765
2916 -0.37162732319874364 1.7498243546090377 14.434093980506338
2914 -5.2587373101762624 -7.072025058725372 -5.929455137070396
2915 0.9990625593909289 8.66530914945325 6.372002401169752
2917 -3.506921673596142 -1.0266310534726 -3.9562520244485744
2920 -2.08055505487585 10.054109890475111 0.6381099735289575
2919 8.222547485379364 0.7554588886754959 1.8993199764473014
2918 -3.252749774783709 -1.0917376721703087 0.6632570711981601
2921 -4.701024772586573 0.9354518783267738 3.326639109650663
2924 -0.9976337569870994 5.607653968969585 6.914010847721253
2922 4.22109503565562 4.554921994106392 3.9907146797692388
2925 -2.809918531585008 -1.7105955941761286 2.1044047299543784
2923 6.424739007817349 -5.958757505924487 2.717277102204406
2928 3.3691314788536095 -4.150033922575623 -0.6177114798058831
2908 4.616801663978905 1.7873226740346484 2.8286988808348537
2905 1.711079958543751 -4.993236946597629 0.9033072595996614
2926 1.4816383320919702 -8.94657878388165 0.11771084994499242
2927 -3.1306533815472273 5.864479383204958 7.65631925505048
2930 -2.212193906566751 1.3432989460565719 5.0359554059920315
2931 -5.110361648215911 0.454026734342524 0.47519044944401684
2929 -0.5310007489612145 6.5290818056146005 -0.6558427997189608
2932 -5.350194932807139 0.31710991680304834 3.194812561758364
2933 4.461256567309094 1.795699048852884 -3.1565028058876083
2934 0.844783617060828 -5.196214340824141 5.788779965215828
2935 -8.47189226644166 6.456321764106186 -0.2143257835762956
2936 -2.9695269365394843 -0.7072787331432303 -8.075349663934153
2937 -1.0644724212730778 -1.4294840204964512 0.19261656607469396
2938 -0.5810842049450798 1.168358085422588 -2.5685239317548025
2940 4.460618333147504 7.909070144417092 4.829837716476349
2941 1.8255839705428065 -5.815202441846744 8.156944158936952
2944 -1.4221918090049495 6.965298543474792 0.7423489007634642
2945 -1.7933006821301523 9.308066952145115 4.160555501124935
2943 -3.9226838901121375 7.427894508338993 0.6066204414008375
2948 -4.357859653189867 5.679791794687468 3.1934923243919804
2942 -4.234153195000456 9.16735390843091 -0.13277855669107003
2947 -2.7372235475211797 2.7057696896107624 -2.8138460153015363
2952 -11.965571952780007 -3.206627306758736 7.645971665059921
2949 1.8698850806627811 1.7570014280718527 -3.0708641738618
2946 1.2248296739723006 2.32071321376799 1.0938582356772852
2951 -3.293670679926959 -2.3256220804904193 -3.493640482856648
2950 -2.5714889648027577 -1.9270276355734839 0.6968974832220853
2955 -2.3388666964893594 -2.9638818233162576 3.1010647865970675
2957 -1.535456125257178 -1.1246026358436614 -8.558729710010816
2959 -2.1154209567166853 -2.096180624195684 0.06649622036570192
2958 3.1827565274733733 -3.1283496234752293 6.536361871270733
2961 5.165192682629026 -1.066843447178386 3.8921741954388342
2962 -6.378380675396561 -4.981555922697779 2.9614742704754393
2965 -6.7601843682902105 -5.7301110213853805 -3.754605930790427
2969 -1.8787111309416258 3.1209992484315925 1.8749553774765935
2967 7.736001954280313 -2.413960554059607 -3.573678796262326
2973 -8.545131025795907 5.1717072111728815 -5.591548962181887
2971 0.9290793366080139 13.566977697080038 -0.18607600372784033
2953 -4.513168087966549 -12.11747766861909 -0.08412739054932501
2975 -1.511346072061691 -7.049600142563339 -1.9857741641254383
2954 -14.25336257730245 -6.848094204314058 11.938866006590569
2979 -3.8982684889438053 1.0769291081671981 8.34365304732935
2956 -3.1744325974334133 -11.386697898433162 -6.571873976229305
2960 0.19257119635878178 -7.345773159641855 -0.408565541954249
2981 -8.030157883221761 -6.522308475657977 0.026788378097462172
2983 -4.159248250128368 -0.3203862527378013 5.889425928846935
2964 -10.34002680373493 7.571448616463641 -1.1693393185896315
2985 -2.5389514887515516 -1.291194633037745 9.000439536289186
2987 -4.439213722313581 -1.7975334688784534 0.83029872880002
2989 -6.045574049580063 1.9218328084873881 -1.8240853426606174
2968 -2.0654999557809868 8.73848732585448 0.4907093920291898
2966 -3.358439481267665 -5.772218661556931 -2.3006065015880988
2993 -2.410345876609257 5.638437012657443 4.178589296027742
2991 10.413899286675269 -2.0884384970988674 -4.915892398951997
2972 6.244041699362027 -1.1510574846342208 -14.780684297860768
2970 -0.9628478141578688 -4.3923183180057235 -2.18194786376558
2997 2.5288077130977475 -3.905096389766391 -1.0579596695141877
2976 0.44920771067256254 -4.211566494309456 -0.8271702781789909
2995 -0.7553472574271631 6.786502245994109 -13.047575257601599
2977 -4.533668330374932 -1.3508508048297503 2.1603408119511225
2974 0.3727227327756774 -0.14179583527113981 -1.6292580760147104
2999 3.8939331206839376 -1.0134058593310935 4.53514492160511
2978 6.270033032818792 0.2967043443371065 1.5550441656110603
3003 4.830720415651239 -3.2575988376729406 6.6250352937798205
2980 5.431739132255443 -8.435482279106667 -0.7655515330461152
2982 -0.6824603927472616 2.7322631923162097 0.7278099335468136
3005 -3.5957372010612834 -0.5804792756397336 -0.46858721286734284
3007 -8.84000893448369 3.019844264025 -6.890841926190995
2984 -6.159527233579868 0.5739671286263931 5.8510223448464345
2986 1.8479468290336591 3.034185613842065 6.647200819770125
3009 -0.8730874852230655 4.497802287112131 3.798756099397123
2988 0.6916184214202542 3.7593177993511624 7.54746251857685
3011 -0.5138911716559482 4.443776863092703 5.34700125304314
3013 -8.584965055105211 1.0123824570364395 -0.8401300648138151
2992 2.4350682700253725 -1.947865471355682 -0.9406375354678428
2990 8.955615954742347 0.6977058505656385 0.7710866544869458
3017 -0.7078864926783308 8.735751590016527 -4.035786614060033
2996 2.3625755381702715 -1.081353271206382 0.07170087186018052
3015 -2.6119921494815763 -9.007731785363262 -5.759588253119257
2994 1.7574897122671713 6.042894449098797 -3.3924712895606772
3021 2.8322434624174524 -6.868991946312109 8.044049030920526
3000 -10.41334465297244 -13.126391125932782 -0.8464363003370599
3019 4.214090625626844 -9.131275106716538 -2.588649636361716
3001 7.4430544705576684 -2.353046910064291 0.3180579980879671
2998 -3.8443183022161254 -4.123083912514753 -3.5928573701531206
3002 11.519710244565768 -8.863667712697548 2.9819000537978426
2883 7.157232174061981 -0.6531539092610352 -6.636941624729105
3004 3.521491726620326 -3.8249003103273105 1.249688182957208
2887 3.8994923449104406 -6.51617786189033 -1.8040967568753812
2885 -7.12767996660373 3.3072695654011324 2.406575656265015
3006 -2.022867957818683 -4.683397602088464 4.691333952168789
3008 2.246598143266909 -7.201291714622114 1.6246452106441147
2891 -3.1404877989356037 3.508208104993995 0.9779330591594775
2889 -1.083748005777785 0.6133175274050827 9.438171861845028
3010 -8.915020400766501 4.268911280752812 4.807765958917315
3012 0.44800849883408883 2.425605948065518 4.204654354912977
2893 -12.032963691982905 -2.9366666743264314 -6.215945061970755
3016 6.888477184953153 -9.793377987414326 -0.3785216752212625
3014 2.086678399558004 10.436447783951122 -4.3864077780077615
3020 0.08098020835534585 -6.640866893683177 0.18895095375741483
2901 5.782828630457006 -3.1531676646123867 0.4771454672435846
2899 -1.7782878253024024 -8.195211391578168 4.21455240713227
3018 0.9600980316501283 -2.1309825388587345 4.374058922442601
3024 2.767598250814793 3.635137518550609 1.675022926032956
2903 6.279091683462593 5.321155448974641 -1.3580316710384053
2881 -1.567612154880807 -0.092596222934707 -1.6197667575037538
3022 -1.3863394000697336 3.0971832156094172 -3.951032965960274
3026 8.109045217656014 2.2739470473383707 -0.5902776700059408
3030 -8.41557020724746 1.9017825140751026 8.9669628983223
3032 3.3117831112421676 -3.066037711512264 5.915225188822705
3031 -2.958765526823194 -1.1677212559441468 -4.456689223594707
3034 -4.368379462257841 -1.743663695873178 1.1036818764546183
3036 -4.538422706923646 3.7363431199291397 -1.9893481904917139
3037 -7.681508073137695 3.9674472092627346 3.1826402770791855
3040 2.191798549156063 -9.619355068705675 -4.453121068165819
3038 4.315866534372182 -1.8678748203532447 -1.525459241399991
3042 -2.9443340199877226 -1.4072482589907132 -0.7548840907178928
3048 6.101064363673557 -2.825285789588169 0.4749195195983931
3046 -3.4440992851887486 -3.1703213999119053 -3.9977227445021826
3028 -1.2434002341012553 6.04825497539058 0.6758904504025028
3050 -1.2135870986237989 -0.9621625173273687 -3.0970794203495537
3051 5.536622126075785 -1.1175383688003524 7.144758552159836
3049 -2.287695008612548 4.807946740172144 13.433103348816747
3053 -3.043263632235344 4.696043940381285 -9.231171204216675
3054 -6.851407654653669 -0.643863125726112 -0.10027036338041309
3055 -9.634318299278094 -8.673859972069673 -2.511800478578054
3057 3.882695448755573 -1.201739532258363 4.222913448432331
3058 8.861031911623984 -4.917918358236337 2.0308219246906947
3059 5.669000803397049 -1.4758514151138973 -11.315925553355036
3061 1.3819373216646906 -0.5673831106827879 -2.1560903199173196
3062 1.4988360223773622 13.912515928462371 2.0435306309991317
3065 1.9879796420724212 -0.17507365450114523 -0.41146705446253573
3066 6.505092232951187 -4.9665594165178275 -2.1826237352949116
3069 0.2846862579421283 -0.38764588492752355 -6.265700669382521
3070 1.6008703216489162 2.752737550707694 -0.5273628095590713
3074 10.129527799534603 -4.4867838874689605 8.406436604483995
3073 -5.357586764806216 2.2039111539703344 -2.3850814384759587
3077 0.10652813302704778 2.6380451695433456 3.4985099787786402
3078 -1.3027268090380182 0.4068556217926643 -2.049015866239755
2939 0.4678867464972103 2.0787868001489405 -4.750015733994505
3081 -3.9097576905598688 -5.223149827283255 0.7916998733125205
3083 2.070987570428418 2.2625987919917403 -5.1090052131966
3085 -10.655823186044985 -4.313355798617565 6.823809887447701
3089 1.8340242025142033 4.031612876604735 -0.7116338510223584
3086 3.3411060928009007 8.326254428839688 7.408272339351519
3090 1.7674842697461444 -5.106202200996082 -0.7143202741795937
3093 -4.746142636519654 -2.4144756365570545 2.3969636972725374
3096 1.3701071209567732 -2.581720375376586 5.131227436564966
3094 -18.6062398305539 -2.540798044182624 -2.5693193088376853
3097 0.1888184248995332 0.9546984045159852 -0.14622364350883307
3101 9.388319847051665 1.0109538000569849 0.12569248845499742
2963 -11.242660628316928 -3.259579155835979 0.5562919164791091
3082 -4.89868868447752 5.219367671052588 3.7509637876599
3105 0.6182312527687992 9.186866344563487 -3.0493264795426818
3109 0.7317700634168893 5.414122152402899 2.5721098889959695
3113 -1.1682129020641547 -1.2686348661206706 5.792075862371616
3117 -2.47265234684558 10.848211854952815 4.173906233339449
3098 -1.610826498672413 0.966658904810945 7.6939644697851755
3121 -2.941200792921415 2.758536474810733 -2.3166695311939294
3102 -3.2175164262153024 -1.1481810560493453 1.2182053498055119
3125 -0.8110138888887604 -0.8079004969475756 1.8185398045617454
3106 0.7220027233886399 2.05687113235677 5.8194420335457835
3129 6.566326065200611 2.576815095704296 -3.4223730216690806
3133 -0.9012664903705209 0.8441625054912074 1.3310647378042662
3112 -2.934646599981323 -1.6277054467518082 12.002736552246068
3110 1.3557424850200535 -2.072885346125785 -1.9071237840430924
3137 0.7118534109561223 0.9805447395785618 -3.45203331474408
3114 -1.1233842249257173 -4.246173190115402 -0.8340693057272323
3141 -5.540857589852599 4.081190819578849 7.254936677537952
3118 2.2562336532196503 -2.9040831502518833 -5.061576616088104
3143 -0.6165382054939389 0.17856243127423804 5.764004570722183
3122 -0.8939694111006307 -3.4657761704100962 -2.454022414704382
3145 3.600050271908913 14.270914872263825 -5.760261650090354
3124 2.5464775762967538 -0.9065964978622013 9.854880983185332
3126 -1.6591353527709576 -10.57176866579957 0.8729332237221801
3149 -4.717515974342857 -14.605533101009511 -8.629014515437955
3130 8.375987896606942 1.2225087853971675 -2.836665345910625
3153 -1.2726312096905932 1.0157519320922086 -7.655524932139955
3155 0.27113865838240825 -1.4422420903798328 0.8274791268869894
3157 2.782623216592068 10.395584031139009 3.2733744544127137
3134 -4.44755120725622 -8.720900794106134 -3.085819883288846
3161 10.579533268079125 6.1925542905886655 1.7614464026353587
3138 -1.552281424709422 5.853109610378241 0.11795494980229193
3165 -8.054769743184442 -1.5830218376796519 -0.20522796476639732
3023 -1.1508388720822602 0.35943998759624163 -7.110225263435918
3142 7.635819530228863 -0.42659236394017874 1.8765285564278882
3167 6.2056361574631635 1.9251894171104826 -0.17359040969182335
3146 6.0121383463034 2.266228994907429 6.7335646030844805
3025 -11.247328720327308 -6.511241081548635 -5.06098752068476
3027 4.13557733157702 -0.9914095174308665 2.7074984966387143
3029 -0.5939825667885469 -7.770648236894021 -5.902244368514706
3150 -2.9684843803039573 -2.8852548103555464 2.5232005592260123
3152 -1.8355510609606365 2.258285019593701 2.2081694615738265
3033 -0.5236389889118038 -4.025592259179058 1.4227682975507527
3154 5.365091885284163 13.380127048784663 4.039182460123805
3035 -3.304154464701329 10.619915181851539 -3.979330393246603
3041 -2.4845115511932363 4.344977421869402 -1.5260278526592845
3158 9.889127947142025 -0.3014032262538277 -2.474089155801259
3164 4.7060833685735135 6.983710635296332 0.3067312464293401
3045 0.3504046706095371 -5.8929863159224185 1.3452549736451245
3162 10.833801504425105 0.7964037198712515 -6.271787110978186
3166 7.816606602657668 -0.578821475108705 -2.7329096118868477
3170 -0.7739012809771733 1.3624168899010327 4.921452911683722
3174 -2.5732401208219926 6.760391756487987 2.360818170423247
3173 1.9539793350937846 -2.9309733551486 5.600045950217606
3178 4.436312049562989 -8.490954279969422 3.456215689256163
3177 1.8532563779247009 -8.34342935021337 6.089245991451556
3182 3.8082152986010165 4.723299587746031 11.872078261385699
3044 8.71987242548851 -3.804862955256959 -4.5909910972306855
3039 1.7489026604372342 0.45625709586379615 8.940587005053068
3186 -3.9342283428735687 1.6218875592876683 1.4835373413742359
3189 0.08574766474297306 0.462351403210923 4.594469376232828
3190 3.056926625052825 -6.966538697760598 0.02702996348271716
3047 -6.864666877999291 9.281895413162859 4.866658655034234
3194 -1.0294181444081427 -5.2088851967604315 5.735097541965282
3056 -5.4569413872667525 8.972064442548534 -1.3143163285180974
3197 4.183584442404514 1.7960094796149786 -1.3880588154039775
3198 2.157685405679636 -5.546475301445909 -3.7743193336870413
3060 -1.235288207039548 -0.5961708195905796 -1.6602615044261773
3201 -7.539231979755886 -2.232533985904787 0.39077870586516716
3202 -5.076386758741293 -5.687495942803114 0.4174559436402894
3064 -8.275045751752634 -6.88158028989496 -9.29635908442276
3205 9.362174643627768 2.807283898402617 9.140985573896563
3206 -1.3146409516543958 -2.4903767052978987 -5.345000791134234
3063 -1.3368857868742208 -1.226533619920357 -1.9426011968149592
3068 -0.29983347848317893 -8.330842106901747 -1.311200493580887
3209 1.3036963830505097 -2.212206378736391 6.32575933315654
3067 -11.425133164876417 -16.108473627432655 5.320017691090403
3210 8.620481228617534 -2.507478459477725 -3.015065947653981
3072 4.251722175619493 2.715790434212492 0.7385430728030391
3213 -11.669397032683278 -1.6949089465646754 3.03718275957778
3071 10.382867085047101 -2.7543956183401903 -5.613619776253866
3052 -6.148336182511098 1.1410885518600955 4.4344355792054095
3193 -0.08762417927654464 10.28998797732002 2.338983498442349
3214 1.7430541481769124 2.5377424687689074 1.8727790547471483
3075 6.52381567048515 -8.74357661936862 -8.081671931684161
3218 -2.5068637150506916 -6.238324403263442 6.819212137116869
3217 -1.1401866976281332 1.1299233055511284 -1.5436715453389405
3079 -1.2371154521586338 -5.490931297917998 -1.2085173179388062
3080 -2.6644241655141996 -8.734481336814088 -0.6267026753416476
3221 -2.4100879888931215 3.010000222025609 8.488545438136613
3222 -7.849470329593187 -1.1213851289805812 -2.574164497885603
3084 4.008097812753552 3.585771198679851 4.154117160847393
3225 -2.759586798611839 1.7737277327792655 -2.8346669285087303
3226 4.273012390105948 -1.7224078797570788 4.57763549200398
3088 -12.736753019517456 2.0393363778188855 4.1866793854108515
3229 10.100083652280986 -3.8788639562069727 5.242858722190232
3087 2.0810060498715246 3.2011483347444822 -6.6753258653893885
3092 -4.2080769409175485 -0.3332688302613524 -9.261570326350018
3233 -7.537437858847882 -6.636272311359652 10.048763180019527
3230 -0.5118774582326178 0.055498395950304334 -2.192135560415382
3091 9.128063418859591 6.67669486341624 -7.460317038279995
3234 -3.7836692156607405 0.1362724129766047 -1.3733392557843067
3237 -3.151125579068074 9.938847039820477 12.175311487374174
3076 -9.070505458237683 -1.612298880407173 6.283556568956268
3095 1.47504921944829 -2.7081934386134323 1.9993198705049422
3238 -4.984116859480341 -1.2523789743248124 1.7919655914290102
3099 1.0138121965022246 -3.662295147022969 2.5827527634741636
3103 1.7410058016706034 -3.7056294054405132 -3.363487533382121
3245 4.065265112161466 -7.014373747187405 -8.10355431621038
3107 -3.6646178284555546 4.491031017142911 -0.48911463611403644
3249 10.784442460827089 0.8385924267359484 -1.1450610846071805
3253 4.818366910839219 -0.1625590251664833 3.918128561284529
3111 -2.5977822836901505 5.572283087429602 -2.5626985370600717
3257 0.6213235951291689 4.338566770060488 10.702244705172545
3115 -3.272333638294306 7.872280133691109 8.655288309428405
3261 -4.909768362508198 -3.5185093629589397 6.542270576984481
3241 8.318688136326816 3.578741184484416 2.0476005480112915
3119 -3.534415506791533 1.0867611521321885 -2.940151804678152
3123 -2.3089296767643654 -9.12923053391449 10.49571413403117
3242 -10.356740675600173 -0.2149229677242112 3.831139224718016
3265 -1.0840699130209128 9.520524541000757 -8.912485720825197
3104 7.385144796838226 5.077222890716269 6.230781783959207
3246 -4.187259611715803 0.8820049543612613 -3.1579119166743337
3127 -2.6827301962206906 2.25398580678809 6.915749226025204
3269 -5.172561461732557 -1.5428529854830182 10.866088622204995
3250 -1.8741511540020832 -0.09594309967582895 -1.0419534237467043
3108 -7.946754942693146 8.033490296056065 -4.9062022919835835
3131 -6.198035234951336 -10.318157803133685 1.2959089405167552
3273 3.361856386275969 -3.3481092790623106 -4.657202691858517
3277 -5.128565459319089 -7.995695303934101 -7.2855206587460986
3135 -1.9029542074336263 0.2565750082506981 -5.7234401987577135
3254 -2.740573383425757 6.43575159843072 4.576830721404823
3116 -4.662087741517738 1.2204945615015552 3.5293771266027867
3281 -1.8020852541901047 0.1615019774123326 -5.020658630756449
3258 3.5192240135151365 -6.837811045932494 9.77993162570077
3120 1.8501306053817546 3.8024574028017524 -1.3869409407022155
3139 4.862216832011853 9.11746458080784 -1.9253665276430683
3285 -5.13987400326604 -1.9146753657495792 -6.080452364660995
3100 -8.726930327906505 -2.2695754701800483 -2.8172289278014464
3262 -3.4975054866931137 -1.1496881361693607 -4.549009323199862
3266 -10.393821546556293 -6.764555763134637 5.637305053522508
3147 -4.928233990621117 2.218410547722888 -0.2929625490365472
3128 0.2323948782943455 -6.631526190471197 8.190589219892226
3270 3.966896329903085 14.459260991975773 -1.75353349891315
3151 0.45085588929050935 -5.880829313204931 6.772997193998862
3293 -1.0719644013350733 -9.147477674318338 3.9434141362635806
3132 -2.571993211369643 4.871511059140902 1.506774479363517
3297 -1.3594451632800917 9.755451126174052 -1.26409277310261
3136 3.245071221475926 8.291582913891862 1.9553061172008757
3274 -7.272512239455809 -10.51229103465397 -3.8940350324782975
3301 -10.223812146680267 2.5126493186102006 8.610294609214947
3140 3.418993784245135 9.81713602529817 4.40164593704994
3278 -1.1503733419809539 5.3537810059314355 -8.484762345670658
3159 4.94872923438958 0.05837958097219508 -5.975932425653927
3305 1.9991615922391306 0.8430948153506641 5.012699427676072
3282 -0.7002424151015353 -3.336229089320211 -4.193428249029367
3144 -2.64832783682408 5.077634079853421 5.996150157741776
3163 -12.239268959631984 11.36450230176017 3.301581492602752
3309 1.7138205133730433 9.196959262390706 0.7576545656252106
3286 2.7434352750438835 3.081359854304807 0.3848482548863585
3289 -2.164037210777976 5.063005957590725 5.398962348249487
3290 2.6376770182847085 -8.143248895342204 0.7666870858652559
3294 -7.4197005349946314 10.854604439261117 3.5903656524598135
3156 -4.306046589800738 -1.4675258692505968 -4.080394986920657
3298 4.801179193609559 -3.820752563096956 5.860128882663477
3181 4.331007184006705 -7.200261631194954 -1.8703822657650258
3160 6.845672726107323 1.2676701651610247 2.223698321748787
3185 -5.802471630715887 -4.554724615318102 -3.9735552018648668
3302 8.253564899738633 -0.5052223287183827 -6.908327235492587
3043 -2.803625141589444 -6.013507722357425 0.6044493556883077
3306 -7.886268074756946 4.913172792578927 -0.6097214060620785
3168 -0.24700065462137125 3.5562089653712325 -2.5008958036342097
3148 -8.330168442451024 3.048164313313816 7.0364280026895365
3169 -2.746643198014513 -5.818720275284708 3.2769078287098363
3310 -5.614557604593816 -5.6555322259494165 5.564932334972214
3314 -9.692633391532722 -2.1595068650357043 -9.326347121136621
3176 -0.27263418380469984 -3.2587233575759265 8.191151576920882
3171 -7.909692821208434 -0.6850288573676216 3.836579222650458
3318 -0.8868339310603073 -4.509948541175273 8.83432334641855
3180 -2.8142226248047053 0.8986428476722055 -2.392010505259905
3321 3.024745575848783 -4.03127179394999 0.014473386234739647
3322 4.068039015711461 3.076444333334534 -2.498253063848652
3179 3.475806650846902 8.110002579717435 9.249788385043848
3184 -1.6953200424244061 -2.5748251886533664 -0.9645263500861357
3326 0.8992900776962012 7.677862873879161 -2.611110327509632
3188 6.403578168053684 1.024480810669395 -0.5170944869872224
3183 -1.8541822631239886 -4.81284172002318 -9.958962720673684
3330 10.744695841392268 -11.309160527310793 9.032946166222203
3192 -1.0213203466126504 12.222081511527684 -7.794884861810619
3172 1.9352473452555425 1.2196095499492288 1.7909258259199676
3334 0.7349223924970449 1.6926058845069605 -4.53360182516212
3195 -10.980881515213303 5.426654669162427 -11.250702059258993
3338 6.491221587149601 4.246355754646356 -6.827847507735714
3341 -9.777056944386072 -5.166515806672859 1.8034842853628787
3199 -4.932686654943243 -2.8113505541351405 0.9259682542240941
3200 6.424806775772658 8.300553270744299 1.359796879622651
3342 -1.4630130889079858 4.081910061683367 5.674794947845774
3204 4.500636395081194 8.937554566726025 2.806097251038762
3345 -1.315185524862371 5.371186411661431 4.092103004683049
3346 9.31199309437913 -4.629059746264926 -8.14598724874332
3203 9.022990764495654 -3.7808535102553105 -5.201244117421948
3208 4.428748129447863 8.704860096445001 0.611616751787748
3349 6.330886026192297 0.8751130980559149 -2.4437101929419267
3207 -0.48976926994408526 -0.8338061244442335 1.7636950345484088
3350 -3.1485163912394696 1.7703130060387646 -2.3618367937312468
3212 -7.975858902904619 -7.06527775968077 -1.5226968342908127
3353 8.010282041795081 -6.418923555759816 1.204601609751849
3211 -3.737314574037275 0.944398823543674 -1.2490845128959132
3354 1.091468600785641 8.418415329659092 0.6277771800507222
3216 8.349360607619655 -2.2603281056236506 -3.2887440590498294
3357 3.0043616956044477 -4.28464006869956 6.847242357610009
3337 1.75527240291349 -10.714912040208977 -3.2987210251859955
3196 1.6577956913103846 -0.8842021573700557 -6.065146739747529
3215 12.607155765021279 6.504099330966548 4.268561190357177
3358 -7.3084489768393395 1.4313559116566799 -4.722797607721105
3219 6.220320753448304 -3.2835702995576685 -14.25214003939767
3361 0.26819851080836016 3.3175843040326938 -3.741274105935009
3362 3.9613644611498207 0.9900352420891395 1.4942218061675179
3223 -4.280645197371912 6.5913395863292985 1.5797950200366024
3224 0.8111950932891668 -3.392911855369881 2.754123408610518
3365 -1.8181492297142285 -4.541531289186449 -2.858733082351895
3366 0.39772543830520113 4.4503965982605775 -1.3254801774431069
3227 6.629192292060228 3.0896991690279103 -11.852699098335815
3228 10.734366299178225 3.6868286994267896 -3.547437987935462
3369 6.12988270014497 -1.7864470901785081 1.5801111841043787
3370 -5.902189748465561 6.688658801924261 -1.135465889398394
3232 -2.5830443973606414 -0.9527490322955037 1.265521645928843
3373 -6.092071085237607 -10.087249254344679 -0.060266519872092424
3231 -10.631735371992251 5.87759861900829 1.8689151472267433
3236 7.840637786267146 4.358410924036971 4.843583588357171
3377 3.2217456454389453 -7.474433869059908 4.730420546648986
3374 -8.80009687024688 -5.98842831787767 3.9667201396259752
3235 7.249824777960753 -0.7295833429786642 0.9915618753505728
3378 -8.198948527300908 2.488257660663305 -7.611075552579573
3240 -10.997991585618625 9.586469028330235 -4.859784557898174
3381 2.3542708474512932 14.291632020142522 4.834822532480607
3220 5.12809624073653 10.376841113900573 -4.227876905543521
3239 -1.8848036599148221 0.9403963064260404 4.255357947625242
3382 3.7816713122359493 -7.758811484598157 -4.16145068096292
3243 -0.7428932027941076 5.03433663341821 -0.30318396918973567
3247 -5.8486012384439015 4.821095394902951 -10.532242075304124
3389 1.5802632601959907 1.4269471715061537 -0.9422452064337372
3251 4.626401667438864 1.8842564975732101 -8.227757087794075
3393 -4.584493890754719 -0.08982229650390919 -0.5311317867771463
3394 -1.7055553870916715 6.940717010757442 10.25854855999987
3397 -6.9594455021728425 -8.371384915047292 6.218029896586723
3255 -6.516641010155134 -0.5844665485489217 -2.9172966146979578
3401 4.109836521729824 9.465758358074371 -3.4824379732100277
3259 12.023785907781049 5.683689755660035 -7.440025419698946
3405 -2.5451668628014446 -3.218270513180343 19.22250095351669
3385 0.10721417608298528 5.574907641080279 0.5203902575178374
3263 0.8772922302018342 -5.952530056902727 1.458497887749695
3386 0.769450143918954 -13.209341758187165 -3.9606460285353595
3267 -1.20693390135619 -5.612084156056479 -2.0324328179569737
3248 -6.1014839156429055 4.317176507468559 -3.9272966822502187
3390 13.012832367563126 -2.6834537587457787 -0.6074778449953928
3271 0.7842248975275271 -14.616572033784925 -3.9840703755375837
3413 -2.456275676292564 -8.75512874403207 -2.812570335764923
3252 -1.8571900161814257 -0.8018508832635602 -4.483637692912146
3275 -1.4897961785470015 2.2471995093323285 -4.188195232417768
3417 -7.781881141528702 -7.729758921424271 -1.2146203554581796
3256 -0.4976146060688655 -2.689792365010443 1.2413426948378563
3421 -0.9166518030013873 2.5068351595537837 -0.11273033017011345
3279 2.693828148025866 -5.936717252047792 6.872524379442392
3398 -3.6158193342321394 6.447003768254025 -1.6507985507481773
3260 -4.159890800375385 -10.279852408054788 -4.499380264695214
3425 2.8431250951410805 4.326632926265449 6.329994143692228
3402 -4.592519805276422 -3.997692724624458 5.927014231193368
3264 -5.000661740777754 3.713111124806754 -4.3724715552130435
3283 2.82795092667497 3.541334513585887 -8.169601886515167
3429 7.392027189234298 0.0905810076442021 -0.6782823175291802
3244 1.6743115357634721 -3.555769454756025 6.198730390615496
3409 -4.149526387408627 -4.555870440659249 -1.7280445979087127
3406 -1.3640946976012889 2.194435494638899 -1.563597657396402
3287 -6.858750537360997 -0.5281362755278369 -11.452319354651113
3410 -2.3867388895615655 -3.578622123709333 -0.9117818369039775
3291 0.830288464199277 6.418327167243462 4.197518384379719
3433 3.2025050421004577 2.440601149493739 1.2466731172575651
3268 -6.274389502495963 -4.416113946360181 -5.527122111991737
3272 6.211092849484838 2.2210228589606356 -2.205752649062679
3414 0.7390726877452222 6.053470312839143 -0.4167837871074339
3295 -3.0486503239574954 2.056767250403507 -3.90948137023224
3437 -4.447391605282668 -6.264392385211552 3.5180798133889453
3276 -2.785772679449791 -3.101020444902253 0.9523913275934642
3418 -3.448304434110903 0.35364037905061185 -6.645087776528859
3299 15.344981427816549 -5.801787875434503 -1.2630033812447354
3441 3.043962511516966 -4.821774417211816 10.290338576109685
3280 3.5878310678791276 0.6821360053617933 -4.633850101430325
3445 14.896158464395269 4.35063306374915 -6.585295246074722
3422 5.421411409816409 -1.506974703565581 13.639373054402949
3284 -1.9761642532213066 9.542445810673003 -5.202180104217224
3303 -5.71341407466655 -3.7384681363054346 -14.2906325665697
3449 -4.702444548826781 9.69928849759948 -2.183772874883701
3426 -4.167132017984387 13.972294394867687 -10.848240747720917
3288 1.0844483787828358 2.4691287005873157 5.125737838071907
3307 6.633639334074854 9.113661435091856 0.08743626526980519
3453 -5.376902664809766 5.074833325753372 4.205948723393747
3430 -7.322579561453837 4.325709020715222 -3.5450124048705787
3311 -7.609789059658072 5.521104127071116 4.55504080324132
3313 -3.8450220306368803 -2.935412407683946 3.554233315041561
3434 3.6454545079355674 -4.26074207202863 -1.3818390881859848
3175 -3.1219551915187074 -10.153301297547255 -3.68367780888114
3317 5.8967805097289 -9.767973061709599 2.9103914151851296
3296 -1.4618982439547668 1.0164920184806272 2.7651306162974367
3438 0.9189155519952272 -7.088575855502747 -10.648986959627015
3300 3.9090981961624616 -0.553603474345055 2.9354851871059626
3442 -0.17093522464533906 -7.98745274204567 -4.174314062006483
3325 -2.6744395443341795 -3.408828395366841 -0.7385357619968628
3304 2.762584944843773 -2.996885062398771 9.10510221159689
3446 4.822837403303345 -4.783855527025738 0.4288337366327018
3329 8.74822259201934 12.236823913713048 -3.8040821726636604
3308 -4.912561168807175 5.695223146676342 -3.4871024694839257
3187 -4.264844791192132 5.683706714597684 3.829615979292164
3333 0.13812626004775644 -0.8638560847812177 -1.5571234754645986
3450 -5.068378618253518 -4.042058472297935 -3.4204921152821073
3312 7.115285751862319 -3.212263198842701 -0.12754324829910932
3191 3.528583711317334 -2.523532088011978 -1.95354465033159
3292 -2.6828758717529793 -0.012075245108315114 -2.4873091664987137
3454 -2.649008972771531 11.082458547519662 7.755559138890512
3319 3.2788239543042623 5.937469148586233 -6.8572119140272525
3320 -0.023517888134379668 -6.097016994083746 1.4820782217656632
25 -4.994756817802026 -5.113039435686193 -1.2785810138306999
3324 8.566736050401259 -14.069211168414142 -5.384081940617867
2626 -2.7287605095947773 3.9629695159743177 -5.087331823324247
3328 -3.3500871125747107 4.190339396850824 -7.543804340766402
3327 2.0261913748756615 0.9127904785930782 -9.308252475879202
3332 0.8138952144381019 4.910559405852466 -5.398315593686445
3336 4.290926105515951 -4.71818815960944 -5.776367719898945
3451 0.3884857176121527 3.443746095004668 -1.9804637993851641
3316 -7.515255316085709 0.4965615027798769 2.183772468074512
3339 -0.7617986407508537 -4.184939952206129 -0.5655889392209642
3343 -6.147143611449326 -0.9614629870004789 -0.8144279515248318
3344 7.059697196626139 -9.356403385820885 -14.142560866246237
3400 11.125384559083601 -2.474717964578206 -2.3856022163005233
3432 -4.466413020150053 8.734335683560243 5.497519863744362
3348 5.205207967607409 -6.993710506709757 -1.582943544854145
3347 -0.9840030319255003 7.743778874912779 3.0809142772088536
3352 -6.988856135956793 -2.1726845806839457 5.36152003311006
3351 -1.9978194956970667 1.6219095767065674 16.554843265722276
3356 2.7832299776498455 3.4380865628895427 1.7353071269154732
3423 -3.2674973632787845 -5.130720845028908 0.7485737872916505
3447 1.594581225653475 -2.3315961805670824 -3.416687051354862
3355 -2.4884544626491936 4.505186412797335 7.448895648305189
3360 -2.538721208261075 8.029962372132712 -4.952969713839392
3428 -11.531507826708054 -0.6241242627502139 -7.200816120079229
3340 1.990342086154785 -5.7979073036041475 -9.083765110785198
3359 -4.843165990624072 5.58754492898196 0.8968654045956695
3363 -3.023872429112513 7.386799033105927 -2.2576415461185015
3367 -2.053813239052494 -9.220913011963146 -0.7062187805316346
3368 -1.1060097708612835 -0.47128224708270505 7.5206617863427665
2686 5.521734568699054 7.975411604816857 -8.683940866399126
3424 2.4623913011622753 3.9511594773530994 2.0707973106688464
3371 0.5693768663894664 -0.05294593752097046 1.8490592221552344
2597 -1.4379507156055842 -2.4991582062401427 -11.233000838062045
3443 -8.257960258545895 -0.10992799858040114 2.7474159704450063
3376 -1.6086187338062752 -1.7380977019883923 -1.8852858335592602
3408 -10.47204247974073 2.9834580969875684 -3.8304292906893544
3375 11.163397911122575 -5.670329856592316 1.8005541262650453
3380 -1.8959937450786488 8.139721760929342 2.685259144654292
3384 1.24573243808173 0.02390022779491276 -4.469992725600443
3379 -3.373709266698793 6.6536967359596275 3.522049582046018
3420 -3.4863307223578888 -6.754125587606731 -4.405589893612941
3427 -5.408877497913728 -6.787070255266652 2.242716379597317
3364 4.522755322070905 -3.976974821912485 11.866193623695205
3383 -4.145048379858598 6.798872255066031 1.8566015476265847
3387 4.487104615301916 -0.4948464843982024 0.3820865780935918
3391 -3.793173317258176 -8.563601910717392 5.685377974729507
3372 -8.55052737367503 -6.089819614566326 9.485968830504419
3395 -6.271230500358129 -3.5411817815274746 7.652412061319828
2670 5.050368589562573 1.8462618476553525 -2.7009776234043397
3416 -7.52047413883971 7.971168485219691 -2.860185014887829
3399 1.3951585234884494 -7.610208587692626 -0.8225223056130254
3412 6.918936472090807 3.9646217937499535 8.367524918923152
3403 -1.3200014265334226 -8.453873874658735 2.828053551966708
3396 -0.40858357621828334 -3.7406228128335384 -1.0925113063932241
3407 6.440682691234489 -7.1056866618115135 -0.5332708107744331
3388 2.5650112008746384 -3.0741168238198027 1.5957179252143967
3411 -0.9162146937038707 -8.412943240852314 1.0446278540872314
3404 -6.249477906389585 0.9435668146591613 -5.517211914626821
3392 2.2860375147730494 0.5058159160977653 -8.382940182548401
3415 -11.457561168827727 4.668210754949542 -4.020983173515763
3431 -5.221555809492923 -0.33572031697434496 -1.9077366245077108
3439 -8.157530480043178 1.5045014294173271 4.243679397796944
3435 3.5189720501322115 1.2021153461252514 1.6826121394019464
3419 -4.580567185980232 -0.38029735772054046 4.743748227145302
2673 -5.854151494959591 -4.3530981162442295 -7.688803042299898
74 -1.5083759465619657 -0.6638727382959116 -0.268660290002448
125 2.010757999200685 -2.9095106177561005 3.7557613243544283
21 0.4115352909806663 4.545453486055184 13.747729855060333
77 4.17621283654115 4.6625044929182895 -1.864067271838917
65 -4.871594106287431 1.6524096854868786 4.0179403499806154
61 5.010500158618835 3.0339407919907777 6.264040688522948
102 -8.682360236547485 2.9486158622130803 -3.9704400456697524
78 4.759078003333346 -0.2183570621846671 4.508322957660283
130 4.827558531186003 -2.516419367693183 0.1698132822956778
126 -0.5011107983947105 0.7274220821819509 2.9300385932984576
137 -2.3378235366318627 -4.423617920624849 4.995357935039506
121 2.0409747490438224 -8.224167737088774 4.830259386864301
17 -1.0646731287502758 4.4162935647392025 0.453220060108131
138 3.3246522476210743 0.024572781011565726 -1.1700473630641073
66 -1.7670676991957472 2.607394484969228 -2.267259073128776
9 -2.3750748540811997 -2.412471650020995 -1.5049796407139333
73 -7.087370627515452 3.0534954698824217 1.9713261852977348
118 3.083691599928745 -1.7477041988082087 7.4703300517043365
133 2.375025469866508 4.2589961535478835 1.250903239214749
129 -1.6755969421964887 -4.820289910524464 4.469711759077
49 1.0985419315944218 2.566161729959868 -4.713122189945405
97 -3.3265978091550124 6.3409519944427934 -7.443472444899894
141 1.6280843227282202 -8.58987493314925 -6.622192948299452
82 2.7868268965610956 -3.6250497632856358 -5.089461091437686
45 -5.081451094753853 -9.830456188384392 -1.0667729109694148
134 10.086428210843684 1.9249530302852063 -6.046445878035253
29 -2.571494923759004 -6.438310229328715 -4.7399057442012795
2 -1.4555400211827558 -1.1344076212190761 -6.655285674547581
1 -0.049201608395902895 -2.138734239406525 -9.64243637225076
101 4.862932563166328 1.5443139947576774 -3.9506405075563302
114 -8.735857419277401 -3.3470571403679457 -4.437013289164053
14 3.163328153028577 2.5201704140449275 0.7840217326473039
46 10.513140799880976 5.557927979676658 -9.306302764872719
98 4.10311664445053 7.13483226626606 -2.4865967697251454
2593 3.6191072426276927 -0.6866721126053501 6.492005957498633
2697 3.2579094646998703 -0.3756384187533835 6.384434302826315
2730 -3.0237143526524966 -2.1047517938425626 9.541352115431465
2642 3.4256837923696177 9.229301967402748 0.8423755838498884
