LAMMPS data file via write_data, version 10 Sep 2025, timestep = 5000, units = metal

3456 atoms
1 atom types

-0.2147193588280718 24.51471935882806 xlo xhi
-0.17258419601661323 24.472584196016662 ylo yhi
-0.7105260846822574 97.91052608468212 zlo zhi

Masses

1 26.9815

Atoms # atomic

2 1 1.8162033249103264 2.195874807664798 -0.70245801611334 0 0 0
8 1 3.490338502823869 1.6164322875421413 1.262711966321072 0 0 0
12 1 7.852360516013325 1.8469972825265661 1.2076312430682805 0 0 0
11 1 10.00939499299379 -0.06325295025008267 0.8190950104064991 0 0 0
16 1 12.133529503731365 1.9246447021119195 0.8981378420221746 0 0 0
20 1 16.450053784596363 1.74771222599701 1.4598317666352116 0 0 0
24 1 20.411454256186886 1.558093398582438 1.4942182248509188 0 0 0
19 1 18.275078092643696 0.0464175204898325 1.5156386212926076 0 0 0
21 1 20.46724362703074 -0.1341048418996138 -0.5465610115421384 0 0 0
4 1 24.27646503963787 1.8820818765912048 1.3524513360089117 -1 0 0
22 1 22.201500863327468 1.9622815789589758 -0.5080745453280713 0 0 0
27 1 1.6236355437610568 3.665771610785606 1.265243602286064 0 0 0
31 1 5.992545712251283 4.079550753323952 1.546330273919577 0 0 0
32 1 3.7603337141182664 6.025478335881106 1.2467022109527888 0 0 0
30 1 6.217758344776174 5.782595709210636 -0.5122905834660737 0 0 0
29 1 4.0729485103915115 3.7646892917194266 -0.41362565910137733 0 0 0
36 1 8.112469471340498 6.274995860429871 1.6942861699436613 0 0 0
35 1 10.087058707559303 4.218487465594155 1.175893609021973 0 0 0
33 1 8.103868611269387 3.746055286275397 -0.6105380019386197 0 0 0
40 1 12.399681657048953 5.9463400118802205 1.1708586708782764 0 0 0
34 1 10.503711773954475 6.010663577086991 -0.6882999866920468 0 0 0
39 1 14.250014861230119 3.807968226537971 1.3777731236885926 0 0 0
44 1 16.290432176847425 6.024100983911771 1.0285604546071438 0 0 0
41 1 16.163519221927103 3.8276091283213054 -0.6779422926253617 0 0 0
43 1 18.617252624698693 3.6548538572590963 0.9358586954785448 0 0 0
48 1 20.256586310336388 5.833264325740293 1.0489420421760605 0 0 0
28 1 24.49514431775853 5.985542928061624 0.928024998879684 -1 0 0
25 1 24.26251654968778 4.072970666950635 -0.6853503163314846 -1 0 0
47 1 22.3036475429818 4.221700359434649 1.4726729385500374 0 0 0
51 1 1.7805889653172673 8.045165570279018 1.65051483787115 0 0 0
50 1 2.021756448171293 9.809130313041301 -0.5157938591912781 0 0 0
54 1 6.104448849681613 9.789870858011303 -0.10842524117303054 0 0 0
55 1 5.873992821109938 7.759909620659145 1.6783217856696946 0 0 0
56 1 3.690837205505566 9.756752489109385 1.6364978912777337 0 0 0
60 1 8.177870854589882 10.281958266904883 1.5605605265859155 0 0 0
59 1 10.312902275026257 8.164590978857428 1.4972607309086463 0 0 0
58 1 9.924324957241586 9.916155510796163 -0.4193288654544946 0 0 0
57 1 8.325763000056465 8.065643566156771 -0.4349952848292541 0 0 0
64 1 11.929561109793683 10.145075949352737 1.3081800842784799 0 0 0
63 1 14.469095566680792 8.249625189737054 1.1595436421305467 0 0 0
68 1 16.431388512402094 10.185059720162807 1.3127179508667544 0 0 0
67 1 18.448209413663115 7.936786242665276 1.2610921750260762 0 0 0
72 1 20.444593992135673 9.975408468610594 1.3447306923187825 0 0 0
52 1 24.50017676888131 9.81224411848147 1.201124313613505 -1 0 0
71 1 22.461826868775923 8.074921368970893 1.2041664874702132 0 0 0
75 1 2.132097777956438 12.45792556282314 1.5014016060031512 0 0 0
76 1 -0.0379063376302641 13.88419566655384 1.3254653998846355 0 0 0
77 1 4.018270980784017 11.845332428812041 -0.3688390760651787 0 0 0
79 1 5.971294568119307 12.11095868424143 1.324612358478197 0 0 0
83 1 10.053063998783935 12.151622293748968 1.4642888393763664 0 0 0
81 1 8.06850025623601 12.47274274577828 -0.6268490759367609 0 0 0
85 1 12.053356799956788 12.052588195682988 -0.6512032904272331 0 0 0
87 1 14.229064273666443 12.055861924510353 1.2907406741645788 0 0 0
89 1 16.48577825456163 12.126830874831159 -0.5026443892239314 0 0 0
91 1 18.343198219285163 12.169639557231735 1.2944586782015541 0 0 0
93 1 20.08363021197168 12.020138728818523 -0.6301370812082367 0 0 0
96 1 20.527034435246584 13.812877382730482 1.4484928393442504 0 0 0
95 1 22.47387630008984 11.961034847086475 1.3261704857359664 0 0 0
99 1 1.6834123578478617 16.271999193862875 1.3949013197615523 0 0 0
80 1 4.0329183666062125 14.372743945040234 1.2311453416775715 0 0 0
103 1 6.1282718358121615 15.9476336344328 1.4588361898991624 0 0 0
78 1 5.7141713247788575 14.107525121101574 -0.6998990289322238 0 0 0
82 1 10.27584203786158 14.185530482308703 -0.40332812124973016 0 0 0
84 1 8.061493297903919 14.223994979332629 1.3028263944898497 0 0 0
107 1 9.990574112395013 16.235925986779534 1.5216213505506069 0 0 0
88 1 12.573491676213324 14.357535994092016 1.1204817388340984 0 0 0
92 1 16.22631220433621 14.171606433294892 1.3255959794219674 0 0 0
111 1 14.598239047480396 16.31796411821744 1.5049209413501323 0 0 0
113 1 15.82284785514373 16.197499328788986 -0.6908926945624927 0 0 0
90 1 18.353056289590285 14.347912905704904 -0.5870366975588256 0 0 0
115 1 18.218540805643443 16.29990447128842 1.2270826962651908 0 0 0
119 1 22.506388213160378 16.170061031905384 1.213242041573288 0 0 0
94 1 22.488171797765197 14.266857858442338 -0.6534859033295248 0 0 0
123 1 1.617026229864702 20.321193689837358 1.5318057852797633 0 0 0
104 1 3.7610210678516722 18.288332334343373 1.4092923507997193 0 0 0
127 1 5.807162453101331 20.385874105420122 1.2705502483640125 0 0 0
102 1 5.5106075199452516 18.262747304929746 -0.7041900490999211 0 0 0
125 1 3.4239101181768157 20.295882380508516 -0.6335660199340225 0 0 0
108 1 7.896383640965073 18.26373831899201 1.185860958869815 0 0 0
131 1 10.096412337260304 20.092111893602663 1.4072592068304641 0 0 0
129 1 8.11388130643678 20.488626891939646 -0.6714910784526467 0 0 0
112 1 11.948661013698825 17.949843202445884 1.2798764529724487 0 0 0
133 1 11.72579264864476 20.10398878347268 -0.47388718453193235 0 0 0
135 1 14.158769365761211 20.072913710780334 1.2301102695923674 0 0 0
116 1 16.26675276543125 18.448238486602456 1.222248296736779 0 0 0
120 1 20.166860258045368 18.429463026802615 1.4578468772532407 0 0 0
139 1 18.42194308829221 20.295990682373947 1.489479200116779 0 0 0
141 1 20.527710682232865 20.345844837220795 -0.5650112193228876 0 0 0
100 1 24.428514508201282 18.44138450222109 1.4892074444151766 -1 0 0
143 1 22.260299522756405 19.901479866453933 1.4379054101197606 0 0 0
121 1 24.441978515473057 20.39267762705905 -0.563294939606692 -1 0 0
3 1 1.687167540986394 24.23909214306915 1.1585365586150131 0 -1 0
7 1 5.7942485873989025 24.31799121964449 0.9517671697984575 0 -1 0
128 1 3.9204520488756875 22.430989033972182 1.1499591297414635 0 0 0
132 1 7.99819449383226 22.293169732194144 1.0299825678033594 0 0 0
136 1 12.069697299296847 22.191011538674445 1.3213750892047744 0 0 0
15 1 13.77568425590011 24.403448522890415 1.116994851025806 0 -1 0
134 1 14.188642201249502 22.449999965351395 -0.5781190999881456 0 0 0
140 1 16.534652630641226 22.30492719563577 1.6109514844047328 0 0 0
144 1 20.29850875548066 22.284032315325817 1.4867218666266822 0 0 0
138 1 18.475536312409574 22.44323786740678 -0.4888469412080383 0 0 0
23 1 22.39718371958711 24.421319512347154 1.3718731474305415 0 -1 0
124 1 24.43651331085124 22.114745699313048 1.4814688735691561 -1 0 0
142 1 22.733922472192653 22.841532718622716 -0.5996978363309182 0 0 0
146 1 1.8310058824520374 1.9145733986830047 3.4268944071715826 0 0 0
147 1 1.562230934190301 0.15182496946391533 5.295318515695475 0 0 0
150 1 6.151419234416829 1.9852229692806325 3.0408865341605513 0 0 0
151 1 5.822088214605995 0.05310894842470168 5.280370632578111 0 0 0
152 1 4.087880363822158 2.1806824254134662 5.15612854237332 0 0 0
156 1 7.772305237203423 1.7156677208538287 5.330854698632337 0 0 0
154 1 10.215680146577743 2.2083212380293236 2.9638348248781554 0 0 0
160 1 12.219748314032374 2.1962959791847116 5.380455273950331 0 0 0
157 1 12.211163965503092 0.11908244106342064 3.210556860970007 0 0 0
158 1 14.337357014261226 1.988598758651038 3.436374983833784 0 0 0
164 1 16.61223744840234 1.927342741570473 5.720556747590313 0 0 0
159 1 14.023052135612707 -0.0225522335714744 5.12390148515418 0 0 0
162 1 18.063133440555113 1.993972197083997 3.511622074187634 0 0 0
168 1 20.40324705484221 2.0985902596766075 5.380890226198705 0 0 0
165 1 20.370439029272724 -0.0849105408359776 3.51173956445456 0 0 0
163 1 18.525953011262864 -0.1516799446551186 5.5850588420164735 0 0 0
148 1 24.371755362746235 1.850626269710547 5.596379893619851 -1 0 0
166 1 22.590922629430338 1.6530712299251815 3.2174117210418647 0 0 0
167 1 22.28431861609161 -0.08640344186829907 5.464628665991476 0 0 0
170 1 1.8531580024055252 5.885620712543382 3.352381507389409 0 0 0
171 1 1.8222943080416725 3.7914215258249415 5.326071063134423 0 0 0
169 1 -0.08557430713347003 3.7616352076802837 3.528276089489534 0 0 0
173 1 3.6654692789046943 4.133429640722105 3.169441084291346 0 0 0
174 1 5.78457568157029 6.010657097689993 3.85868687279537 0 0 0
175 1 6.044050489241153 3.8509642181101826 5.425771424853608 0 0 0
176 1 3.855512898337153 5.822155134378129 5.787985567605422 0 0 0
177 1 8.295667223445795 4.244574709238251 3.6573287550471685 0 0 0
179 1 10.193432078980912 3.7904309878659865 5.391428831392256 0 0 0
180 1 8.045160828642725 6.281382506157103 5.57432664965479 0 0 0
178 1 10.377163245113913 6.0168645870229485 3.420305766262098 0 0 0
181 1 12.552123426015621 4.046271057010778 3.471124785192954 0 0 0
184 1 12.289649505338982 6.255338574526652 5.486999639474758 0 0 0
183 1 14.29134681435881 4.442396511164272 5.444959766251123 0 0 0
182 1 14.439811362596533 6.344638339861001 3.105426137494067 0 0 0
185 1 16.393053602311603 4.097014189590307 3.37377360335306 0 0 0
188 1 16.266712929728037 6.258835416298312 4.992692048538868 0 0 0
186 1 18.286149013692643 5.927886383839176 3.2408645892308794 0 0 0
187 1 18.300161294050028 4.05847410402991 5.474228124689414 0 0 0
189 1 20.48403627186299 4.0896516284803 3.1963182752921564 0 0 0
192 1 20.465029002165437 6.246616249558447 5.459078431633684 0 0 0
172 1 24.311766753531963 6.012093436039508 5.341515497387134 -1 0 0
190 1 22.532014083630656 6.151394825210995 3.4326598236385655 0 0 0
191 1 22.60590938515095 3.784622266362752 5.3292029310758995 0 0 0
194 1 2.040452192531796 10.329396950199197 3.7663077997726955 0 0 0
195 1 2.0066139234165585 7.928874567292208 5.325197008547365 0 0 0
193 1 -0.06377386758157372 7.962013518678203 3.43938492222816 0 0 0
196 1 0.011818139653580473 10.030842948925615 5.6458156468085745 0 0 0
197 1 3.934600252248152 8.061835803207963 3.7400646357284852 0 0 0
198 1 6.158478673583432 10.202103791545541 3.396983985987486 0 0 0
199 1 5.741084801827044 8.250999178793672 5.7440189144228695 0 0 0
201 1 7.963967661093047 8.159928282260774 3.622990423424249 0 0 0
202 1 10.256833005328915 9.79292541985608 3.680678471318032 0 0 0
203 1 10.094450744676072 8.066581830063653 5.6643164955287455 0 0 0
204 1 8.06027963602466 10.019142128686912 5.6316763961990155 0 0 0
205 1 12.49388835879254 8.311723452327891 3.3558000353793487 0 0 0
206 1 14.22680672840233 10.379204731928809 3.3339652376846267 0 0 0
207 1 14.318085051896672 8.205621719587588 5.218634252461288 0 0 0
209 1 16.52049313958039 8.235074771721532 3.212623931070472 0 0 0
212 1 16.383892951505075 10.376957308151656 5.114012695749271 0 0 0
210 1 18.505868793392857 10.325324862536833 3.366323427744323 0 0 0
211 1 18.433027531736066 8.247326063594727 5.313341912571826 0 0 0
213 1 20.430161084556694 7.9681531456171 3.233610568062392 0 0 0
216 1 20.429561501356197 10.330647677008775 5.668167117588551 0 0 0
214 1 22.747661964488174 9.841600992437481 3.606175717229079 0 0 0
215 1 22.474700727795636 8.21306872453414 5.682240656469601 0 0 0
219 1 2.062705164291653 12.59250559015543 5.732939298003745 0 0 0
217 1 -0.09678859359252959 12.097484753919833 3.3722311406520884 0 0 0
200 1 3.9694453818040483 10.39645476777838 5.7056133430215485 0 0 0
221 1 4.029033965308579 12.141345027753646 3.2399204808718154 0 0 0
223 1 6.177985039355174 12.645672305232429 5.764414306901554 0 0 0
225 1 8.108786533850408 12.178462717697096 3.2937971455027135 0 0 0
227 1 9.969687322815156 12.278614318345173 5.373685897396444 0 0 0
208 1 12.080461980137597 10.475077323257533 5.551267780130816 0 0 0
229 1 12.09006008399507 12.26728324555596 3.4693449014702162 0 0 0
231 1 14.393360931809454 12.322739920008546 5.363272182724382 0 0 0
233 1 16.376097330688346 12.353092081327578 3.289605023604092 0 0 0
235 1 18.428995724118842 12.100703062047597 5.561395384109224 0 0 0
237 1 20.598221694318305 12.046089104587159 3.3108124886334487 0 0 0
239 1 22.600285053245877 12.25232667206301 5.490251127943326 0 0 0
218 1 2.2102278937048165 14.260228904561876 3.4744760202494263 0 0 0
243 1 1.9304650395367222 16.074356170049235 5.467341068962546 0 0 0
222 1 6.05722484267492 14.378360251700448 3.4618546227267517 0 0 0
224 1 4.28952794148365 14.209861341409963 5.560263784269324 0 0 0
245 1 3.996846119486669 16.143945253985912 3.656913493838654 0 0 0
247 1 6.059004449054668 16.261300281514558 5.332116394477305 0 0 0
226 1 9.94387380312059 14.293415164679896 3.5040548305916817 0 0 0
228 1 8.152073151201089 14.435226856540089 5.62275514790989 0 0 0
249 1 8.06249562565724 16.21897943870875 3.4465846554024013 0 0 0
251 1 10.16445865104445 16.593922154378134 5.460657339018918 0 0 0
232 1 12.023970485473603 14.40975759935381 5.4336244945406 0 0 0
253 1 12.14512104227964 16.278989333113785 3.3156962392243408 0 0 0
236 1 16.42694323543759 14.47789913776617 5.503107273227486 0 0 0
230 1 14.136544278928005 14.60781667980515 3.5895452124335048 0 0 0
255 1 13.986413573157481 16.330185148833237 5.521309940208179 0 0 0
257 1 16.569589931161836 16.587222380041418 3.638469144889397 0 0 0
234 1 18.17212391101257 14.253391408674762 3.2512806275652264 0 0 0
240 1 20.281175584272184 13.967399169250655 5.1565213607616025 0 0 0
259 1 18.33987636052985 16.2325460714938 5.647512233231422 0 0 0
261 1 20.442475030345733 15.949307487879375 3.5016143115661764 0 0 0
238 1 22.43370728573749 13.968833786388641 3.4536313585473835 0 0 0
220 1 24.500320106456215 14.203333218455413 5.284094452253085 -1 0 0
241 1 24.51435101925417 16.102640459008917 3.237113520353721 -1 0 0
263 1 22.49456414659855 16.54041207848247 5.308846761235788 0 0 0
242 1 1.8716963980477739 17.80816117686158 3.282420232048116 0 0 0
267 1 1.9879688738275076 20.046380180049297 5.243955225272841 0 0 0
244 1 -0.14584100514316345 18.227319952839203 5.355724398494556 0 0 0
246 1 5.723326379366871 18.000353156072457 3.211899431016297 0 0 0
248 1 4.127426858100556 18.49708024582388 5.7127747222623 0 0 0
269 1 3.9955894698214696 20.24470140997657 3.292080790930852 0 0 0
271 1 6.031357616926299 20.395597900638613 5.610543452373869 0 0 0
252 1 8.034399839211094 18.18523236504121 5.480610597474817 0 0 0
273 1 8.102513759743383 20.35762436178011 3.4651669143292505 0 0 0
275 1 9.710846899960641 20.59597872217892 5.5391212577628295 0 0 0
250 1 10.265203225063978 18.265332067449187 3.3282392444222353 0 0 0
256 1 12.197033491011435 18.38328734802959 5.679487007961549 0 0 0
277 1 11.900946190632817 20.37689955316283 3.5005065874640193 0 0 0
254 1 14.517470123918473 18.448744703213798 3.4493096901636893 0 0 0
260 1 16.352819188493818 18.585699530960866 5.605461741969519 0 0 0
279 1 13.928515717940309 20.41237116920349 5.214137698331833 0 0 0
281 1 16.251447260142086 20.353256392164838 3.619386248017091 0 0 0
258 1 18.37708530146326 18.37558866056596 3.370620054017661 0 0 0
264 1 20.448349747403185 18.11522731238921 5.579492513536911 0 0 0
283 1 18.132423212330735 20.526333320708524 5.329445164381161 0 0 0
285 1 20.568598440285292 20.315684077619444 4.091383654163212 0 0 0
265 1 24.444162729310875 20.294317173706794 3.540893836025627 -1 0 0
262 1 22.261570015385665 18.103726222430893 3.4027604719950073 0 0 0
287 1 22.705779085298616 20.772263178682934 5.417031666128408 0 0 0
266 1 1.9684346015816065 22.23181659263799 3.360460160866751 0 0 0
149 1 4.197275220222465 24.357848283016317 3.0931462624621284 0 -1 0
270 1 5.913784324486433 22.32564681037698 3.2039566081646615 0 0 0
272 1 3.9369115101461682 22.26667692654358 5.24221268165505 0 0 0
153 1 8.005341445312663 24.31426354572515 3.03153909480927 0 -1 0
274 1 10.10679701455562 22.77083476599178 2.9596203599724755 0 0 0
276 1 7.826549140218736 22.68302005122588 5.318431946598499 0 0 0
155 1 10.10087556031669 24.38794212224005 5.280056268981489 0 -1 0
280 1 11.930462700472559 22.510392362579985 5.508833296261837 0 0 0
161 1 16.188938471758355 24.465249402534027 3.351200142127137 0 -1 0
278 1 14.049844257288255 22.198276353895785 3.3738725215788 0 0 0
284 1 16.01166188877221 22.41151776336323 5.53792681313336 0 0 0
282 1 18.40772585974687 22.649287137354328 3.5914849229508556 0 0 0
288 1 20.17399844243117 22.698760658702106 5.6865393310354175 0 0 0
268 1 24.46107199144506 22.674576525497812 5.239958097087247 -1 0 0
145 1 24.475279146580725 24.36883824036063 3.114979337632404 -1 -1 0
286 1 22.308266939168057 22.066691411906206 3.2008283752576783 0 0 0
290 1 1.9350824120566514 1.918968562552997 7.458146818781831 0 0 0
291 1 1.6710079772264177 0.03424216861785673 9.746855491291349 0 0 0
294 1 5.519970557871639 1.9411588646150073 7.24747838946618 0 0 0
296 1 3.998639404894327 2.0619236329071398 9.812520418419595 0 0 0
295 1 5.796425283377378 0.01999515560392287 9.315215494488678 0 0 0
298 1 9.990822165032453 1.8298999299923033 7.374127585298396 0 0 0
300 1 7.8351565073073886 2.0729001590308798 9.64705234370833 0 0 0
299 1 10.189312366579431 0.09252362022603156 9.459371229748477 0 0 0
297 1 7.960589290933816 -0.1418204623764484 7.515263660608758 0 0 0
301 1 12.159218174516505 0.14322041401709512 7.127215011624942 0 0 0
302 1 14.284474247751177 2.3102736499566756 7.405798053786832 0 0 0
308 1 16.07276886754383 2.0233845578610477 9.494767523988072 0 0 0
303 1 14.188052131200905 0.20775473539579725 9.491455851094273 0 0 0
305 1 16.254332611748993 -0.0991909424867572 7.5900522878721475 0 0 0
306 1 18.400176148728583 2.258051139028076 7.578639946600276 0 0 0
312 1 20.444580357260108 2.051229918354234 9.42028364085017 0 0 0
307 1 18.028728072804824 -0.08458689887113106 9.355673489954807 0 0 0
309 1 20.33417365336544 0.028449323680993316 7.36188564591939 0 0 0
292 1 24.411206297913893 1.8857068586119055 9.78446772389027 -1 0 0
310 1 22.45776763880489 1.875421872952518 7.5977780322625765 0 0 0
289 1 24.371919516916996 -0.1705822580983778 7.654265816289193 -1 0 0
314 1 1.8820330133671326 6.026385041943175 7.427912303343323 0 0 0
315 1 1.6116045783492547 3.681198585628486 9.727591313137232 0 0 0
316 1 -0.033047172609776965 6.001842019912012 9.630057790664795 0 0 0
317 1 3.491304935233747 3.983035993437694 7.726521103163046 0 0 0
318 1 5.903263139594533 6.089579303485976 7.697975853052958 0 0 0
319 1 5.83429170621007 4.086765352547101 9.547586337026926 0 0 0
320 1 4.115046217657547 6.2492316171340345 9.507815063349636 0 0 0
321 1 7.9324350772077885 3.7975564885216997 7.322111462067451 0 0 0
322 1 10.12407680059352 5.765494277777486 7.359393921939677 0 0 0
323 1 10.006092893846805 4.064228444314815 9.406218132563028 0 0 0
324 1 7.891981183230845 5.961556666725894 9.512902570156323 0 0 0
325 1 12.325224436890869 3.888195606140962 7.712034087257239 0 0 0
328 1 12.410256328147574 5.836741261970966 9.368857535615223 0 0 0
326 1 14.505683102525161 6.317506287254198 7.518047999660963 0 0 0
327 1 14.180483941294161 4.170357598990246 9.682548350801019 0 0 0
329 1 16.320855203373405 4.2237915730445375 7.606643533081151 0 0 0
332 1 16.310131155459032 6.381063211912293 9.571379952146991 0 0 0
330 1 18.364789465811874 6.000996448237355 7.5645701869911175 0 0 0
331 1 18.233874159612718 4.276493723433881 9.600750907788003 0 0 0
333 1 20.443983111740202 4.128590444070074 7.215473876292211 0 0 0
336 1 20.54370914066675 6.013765709385266 9.52275900284214 0 0 0
313 1 24.430565951190893 3.9063863268455226 7.724087370667531 -1 0 0
334 1 22.368674643670865 5.769045369761912 7.41092871984611 0 0 0
335 1 22.423293475323163 4.0063707008384535 9.670865684633624 0 0 0
338 1 1.9317852264116642 10.166000144255111 7.634190613650889 0 0 0
339 1 1.7180470418250173 8.163414412645597 9.616039060465283 0 0 0
341 1 3.620516808315935 8.116848863689619 7.67496472799715 0 0 0
342 1 5.871821219583965 10.212264282025485 7.440071353329282 0 0 0
343 1 5.914324623742349 8.316894867962032 9.662274853782797 0 0 0
344 1 3.957454365142744 10.152831556295943 9.443521080512134 0 0 0
345 1 7.855360226820542 7.770725976196594 7.636495414577983 0 0 0
347 1 10.268218636479622 8.24203868922812 9.087843117775684 0 0 0
348 1 8.08968464796656 10.001651973514539 9.184387086475583 0 0 0
349 1 12.18888302694259 8.40051642555321 7.273940272860827 0 0 0
351 1 14.210672768606488 8.101753403455104 9.25555349223271 0 0 0
350 1 14.011239073839254 10.19880562514096 6.9115306603686975 0 0 0
353 1 16.50468605021232 8.175767952525426 7.3240120616812945 0 0 0
356 1 16.637823074379504 10.253734244722759 9.353904218350744 0 0 0
354 1 18.140948507216436 10.342742776891992 7.432322133723277 0 0 0
355 1 18.418507627434337 8.10925158228469 9.523857552896116 0 0 0
357 1 20.28123359096258 8.353149861946612 7.5077857281914255 0 0 0
360 1 20.41288968737014 10.06368100160365 9.348979970129811 0 0 0
340 1 24.501351357158242 10.275271413053552 9.406395037872901 -1 0 0
337 1 24.475935385446988 8.283363882668313 7.556623527527249 -1 0 0
359 1 22.4259352733135 7.904102181373084 9.49802894163444 0 0 0
358 1 22.427138838633965 10.281880246402604 7.166948037346782 0 0 0
363 1 1.7811339860072197 12.251462034003714 9.652036385163935 0 0 0
361 1 -0.012725549889658683 12.199410011681017 7.437525176689153 0 0 0
365 1 3.793361843656884 12.288402058038292 7.762911700939613 0 0 0
346 1 9.978858044213434 10.47785991425107 7.464153001456102 0 0 0
369 1 8.025044289104722 12.218240124933555 7.658916051274224 0 0 0
371 1 10.122405641817346 12.398974451323852 9.384867915557825 0 0 0
352 1 12.349197561367529 10.61679194788167 9.686767554341095 0 0 0
373 1 12.124682183920486 12.522696382994075 7.693628842375023 0 0 0
375 1 14.342559979389845 12.335594805941724 9.459026442103209 0 0 0
377 1 16.382756602401273 12.227707783901375 7.315581343979522 0 0 0
379 1 18.541850400317685 12.363163860711099 9.623645179966243 0 0 0
381 1 20.501432249159684 12.473008644378375 7.516135029644834 0 0 0
383 1 22.67230021382614 12.480174793980748 9.287484161851735 0 0 0
362 1 2.0368049771191665 14.435366574299673 7.617034848956147 0 0 0
364 1 0.20766134374414275 14.167405782571553 9.490736629134915 0 0 0
387 1 1.7505140417297647 16.221788031434272 9.309573882622864 0 0 0
366 1 6.027730016608783 14.212321066368133 7.9244083988660226 0 0 0
389 1 4.124898310757941 16.265379217746265 7.35858853948136 0 0 0
391 1 6.029402183119193 16.326123926469023 9.73880728747773 0 0 0
372 1 8.066076826483991 14.279606924229045 9.70726442732421 0 0 0
393 1 8.112370581800521 16.237645981765475 7.5206402161569255 0 0 0
395 1 9.760047947329445 16.63837134581697 9.60027490640848 0 0 0
370 1 9.901775302979528 14.267808815411186 7.569408724944642 0 0 0
376 1 11.866199904076515 14.593178912286943 9.537274807596166 0 0 0
397 1 12.080079999714508 16.743527949895608 7.849564635030816 0 0 0
399 1 13.866319813349673 16.31677819232656 9.592271763684622 0 0 0
374 1 14.124344068159926 14.183597017305713 7.537983909392025 0 0 0
401 1 16.236299903441875 16.323658989043864 7.512954223316429 0 0 0
380 1 16.118662387686364 14.399101844854709 9.580774495226354 0 0 0
378 1 18.344569687730548 14.513894238368358 7.609002721323737 0 0 0
384 1 20.533248444663975 14.293473426150491 9.713148713158736 0 0 0
405 1 20.377182813763945 16.440384804181058 7.2955643094547025 0 0 0
403 1 18.510360539150795 16.27273655682915 9.470565917597618 0 0 0
385 1 24.488490055189132 16.268331576168073 7.230794659898668 -1 0 0
382 1 22.33473112767473 14.471607170828555 7.331965468870637 0 0 0
407 1 22.61909798243544 16.30140217442885 9.509724353167067 0 0 0
386 1 2.108275659726521 18.363773653281115 7.5059415202033275 0 0 0
411 1 1.6348606703402684 20.384374744255375 9.483786945068054 0 0 0
390 1 5.843672906331298 18.067295996354872 7.6152686199062085 0 0 0
413 1 3.663815422339331 20.679710115063322 7.4565005116315515 0 0 0
392 1 3.870758388701928 18.31783549676544 9.559218154840684 0 0 0
415 1 5.73337041553024 20.168802225682114 9.295038820516051 0 0 0
417 1 7.685745547542537 20.56670644043797 7.724541252133777 0 0 0
396 1 7.756848986706513 18.38201988116092 9.716125790467151 0 0 0
419 1 10.089607467937038 20.443400498694594 9.673406762230723 0 0 0
394 1 10.129962468209328 18.528526788850947 7.71797669817343 0 0 0
400 1 12.257323343608808 18.63189307787691 9.674171845874602 0 0 0
421 1 11.992229612785291 20.421503493665845 7.694130601318109 0 0 0
398 1 14.450490299706225 18.224502171115418 7.400120485297492 0 0 0
423 1 14.032931295066659 20.39662769117016 9.66400825345179 0 0 0
425 1 15.89094779958326 20.47118296199428 7.442749381812638 0 0 0
404 1 16.26645110411969 18.349311560436497 9.583564108001898 0 0 0
402 1 18.368008358059775 18.629044365995732 7.45236376096566 0 0 0
408 1 20.553123453308494 18.511341227197484 9.36566972369388 0 0 0
427 1 18.090082209926592 20.509387344253405 9.334139149481775 0 0 0
429 1 19.967933235169355 20.484394619349445 7.117014650378307 0 0 0
409 1 24.42974581389177 20.354445327201383 7.366816721684138 -1 0 0
388 1 24.29140320907009 18.58053387405711 9.478142447250612 -1 0 0
406 1 22.578374899940677 18.258224357455695 7.410916307139118 0 0 0
431 1 22.260781496052722 20.671541429159966 9.351859826479917 0 0 0
410 1 1.5695886713976885 22.611095127726728 7.378967426362557 0 0 0
412 1 -0.1534437643772577 22.38825475442566 9.726566744508938 0 0 0
293 1 3.682600559433183 24.365305364671954 7.273633429404113 0 -1 0
414 1 5.907217254303916 22.648479619306805 7.577979461738709 0 0 0
416 1 3.6349800236560017 22.573937028863092 9.385166575619973 0 0 0
418 1 9.748293155262482 22.470046920584537 7.54001874205634 0 0 0
420 1 7.856163482094766 22.70395735817879 9.551726396242962 0 0 0
424 1 12.201665790466794 22.906643051992866 9.294770548840113 0 0 0
422 1 13.958367122676904 22.885136940182285 7.261357186631894 0 0 0
428 1 15.729901371841637 22.383235227167724 9.232828046632806 0 0 0
426 1 18.129716573506833 22.393129156215764 7.588988183423549 0 0 0
432 1 20.147214014304325 22.76148901998836 9.651398469187392 0 0 0
311 1 22.365400064729037 24.361720599903233 9.530831231905653 0 -1 0
430 1 22.324830400598536 22.4842653447285 7.488637972805858 0 0 0
434 1 2.0674004451000494 1.6504116231535138 12.006984928996642 0 0 0
438 1 6.208457035462178 1.834954886127532 11.472348396505904 0 0 0
442 1 10.017920426437932 2.2144324193948335 11.716710291250966 0 0 0
441 1 8.137809573218034 -0.06336396986345046 12.000343354718593 0 0 0
304 1 12.065483709447678 2.122162436740725 9.881142793709339 0 0 0
445 1 12.100431285579903 -0.08494240446711625 11.669675292798848 0 0 0
446 1 14.171528930605167 2.256630646747738 11.697577967349813 0 0 0
449 1 16.212491374923935 -0.03791860821779458 11.65418725919858 0 0 0
450 1 18.381708841971495 2.166597407233846 11.593245188581696 0 0 0
453 1 20.220201797502497 0.39396412716594276 11.308666730635055 0 0 0
454 1 22.275350942695503 2.0407052393967864 11.849301408682955 0 0 0
458 1 1.9712374825921928 5.880638572549725 11.50746484107974 0 0 0
457 1 -0.041227689033052795 3.9507428929434454 11.645983533017889 0 0 0
461 1 3.926422321081959 3.8588582435041445 11.649231573791916 0 0 0
462 1 5.677771611169962 5.723627578880358 11.82786831235093 0 0 0
465 1 7.785459216132267 4.113775570353431 11.338441683459262 0 0 0
466 1 10.198123330779476 6.2791699635771865 11.162027608527401 0 0 0
467 1 9.81865220782116 4.484516603839992 13.081467628926559 0 0 0
469 1 12.209184502759616 4.337399244317931 11.513690439289848 0 0 0
472 1 12.546128511377985 6.338134350117887 13.342277844316556 0 0 0
470 1 14.639801864185864 6.233105961640529 11.630219446543192 0 0 0
473 1 16.439409608734927 4.1097063662950495 11.638261212346722 0 0 0
474 1 18.548401894994456 6.254193829926971 11.648270941157476 0 0 0
477 1 20.288891775919986 4.115285006117777 11.717456133518017 0 0 0
478 1 22.404811000606827 6.009150529553608 11.884789388057975 0 0 0
482 1 1.8623368981208426 10.133726981093831 11.956122915490557 0 0 0
485 1 3.8833398795068526 8.135663979302755 11.559886646317848 0 0 0
489 1 8.126950160480275 8.267705321694567 11.558971825948129 0 0 0
490 1 10.124980224475465 10.280208058509585 11.225620456320106 0 0 0
493 1 12.472251141204943 8.394001573746571 11.170395299669838 0 0 0
494 1 14.445805457587817 10.26416841079337 11.426929561041476 0 0 0
497 1 16.41114702984661 8.5619066807252 11.45196351764358 0 0 0
498 1 18.639490052760515 10.34756187342683 11.761069013059368 0 0 0
501 1 20.3182981592143 8.362220180064982 11.48359058967004 0 0 0
481 1 24.509829083115125 8.222101595633376 11.55481917142551 -1 0 0
502 1 22.598398887294017 10.351874438309492 11.440278431715614 0 0 0
486 1 6.116887296943412 10.39565661504863 11.70236810226711 0 0 0
367 1 6.052670555655483 12.270986837577608 9.918671069049196 0 0 0
509 1 3.9370575523681035 12.10607241724708 11.485647959058753 0 0 0
513 1 8.321084950170825 12.13452720729764 11.694387358504585 0 0 0
517 1 12.455198601623886 12.27153532646494 11.650924308171657 0 0 0
521 1 16.574058272780924 11.878888880826276 11.558487648051969 0 0 0
525 1 20.711362041646936 12.418599692036343 11.66503169312588 0 0 0
505 1 24.438749806258564 12.373255505952589 11.586215321388504 -1 0 0
506 1 1.906791391623865 14.444641750607358 11.830450143275025 0 0 0
529 1 -0.07845511139129258 16.294368842914544 11.562251149990571 0 0 0
368 1 4.003237537133052 14.462583884420667 10.057496114357587 0 0 0
510 1 6.093445215023925 14.31757437837388 11.594280753099898 0 0 0
533 1 3.9768280850014266 16.32233067887652 11.957299798761031 0 0 0
514 1 10.239706528770263 14.507035723945183 11.41700000725155 0 0 0
537 1 7.941495239839872 16.32829372012454 11.870469391186456 0 0 0
541 1 12.363433424701418 16.201447103920273 11.745694473573403 0 0 0
518 1 14.340980928886903 14.307360633130061 11.50919316683167 0 0 0
545 1 16.24305995401044 16.367558913425547 11.280924142143158 0 0 0
524 1 16.452643202722292 14.512576255956324 13.32997406105943 0 0 0
522 1 18.575131978494895 14.330259503422978 11.631537939627052 0 0 0
549 1 20.577875751336286 16.468004998106437 11.399629921660429 0 0 0
526 1 22.634822032369513 14.218982983171164 11.366073846119864 0 0 0
530 1 1.909860094470313 18.46124121768402 11.257646753842511 0 0 0
553 1 -0.10154877533501289 20.604793855713112 11.655168459141484 0 0 0
534 1 6.159381428737671 18.59823534584337 11.95294494561395 0 0 0
557 1 3.9445127291378217 20.585330673371196 11.318660863569303 0 0 0
561 1 7.988008279087529 20.707291623532917 11.358148870071075 0 0 0
538 1 9.917921306865315 18.49619256448299 11.541362812007891 0 0 0
565 1 11.926922231754666 20.66635349994305 11.519612480363952 0 0 0
542 1 14.183144592503893 18.19161376002574 11.606861132521606 0 0 0
569 1 16.0636792501274 20.42762589648708 11.466151211694479 0 0 0
567 1 14.01121577422163 20.359483359268978 13.354434557630828 0 0 0
548 1 16.59764306517033 18.25597100194208 13.244834290685503 0 0 0
546 1 18.37799365939557 18.586500256087767 11.330628869916497 0 0 0
573 1 19.977153959568582 20.62722664012039 11.293729451795484 0 0 0
550 1 22.1804091407408 18.816539281340006 11.406251575264752 0 0 0
554 1 2.110882500875062 22.482954532704873 11.770470996557432 0 0 0
433 1 -0.20868584097276965 24.402217737859868 11.596979427392677 0 -1 0
437 1 4.209164973846615 24.21600195495374 11.699883562285411 0 -1 0
558 1 6.096395011464756 22.41352707644878 11.569809726967108 0 0 0
562 1 10.111220243906656 22.500017738586124 11.36354576671938 0 0 0
566 1 14.09595107388734 22.55176814134761 11.341213569927914 0 0 0
572 1 15.734158976515815 22.570422251402896 13.343502830379864 0 0 0
570 1 17.97230087050518 22.64711630929694 11.209645691575577 0 0 0
574 1 21.908553006592754 22.806992693441344 11.622705482343537 0 0 0
578 1 1.8818032858431817 1.7732399588858467 15.669930537594567 0 0 0
440 1 4.068069789266452 1.6458213956566086 13.904208025597107 0 0 0
582 1 6.185033829927201 1.7397629448982788 16.05244543848325 0 0 0
439 1 6.0327974356100595 0.12506425052881964 13.813324536953681 0 0 0
444 1 8.14772414295921 1.9822501588957504 13.99281027618722 0 0 0
443 1 10.202753845937037 -0.08429293267339351 13.4876799388655 0 0 0
585 1 8.52005165598701 -0.15047615129847633 15.78669281596699 0 0 0
586 1 10.41638408716271 1.96694476912108 15.855998141861825 0 0 0
448 1 12.396719165034852 2.2838792138064226 13.784912179546234 0 0 0
589 1 11.973913957549387 -0.05667505452444166 15.496602894754773 0 0 0
452 1 16.166066802754067 2.0751027299968468 13.767039864968584 0 0 0
590 1 14.260363354504168 2.1718809229158818 15.718160914507887 0 0 0
447 1 14.183787083249529 0.11298294938570208 13.553107771256805 0 0 0
456 1 20.425286126277484 1.702393910167844 13.696268406985352 0 0 0
594 1 18.322306949460774 1.93807995847809 15.773141988300388 0 0 0
451 1 17.937881196535855 -0.0676691338352803 13.575341742762916 0 0 0
436 1 24.45330813554063 1.8081068899445818 13.660964408727741 -1 0 0
598 1 22.275440496154694 2.197158865565347 15.613881146439645 0 0 0
577 1 24.271638528995226 0.004193247155767965 15.864631865007546 -1 0 0
455 1 22.337766365584116 -0.11781848467202849 13.664641792844314 0 0 0
459 1 2.0066973167047197 3.9390071699018208 14.027780559967912 0 0 0
602 1 1.629038782004086 5.999466836244253 15.765291010918745 0 0 0
601 1 -0.09997204076612273 3.794222836284163 16.173290008258586 0 0 0
464 1 4.090567813972056 5.711740460015141 13.836375398184177 0 0 0
463 1 5.9291440283848935 3.4747777407234084 14.124144629927759 0 0 0
605 1 3.8941186893622044 3.5459791734971486 15.90743947164821 0 0 0
606 1 6.01763320449192 5.893175590155607 15.61233662676306 0 0 0
468 1 7.826119627367216 5.951413059631688 13.594470357595817 0 0 0
609 1 8.262431800712644 3.8414047183981426 15.867467403595775 0 0 0
610 1 10.426942112370792 5.927581297259511 15.715778423255802 0 0 0
613 1 12.230591438053612 4.1842770789507435 15.592898540071783 0 0 0
471 1 14.470658581097064 4.431516760835774 13.40295488746454 0 0 0
476 1 16.461825956276215 6.515515320353827 13.720256500646098 0 0 0
614 1 14.32875028595444 6.215217355204751 15.602218523869265 0 0 0
617 1 16.453472840894037 4.3213881746334835 15.468293307510685 0 0 0
475 1 18.282429568955635 3.87574112945447 13.531255550054748 0 0 0
480 1 20.217297690891947 6.37437543880811 13.860272078325222 0 0 0
618 1 18.47822813490408 6.394809070473115 16.174938259901538 0 0 0
621 1 20.554430717701898 3.928621045020333 15.524234873249554 0 0 0
460 1 24.25717257552318 5.978751913357798 13.438406229117614 -1 0 0
479 1 22.542472437071346 4.130111403381403 13.905441705497074 0 0 0
622 1 22.496674102860375 6.257662108480636 15.434778699007285 0 0 0
483 1 1.7758166333107626 7.944398743659576 13.877451202704483 0 0 0
626 1 2.1916488549671267 9.947583651496785 15.607902973223357 0 0 0
625 1 -0.12025853002431841 8.267174395527583 15.721482264450323 0 0 0
488 1 3.978802733332511 9.959473611748834 13.664339517285564 0 0 0
487 1 5.931262598394959 7.79445784044683 13.46483347913726 0 0 0
629 1 4.253356983405302 7.9064238217442355 15.607339439319077 0 0 0
630 1 6.166352564589206 10.378530021989649 15.58180929178625 0 0 0
492 1 7.80716634068385 9.908340456719568 13.628951366644793 0 0 0
633 1 8.06972114406345 8.36740896862658 15.695389538407667 0 0 0
491 1 10.196017674087264 7.745718666419532 13.624944687089718 0 0 0
496 1 12.207545802111675 10.134884285195039 13.469519143066748 0 0 0
637 1 12.177556784335245 8.036301397228213 15.572218327746231 0 0 0
500 1 16.386486447306368 10.28453461171695 13.79920569227251 0 0 0
495 1 14.303827995502504 8.280974625258306 13.661461387188512 0 0 0
638 1 14.057191100582818 10.211687289406695 15.74632988061187 0 0 0
641 1 16.20159836502213 8.48073103834214 15.844506323004229 0 0 0
499 1 18.349157172024654 8.373426327177462 14.04928690063234 0 0 0
642 1 18.39009607637825 10.387119742156983 15.899772932883184 0 0 0
645 1 20.577345036843433 8.242018455493849 15.659908404335948 0 0 0
503 1 22.284201100839702 8.355066127697459 13.413487396110671 0 0 0
484 1 24.22013884527303 10.157994619086423 13.525011915849689 -1 0 0
646 1 22.506667395458955 10.266586858599819 15.656442586526655 0 0 0
507 1 1.646954533301409 12.108904086536223 13.658689085278375 0 0 0
649 1 -0.04182366891153322 12.097624209737821 15.687827431975496 0 0 0
511 1 5.706107960362346 12.157028986177732 13.877245627879708 0 0 0
653 1 3.610099488483933 12.275206063574986 15.78431928865486 0 0 0
634 1 10.102139524712682 10.485094107502995 15.692160057799224 0 0 0
515 1 10.354731699480842 12.141953136388384 13.695465134975985 0 0 0
657 1 7.924855325418248 12.042203771252412 15.609740943473629 0 0 0
661 1 12.049686960284532 12.47684011535316 15.735105243192272 0 0 0
519 1 14.269558538063144 12.327893967978056 13.653961112412345 0 0 0
665 1 16.20695307039125 12.575800033950529 15.728503332246678 0 0 0
504 1 20.81705335955524 10.439662726153857 13.392189594087663 0 0 0
523 1 18.373980153348285 12.40507830387347 13.75230021880883 0 0 0
669 1 20.40588430375633 12.162785655182306 15.544283908515755 0 0 0
527 1 22.74731173474332 12.407841704847844 13.7032308356633 0 0 0
531 1 1.6752865603758869 16.544621625662515 13.886224345578777 0 0 0
650 1 1.4397854277611843 14.376694410691309 15.73631578408298 0 0 0
512 1 3.8796243955121774 14.221688140128057 13.801766186232276 0 0 0
535 1 5.91416560156644 16.148139990352725 13.919422197209657 0 0 0
654 1 5.830465722824494 14.220726787830541 15.797898620945357 0 0 0
677 1 3.8239772614518888 16.357831400823166 15.981636023071779 0 0 0
516 1 8.118854634922112 14.305409071310299 13.80787996036578 0 0 0
658 1 9.810477119639167 14.449742501870032 15.800831806783986 0 0 0
681 1 7.859732804863869 16.615603841500416 16.17291432347951 0 0 0
539 1 10.258025620419629 16.16101766824974 13.420259670198131 0 0 0
520 1 12.265307239648505 14.185787398155185 13.671256869463335 0 0 0
685 1 12.634905739654481 16.192576604694757 15.422109535631641 0 0 0
662 1 14.304200181781189 14.410253979010657 15.888524269368464 0 0 0
543 1 14.570052588774203 16.278940233441034 13.698737612532915 0 0 0
689 1 16.363366442249536 16.72892010405016 15.797611993984994 0 0 0
666 1 18.63153234708401 14.521943744561653 15.817003900095827 0 0 0
547 1 18.319635859571292 16.32076477944836 13.650273357628286 0 0 0
528 1 20.80056808560871 14.71917486746663 13.576860992736307 0 0 0
693 1 20.348575192857446 16.298956383291035 15.651101811919364 0 0 0
508 1 24.405785837621245 14.30851253142657 13.81389757187035 -1 0 0
673 1 24.234655888638287 16.437341723534487 15.741301021167928 -1 0 0
551 1 22.0537389509036 16.653536677929836 13.39943282114495 0 0 0
670 1 22.611696996440102 14.209336630286392 15.825976843323591 0 0 0
555 1 1.6675252436247086 20.721401675436432 13.793761369556812 0 0 0
674 1 1.725185819448561 18.537112695080985 15.554352607830392 0 0 0
697 1 -0.16662974011993015 20.589298110069443 15.779828858774302 0 0 0
536 1 3.9325618956492834 18.465691975930227 13.534674557871625 0 0 0
559 1 6.45539171558321 20.302787644895588 13.614051364458025 0 0 0
678 1 5.882376945173081 18.45210802197164 15.53627350870277 0 0 0
701 1 3.9749523581018495 20.402461874300243 15.610356149425709 0 0 0
563 1 10.156883926478946 20.32025320962726 13.74622385062734 0 0 0
540 1 8.332606703138412 18.097852544767065 13.81110787232364 0 0 0
705 1 8.25529735775825 20.75808925476438 15.769477809680122 0 0 0
682 1 10.48616257577866 18.32748691697614 15.835210907251533 0 0 0
544 1 12.07050780106813 18.255017733382374 13.573192135620731 0 0 0
709 1 11.987384584264234 20.57610155288483 15.931351675785265 0 0 0
686 1 13.952669085893755 18.69620273024188 15.580533839026213 0 0 0
713 1 15.921049334386167 20.308286106719066 15.558089411585385 0 0 0
552 1 20.314852280622368 18.630162800742326 13.612829891940073 0 0 0
571 1 18.069659216003195 20.553196304653866 13.615788088968834 0 0 0
690 1 18.31195214507308 18.336172465525593 15.866039757180786 0 0 0
717 1 20.149598150253524 20.287091021185347 15.475441360639273 0 0 0
532 1 24.020664703250887 18.378892856108507 13.411081481724533 -1 0 0
575 1 22.298435325552816 20.784896491782355 13.492819162392234 0 0 0
694 1 21.996721096042506 18.558503888171956 15.683517142546727 0 0 0
435 1 1.8209058722697709 24.38877373592402 14.187207108242198 0 -1 0
698 1 1.7199074155688643 22.527032535877325 15.897499181328808 0 0 0
581 1 4.0457966044959965 24.13485023125164 16.1397891360249 0 -1 0
560 1 4.37094513354728 22.555418092876693 13.698658597997035 0 0 0
702 1 6.198899538724912 22.362862921274747 15.868281377996858 0 0 0
564 1 7.835491739798197 22.604695921478303 13.727812680138396 0 0 0
706 1 10.068925038104585 22.411550762903964 15.704927328225793 0 0 0
568 1 12.197530432311028 22.699490300298116 13.549871982778889 0 0 0
710 1 13.88630737200269 22.542822339581946 15.832504824309215 0 0 0
593 1 16.029222069286995 24.33758172471969 15.580491218664438 0 -1 0
597 1 20.361545068630825 24.318167567372967 15.62649829650709 0 -1 0
576 1 19.812405115826998 22.569605737531077 13.460282842118392 0 0 0
714 1 17.592566620014047 22.183705422198436 15.614132315960376 0 0 0
556 1 24.202277865018736 22.569699900878383 13.580135550141074 -1 0 0
718 1 21.956664032016548 22.415036874185766 15.814735236501178 0 0 0
722 1 1.996265049043306 2.118371987373113 19.877454074176047 0 0 0
579 1 1.8665647373622587 -0.08515986348205368 17.906118576805635 0 0 0
580 1 -0.13259687330053538 1.7839095637045859 17.847752005619142 0 0 0
584 1 4.064901143645483 1.7068712145583913 18.003997992163065 0 0 0
726 1 6.015310257813665 1.9071812426076549 19.649455561314213 0 0 0
725 1 3.8112689194164675 -0.05312552713910179 20.05210101237292 0 0 0
588 1 8.382144163716275 2.0363355312281404 17.88065308331948 0 0 0
730 1 10.310102713959807 1.9831455459434233 19.767397453668874 0 0 0
587 1 10.135202655738944 0.001618729002842656 18.004416674308665 0 0 0
729 1 7.842038903668698 0.17593682896179969 20.053434101796807 0 0 0
592 1 12.707541415324076 2.0279566300712957 17.58876855619975 0 0 0
733 1 12.186087723163102 0.005180180732007322 19.924673812319693 0 0 0
734 1 14.23200512188421 2.3929558377655615 19.65165253111738 0 0 0
596 1 16.285431677247786 1.8359024473301044 17.853762316801802 0 0 0
737 1 16.22208728766114 0.17188599114355324 19.926189925846213 0 0 0
591 1 14.232063701089183 0.16481280482064714 17.814662331008677 0 0 0
600 1 20.34844280188235 2.2351733268602354 17.403702510040233 0 0 0
741 1 20.44325530938385 -0.06444912988428812 19.797894424829835 0 0 0
738 1 18.65437373248846 1.9456111728118675 19.389284950047642 0 0 0
742 1 22.400836985093918 1.7490580369085662 19.95384672027347 0 0 0
721 1 24.165644762170622 0.15101358622573713 19.838454060464443 -1 0 0
603 1 1.9902306303222819 4.051391122397913 17.704869449641244 0 0 0
746 1 2.0758191299547444 6.29732247964841 19.691582145334824 0 0 0
745 1 -0.16933233319741542 4.009391504351999 19.759878339519137 0 0 0
604 1 -0.09177282137568454 6.092881195642647 17.635127709152886 0 0 0
607 1 6.1466845979543745 4.369542225402799 17.911412345074737 0 0 0
608 1 3.867754835640195 5.849178600689649 17.761995095893155 0 0 0
749 1 4.23708870793047 3.7314449525307403 20.148522229778987 0 0 0
750 1 5.735264956113407 6.014449515311807 20.040595513896783 0 0 0
612 1 8.02279231379422 6.334625094265367 17.656493324995992 0 0 0
753 1 7.948834780005162 3.8622622854527178 20.154956676967956 0 0 0
754 1 10.202143952333936 5.8278631864039045 19.732124383475536 0 0 0
611 1 10.553904346869269 3.9822994338513817 17.740994983058464 0 0 0
616 1 12.242162194134293 6.136700895370112 17.794076135898724 0 0 0
757 1 12.597945034101071 4.273570903653381 19.858651125169153 0 0 0
758 1 14.275464697366962 6.1973401299358555 19.393671882972523 0 0 0
615 1 14.568202851542967 4.224079885782031 17.420637618584273 0 0 0
620 1 16.340508182237564 6.264892064711004 17.791545457078385 0 0 0
761 1 16.58533335609765 4.078478705358902 19.762668673734574 0 0 0
619 1 18.279926678023386 4.231144473034191 17.779186293454632 0 0 0
624 1 20.82876657885781 5.978285317867848 17.468465927033634 0 0 0
762 1 18.31069743386172 6.1557721227279485 19.895976103904438 0 0 0
765 1 20.49412022072709 3.8766577841051113 19.879632705890966 0 0 0
623 1 22.545270332552136 3.917860302766398 17.895900054618494 0 0 0
766 1 22.731780833424708 6.004879643595791 19.555629013645568 0 0 0
627 1 1.7363041634468388 8.151643037777456 17.653799718528763 0 0 0
770 1 1.866933350267237 10.235361073528335 19.842020106573507 0 0 0
631 1 6.224376505120218 8.232177529968034 17.9796654298288 0 0 0
773 1 4.027452856562719 8.11966371035071 19.42265055192704 0 0 0
774 1 5.923797613387988 10.278936014716402 19.735204106221513 0 0 0
632 1 3.850358302374736 10.142274793082745 17.780983815902733 0 0 0
635 1 9.9343663679012 8.041863014954995 17.6753572849947 0 0 0
636 1 8.180210620281843 10.060752093925249 18.12710929273084 0 0 0
777 1 8.10530195213453 7.765376116380905 20.000781096213803 0 0 0
778 1 10.036122960179492 9.939798939892073 20.032055307332836 0 0 0
781 1 12.067857756466585 7.849390282095779 19.790572235352634 0 0 0
640 1 12.118120328354504 10.157375628598198 17.7265307065472 0 0 0
639 1 14.249937544877449 8.316784623362654 17.7521446424951 0 0 0
785 1 16.439131804477704 8.118438323642007 19.867276292143657 0 0 0
643 1 18.543905082803946 8.480938031769183 17.749661052383765 0 0 0
648 1 20.565893695301632 10.318298305682475 17.74049859312765 0 0 0
786 1 18.552877983437185 10.213916596190641 19.51402670587509 0 0 0
789 1 20.40504580237681 8.03542409360386 19.669791298635698 0 0 0
628 1 24.449450139877232 10.275428785172368 17.82505040528724 -1 0 0
769 1 24.47428911046951 8.466230982387517 19.76031141709104 -1 0 0
647 1 22.68325669517104 8.324902777421174 17.62452352482407 0 0 0
790 1 22.212862473097843 10.140188605045317 19.670555429306813 0 0 0
651 1 1.4740557532277865 11.935419349864343 17.68433407956411 0 0 0
655 1 5.703289705099735 12.248901874325616 17.923730182756863 0 0 0
797 1 3.8284632494115787 12.02891443872021 19.912084205247915 0 0 0
659 1 9.745591642924033 11.970266223398383 17.947049539786182 0 0 0
801 1 7.789573281103159 12.017852233439925 19.848479726814222 0 0 0
805 1 11.920641342099756 12.11081616877244 19.90121601901207 0 0 0
644 1 16.430351190291766 10.49812053237898 17.874232545214145 0 0 0
782 1 14.028616240704363 10.444222371990762 19.832656504982904 0 0 0
663 1 14.151004480605534 12.137050355876555 17.821820519156674 0 0 0
809 1 16.34007032267209 12.365093622948073 19.854276840738695 0 0 0
667 1 18.480970695067924 12.670586058680747 17.979483443524625 0 0 0
813 1 20.30491238502246 12.283638689119883 19.97751840471583 0 0 0
793 1 24.41493752304889 12.405627973823355 19.99878088593766 -1 0 0
671 1 22.4945597127265 12.422801222441466 17.602066491746143 0 0 0
675 1 1.7447193302217543 16.545202661289807 17.48412506611231 0 0 0
794 1 1.6208928645501153 14.110938220675475 19.84539216923282 0 0 0
656 1 3.471649315652214 14.026009386876254 17.59555647267732 0 0 0
821 1 3.409359294866267 15.848793607686348 19.78189646454787 0 0 0
679 1 5.970509215585365 16.394310386920218 18.174345290362066 0 0 0
798 1 5.4219583513182545 14.087636617775747 19.843469885243223 0 0 0
825 1 8.168737007082926 16.49458597872588 19.777654376700593 0 0 0
660 1 7.807371540301473 14.185648743786281 17.97989765308311 0 0 0
683 1 10.031056519374571 16.559440282844534 17.898419296174065 0 0 0
802 1 9.882777039087433 14.276708593054385 19.795367670087693 0 0 0
829 1 12.017295978459318 16.70581738300755 19.921730322302 0 0 0
664 1 11.635627553199308 14.076427039203834 17.76420107921982 0 0 0
806 1 13.912070123232667 14.428676678282374 20.012158499265645 0 0 0
833 1 16.282856814704445 16.370453649572426 19.61959982169055 0 0 0
668 1 16.30874079435351 14.571999540775176 17.39414291746997 0 0 0
687 1 14.073601743055955 16.289325527365875 17.528697324068737 0 0 0
810 1 18.516978499961148 14.70287932964471 19.67066631731117 0 0 0
837 1 20.26910736232651 16.42326575404541 20.208177998884526 0 0 0
672 1 20.52759874350287 14.575869135957067 17.693280710019124 0 0 0
691 1 18.39679686171847 16.47230436169569 17.665762894359805 0 0 0
652 1 24.459251982332063 14.294458328678266 18.031094082278518 -1 0 0
817 1 24.449636223769307 16.356443025757223 19.72949335230528 -1 0 0
695 1 22.408276207360508 16.456257297324413 17.793908728759373 0 0 0
814 1 22.34521913678615 14.303572942342894 20.18686542613545 0 0 0
818 1 1.4786576717762467 18.223781434406874 19.534825515953504 0 0 0
699 1 2.2253310301600386 20.67111766501835 17.66148554822038 0 0 0
680 1 3.8084935941172615 18.25894641812964 18.147778057117478 0 0 0
822 1 5.968691490462398 18.52826323541001 20.26994855174441 0 0 0
845 1 3.4914430485257175 20.230537759037126 20.123429392936252 0 0 0
703 1 5.8078552329899376 20.06975830490969 17.896790707439045 0 0 0
849 1 8.01245595913481 20.58144094393284 19.833324552743534 0 0 0
684 1 8.092418562515189 18.694168547111467 17.706416466862695 0 0 0
707 1 9.807061311448756 20.756499265460526 17.92034484872734 0 0 0
826 1 10.154504952363514 18.651019362114496 19.883266581215903 0 0 0
853 1 12.273369452106165 20.723740356206363 19.926449503106742 0 0 0
688 1 12.167578830237051 18.52115782980099 17.814876711852307 0 0 0
830 1 14.196090338182923 18.165224916898744 19.820130282565835 0 0 0
857 1 15.997062518967896 20.347238659518638 19.961090669797507 0 0 0
692 1 16.069963818796964 18.509634228397516 17.574503848230282 0 0 0
711 1 14.274061873582236 20.425734149787914 17.88299922967326 0 0 0
861 1 20.138934312795975 20.28425785288828 19.88306429578786 0 0 0
834 1 18.012109960581633 18.580071122608885 19.520319582431956 0 0 0
696 1 20.309044873696863 18.520339753207445 17.931575125781656 0 0 0
715 1 17.972092693309875 20.351213600274065 17.80561128309368 0 0 0
676 1 24.236884261151154 18.588050809004187 17.537269230223398 -1 0 0
841 1 24.483508148632886 20.367751227249613 19.71732914732905 -1 0 0
838 1 22.209841416888423 18.188489118634593 19.75627141649808 0 0 0
719 1 21.788021441842005 20.438912247687455 17.79912011627854 0 0 0
842 1 1.7913527353790464 22.563965357451778 19.965605692546884 0 0 0
846 1 5.8666520274467215 22.526867079045303 20.101722003750226 0 0 0
583 1 5.936861819732783 24.314274885331443 18.074275812069022 0 -1 0
704 1 3.9290793813355895 22.50025473187727 18.05887765904622 0 0 0
850 1 10.012283091377164 22.71540385394828 19.926861710666987 0 0 0
708 1 7.734360561849071 22.613846572465476 17.942285024832618 0 0 0
712 1 12.114490531455283 22.59151119351661 17.929980164458133 0 0 0
854 1 14.281498154539262 22.63096960936987 19.83227108237572 0 0 0
716 1 16.15155890978472 22.813673465243745 17.807805326263313 0 0 0
595 1 18.42188353000465 24.288946996436295 17.846697456189613 0 -1 0
858 1 18.381496292657104 22.626318034374812 19.91446021682679 0 0 0
720 1 19.99464149763982 22.248297257601898 17.903297932990437 0 0 0
599 1 22.224622867449312 24.416234069066427 17.597494517503733 0 -1 0
700 1 24.36526597683777 22.646887409158147 17.783895450409545 -1 0 0
862 1 22.5593706701969 22.38329881021852 19.54794217897131 0 0 0
724 1 -0.04142464230300749 2.098852944456375 21.89025464815778 0 0 0
866 1 1.9052738508424016 1.7657115625652766 23.92047773876329 0 0 0
727 1 6.092998182132634 -0.16293789765487787 22.231582285904487 0 0 0
728 1 4.1785796325164 2.012446504495461 22.02963140258831 0 0 0
731 1 9.900579366630023 0.1720271374124998 21.747844313162496 0 0 0
732 1 8.03026448325582 1.8894705176428115 22.2134088217523 0 0 0
736 1 12.36949762089396 1.9248534536466102 21.55248357650781 0 0 0
877 1 12.116345851338211 0.060676787485436895 23.894720969677266 0 0 0
735 1 14.126472257962746 -0.0615995082595209 21.562347808354044 0 0 0
740 1 16.55582534089754 2.1981058012455876 21.63659091215746 0 0 0
878 1 14.225025420510127 1.8260880157246995 23.816795439401414 0 0 0
881 1 16.344032912793132 0.017713685002616636 23.432160343877797 0 0 0
739 1 18.585605775018237 -0.08854031817831753 21.991616716669967 0 0 0
744 1 20.452105422445058 1.6464124977887984 21.831920725212466 0 0 0
882 1 18.653949069019298 1.8604744464851808 23.738209023356568 0 0 0
886 1 22.789448179227705 1.8229596509627075 23.64790139379543 0 0 0
747 1 1.954649877877928 3.9864841158740134 21.758279235228052 0 0 0
748 1 -0.056161777193402096 6.094186299141781 21.804923280300578 0 0 0
889 1 -0.08335362467759205 3.839573546176606 23.764893815566996 0 0 0
751 1 6.130797480150164 3.8598155881148752 22.186799563223744 0 0 0
752 1 3.9335178835023443 5.855941037193092 21.932159370142404 0 0 0
893 1 3.9319445625841825 3.934079717803172 23.94068634581887 0 0 0
756 1 8.240746838789196 5.754603947361966 21.745624281942934 0 0 0
897 1 8.308185247012597 4.017522631760905 23.747850125051528 0 0 0
901 1 12.256028916335385 3.9068253217125406 23.78115180366911 0 0 0
755 1 10.472736812241525 4.015838615463389 21.732242693132857 0 0 0
760 1 12.287135838293542 6.219150870195812 21.91234724180354 0 0 0
759 1 14.4695888911688 4.13633423159851 21.8190732839189 0 0 0
764 1 16.388283240521893 6.010584491930884 21.987932481893314 0 0 0
902 1 14.283732131055412 6.264132927312503 23.92374409445184 0 0 0
763 1 18.380213984079518 3.9976961763805363 21.989627773852234 0 0 0
768 1 20.564887369413732 5.698216378880958 21.904800109056747 0 0 0
909 1 20.90130725605148 3.75102602689365 23.91380359608476 0 0 0
906 1 18.20074449096603 5.888089986228038 23.704091597898792 0 0 0
910 1 22.451090132639294 5.93898439506948 23.546415290020168 0 0 0
767 1 22.731702520840038 3.9627268165920064 21.59583442617885 0 0 0
771 1 1.9007046231883122 8.073422899931874 22.26936718799827 0 0 0
775 1 6.31548389740558 7.936751299955311 21.97782474979643 0 0 0
776 1 3.84464026506015 9.79786133992464 21.474602306499946 0 0 0
917 1 4.201593480522803 8.075727166802682 23.64998067909656 0 0 0
779 1 10.095986133565221 8.147093059956012 21.997640350217523 0 0 0
780 1 7.891742893076447 10.07960390407843 21.977288479144317 0 0 0
922 1 10.200200489952888 10.159281264696336 23.94141842018244 0 0 0
925 1 12.289538705432445 8.337465333622594 23.87890058057706 0 0 0
784 1 12.232575605383786 10.214533580152574 21.890302638157717 0 0 0
783 1 14.19720234829847 8.297793285739377 21.678376919491143 0 0 0
788 1 15.949142199440859 10.174538382507812 21.71896886113429 0 0 0
929 1 16.09183210288949 8.39976383713527 23.71214337258506 0 0 0
787 1 18.325520422343054 8.088943517421663 21.861778683241162 0 0 0
792 1 20.23113687596196 10.088760854346752 21.90486163837344 0 0 0
930 1 18.155033487488033 10.246261609326373 23.545791968058495 0 0 0
933 1 19.982191312539598 7.8360320974910795 23.593577228834143 0 0 0
772 1 24.447931727762082 10.005160508282264 21.924208204196976 -1 0 0
791 1 22.271341134014683 8.25743455378013 21.704070603564393 0 0 0
934 1 22.206127538697572 10.116457834084695 23.882063534986138 0 0 0
913 1 24.14271817797465 7.945867054544731 23.777065947970403 -1 0 0
795 1 1.7159936042904673 12.108003323626916 21.974440233715654 0 0 0
799 1 6.134457148232368 12.255432480345492 21.943447169676944 0 0 0
800 1 3.8362961404997886 13.896265070506725 21.71410895769906 0 0 0
941 1 3.7536390139349813 12.029247455563247 23.694720677897553 0 0 0
803 1 9.99184815658489 12.314877683383632 22.243377056326374 0 0 0
807 1 14.10116262579796 12.658953278485665 21.9824745025571 0 0 0
953 1 16.227700111666827 12.362663140458642 23.7740306332039 0 0 0
811 1 18.03498691691754 12.09327430211646 21.72894882666306 0 0 0
957 1 20.317416962507664 12.318900236144058 23.875438113058177 0 0 0
815 1 22.352448587999433 12.041317679479267 21.89805226177612 0 0 0
937 1 24.240720455129875 12.160828567163758 23.818889863061873 -1 0 0
819 1 1.4981091996137192 16.16380794381063 21.96343611886905 0 0 0
961 1 -0.13116534569058413 16.380705153130044 23.902532520585677 0 0 0
965 1 4.106934429692754 16.391521095890113 23.745316152013505 0 0 0
823 1 6.142412885445905 16.190669495143908 21.50591439578963 0 0 0
942 1 6.001458955512267 14.384085614576792 23.906647626204617 0 0 0
827 1 9.944743343017272 15.896586260224138 21.919568623401855 0 0 0
804 1 7.879665667439168 14.22282624406606 21.88218310137034 0 0 0
969 1 8.051457894354549 16.597783825179356 23.888239749136982 0 0 0
808 1 11.884299749664459 14.324995450545533 22.082519287234714 0 0 0
812 1 16.194803036924988 14.254393041012102 21.645258292703307 0 0 0
831 1 14.128557776014 16.183769499068916 21.97793720564489 0 0 0
950 1 14.06873415981744 14.47609985829461 23.845147692418067 0 0 0
816 1 19.82467128034891 14.171299087967059 21.87790454164516 0 0 0
835 1 18.132299350065715 16.49272319842907 21.83835119674294 0 0 0
981 1 20.517138315014762 16.465930375402316 23.80183642872766 0 0 0
839 1 22.73818091158612 16.175336896900966 21.7886922193163 0 0 0
796 1 24.510904413028285 14.229405322887322 21.996437563516693 -1 0 0
958 1 22.320079344930733 14.272686973885206 23.798377898414117 0 0 0
843 1 1.6595479135104099 20.285860004364842 21.642433227589677 0 0 0
847 1 5.908859595733833 20.543200286756125 22.014173525011802 0 0 0
824 1 3.479408772562072 18.00168485018088 21.67444864968413 0 0 0
966 1 5.958108460755764 18.523133416587832 23.656947084389287 0 0 0
989 1 3.7115820620979108 20.274345080247485 23.52290309054113 0 0 0
828 1 8.36268795152714 18.45719010853118 21.835874103857265 0 0 0
851 1 10.28095168407763 20.570664795840926 21.947182419226607 0 0 0
993 1 8.303373082333229 20.406646127240514 23.881529278920645 0 0 0
970 1 10.294002050636093 18.42791773187951 23.884395345929523 0 0 0
832 1 12.253346755876231 18.52417273074616 21.90015630344655 0 0 0
997 1 12.235748129815954 20.646764393790605 23.848877490442714 0 0 0
855 1 14.62541972322833 20.38617611687598 22.048174509878844 0 0 0
836 1 16.24425612189914 18.21109673803879 21.962554289936033 0 0 0
974 1 14.296827315264403 18.42040886315535 23.906161161633975 0 0 0
840 1 20.605425312720797 18.185094684003715 21.93689286002545 0 0 0
859 1 18.124542214507755 20.260994989865992 21.63433515601788 0 0 0
1005 1 20.130783976491614 20.16041726066092 23.509238739517485 0 0 0
863 1 22.439488558181388 20.402381478942935 21.68724808013148 0 0 0
820 1 24.498976930958598 18.366442479422197 21.900569452585238 -1 0 0
985 1 24.15614134097858 20.45694195391244 23.862128392074123 -1 0 0
982 1 22.572860463677586 18.51806004777302 23.756689874115004 0 0 0
723 1 1.9201290156543935 24.298658482528094 22.03623703018492 0 -1 0
986 1 1.5698979671790294 21.920876918943016 23.684741269653422 0 0 0
848 1 3.758621027240513 22.4425836425847 21.847256698332565 0 0 0
852 1 7.992841837158457 22.463663153801377 21.837910637290765 0 0 0
856 1 11.952333908635646 22.797337568155612 22.128176904802668 0 0 0
860 1 16.485820174983935 22.686898569238828 21.82947121255978 0 0 0
998 1 14.244395473658818 22.431993640826157 23.792075029805265 0 0 0
864 1 20.259994763369242 22.183370580658952 21.973658318402236 0 0 0
743 1 22.503527959536896 24.290162204810592 21.690150832188884 0 -1 0
844 1 24.330280844353197 22.25442217543626 21.605525320928344 -1 0 0
865 1 24.284805470439455 24.330013046121827 23.75395416219104 -1 -1 0
1006 1 22.557088269399443 22.420602172918763 23.752732488023103 0 0 0
868 1 -0.19143332296426518 1.8250266485074047 25.770422080737376 0 0 0
872 1 4.016190566448804 1.8585073614020096 26.237537344215646 0 0 0
869 1 4.037999873890896 0.03225611685584162 24.148945876601847 0 0 0
870 1 5.858166127448947 2.001638767718366 24.02325988478743 0 0 0
871 1 6.125574857543979 0.09940483212635337 26.333317109143813 0 0 0
876 1 8.040163565870394 2.1090657178321988 25.821340582914917 0 0 0
874 1 10.370568888502993 2.35244743875239 24.066070408440893 0 0 0
875 1 9.714380044623512 0.13333423427497415 26.068160816538466 0 0 0
880 1 12.47304254608999 1.8428921259589606 25.858413443112433 0 0 0
879 1 14.596531132448849 -0.09804120556468988 25.853773332101767 0 0 0
884 1 16.356390121682743 2.048617261756361 26.048473687928855 0 0 0
888 1 20.43168709263516 1.7115665850647948 26.149060349287485 0 0 0
883 1 18.221365434618065 0.04326190243778533 26.00962041794393 0 0 0
887 1 22.483058607316778 0.11257120686602629 26.06334977156666 0 0 0
891 1 1.5052963384443854 3.798098215462387 25.949236719131584 0 0 0
892 1 -0.035863471634094424 5.896754695249227 25.805896825150974 0 0 0
890 1 1.9844890528332444 5.976878852933138 24.04251364957058 0 0 0
895 1 6.177591256583543 3.921274284039723 26.005537739715198 0 0 0
896 1 3.9591678406161277 6.294467308853136 25.796035781722008 0 0 0
894 1 6.260261521422299 6.24114145884374 24.00614019054826 0 0 0
899 1 10.07528133862321 3.925523177709901 25.871966212673307 0 0 0
900 1 8.157554249431957 6.104054583339886 26.182508791819007 0 0 0
898 1 10.1250835811227 6.103372415970377 23.950812791600775 0 0 0
904 1 12.144026811604125 6.009383433073561 25.81022725941598 0 0 0
905 1 16.609918713592066 3.962483813911983 24.170921476740467 0 0 0
903 1 14.20495278339296 4.1086941836137445 26.015315139355433 0 0 0
908 1 16.213001290722048 6.4654606946510365 25.887276847868733 0 0 0
907 1 18.503867105515 4.078125688353977 26.141658001128356 0 0 0
912 1 20.20710232570641 6.217048031116356 25.93339388553267 0 0 0
911 1 22.505283784306535 4.445398972793889 25.945050202417622 0 0 0
914 1 1.2153967439450006 9.928672601356897 24.028960279450814 0 0 0
915 1 1.6327279026561772 7.917885721425252 25.863900468778464 0 0 0
916 1 -0.19084985022691825 10.253580458343261 26.252020977168485 0 0 0
919 1 6.014670413960136 7.962064893641157 26.024949065990665 0 0 0
920 1 3.9576640058416706 9.981059182501644 25.982077746016927 0 0 0
918 1 5.943242676036264 9.908992937223385 24.236544383555003 0 0 0
921 1 8.263347537373251 8.030171840788947 24.447324622091084 0 0 0
923 1 10.184104093771074 8.337689209793934 26.287116677723894 0 0 0
924 1 7.99583265196679 10.326808089559755 26.10027262760988 0 0 0
928 1 12.08302776292376 10.328500872418894 26.17360905698453 0 0 0
927 1 14.305589534415223 8.417152253029458 26.054598220726053 0 0 0
931 1 18.151637101180157 8.264998431859466 25.71169777675418 0 0 0
936 1 20.118097512495936 10.327840026424225 26.172068665290755 0 0 0
935 1 22.643900478062527 7.8173534642955325 25.884707567049198 0 0 0
939 1 1.8507862775778912 12.058818527716632 25.882342673256847 0 0 0
943 1 5.922506069425526 11.990797951321335 25.65203690040103 0 0 0
945 1 7.996789447831096 12.113710500923654 24.05913128792546 0 0 0
947 1 9.99979011372751 12.27296443665893 26.436291259599965 0 0 0
949 1 12.097946691870408 12.124021289868711 23.95861185631078 0 0 0
932 1 16.4295292180729 10.401313655764621 25.912387934731512 0 0 0
951 1 14.088079321233707 12.389895522056216 26.074273049682194 0 0 0
926 1 14.24761028178085 10.507888139912918 24.001902045696387 0 0 0
955 1 18.219145120092378 12.480988127707674 26.153893625922816 0 0 0
959 1 22.211090367277933 11.98228370366819 25.866953452931437 0 0 0
963 1 1.7112019689477347 16.1907790712441 26.028349470799345 0 0 0
938 1 1.8248697124023119 14.125495572670104 23.96059535168594 0 0 0
944 1 3.892217115238184 13.973466014910572 25.941074248038866 0 0 0
967 1 6.030042572111662 16.188945700758538 25.936379731321708 0 0 0
946 1 10.197040298493812 14.368729386923455 24.078001510267498 0 0 0
948 1 7.9956912410462095 14.33903820078896 26.197040558891253 0 0 0
971 1 10.107268149888498 16.373740494103764 26.15299271373798 0 0 0
952 1 12.049963980812374 14.336986922927915 26.183038587212664 0 0 0
973 1 12.22044832993374 16.50488415394438 24.04697060946264 0 0 0
956 1 16.246998575256924 14.314465156886339 25.744912487848204 0 0 0
975 1 13.971649720298936 16.433864947271196 25.86973780860086 0 0 0
977 1 16.24160845338333 16.225625990788423 24.048450793581285 0 0 0
954 1 18.19432890143863 14.091790929058558 23.95300871323214 0 0 0
960 1 20.489235961955224 14.287667700484747 25.936441228031317 0 0 0
979 1 18.224378773442503 16.2120067537088 25.690092804795974 0 0 0
940 1 24.256528512568607 14.137804347015132 25.87249677817441 -1 0 0
983 1 22.58668481625307 16.350541042744588 25.887615592552603 0 0 0
962 1 1.713711110151634 18.613000445403472 24.163518550099177 0 0 0
987 1 2.2509265557976446 20.265109871751825 26.16644785428584 0 0 0
968 1 4.015642181259984 18.531397482528924 25.707744778749547 0 0 0
991 1 6.017512989587624 20.411473618227134 25.90917452812456 0 0 0
972 1 7.91150122268272 18.225541626240748 25.892783236895177 0 0 0
995 1 9.866010066939975 20.13782887642651 26.010693625161156 0 0 0
976 1 12.070343017691764 18.497602883373112 25.798562020929477 0 0 0
1001 1 16.25638879451509 20.376682826648945 24.127954373221453 0 0 0
999 1 14.219222034851494 20.540824903133498 26.13125070281708 0 0 0
980 1 16.518395331584685 18.647523864826773 26.115100594239955 0 0 0
984 1 20.48883026973374 18.46739286837274 25.742800629695704 0 0 0
1003 1 18.35681270494735 20.475033248653865 26.159637066213026 0 0 0
978 1 18.320386306763695 18.33594809603217 23.96412437826369 0 0 0
964 1 24.51223374708918 18.445214643611735 25.691126134990167 -1 0 0
1007 1 22.604360899203932 20.69168381612704 26.099414535302497 0 0 0
867 1 2.0665545139344355 24.43255323021487 26.117565498018497 0 -1 0
988 1 0.13305966727331425 22.45633242913852 25.926382511348493 0 0 0
990 1 5.8685501450443995 22.501560640695295 24.19054676197824 0 0 0
992 1 3.715122683767112 22.468383465640706 25.682910475054307 0 0 0
994 1 10.374064283850435 22.764308801169527 24.581721636683728 0 0 0
996 1 8.066863079329995 22.573521351872508 26.25823570124943 0 0 0
873 1 8.255952545398925 24.413593850381357 24.013742404307052 0 -1 0
1000 1 12.251848938311404 22.379010246165237 26.22403507320028 0 0 0
1004 1 16.497073080346013 22.308021719830343 26.097230521904493 0 0 0
1008 1 20.469471691933123 22.27661660285179 25.644706148692965 0 0 0
885 1 20.531719915623228 24.468547901093537 24.06812214459935 0 -1 0
1002 1 18.17356694637362 22.684006359707155 24.080830694462463 0 0 0
1010 1 1.7347451144418418 2.144797923307746 28.241417363179792 0 0 0
1012 1 -0.20966187872680564 2.1178690988101403 30.30456781374114 0 0 0
1011 1 1.8219411531253242 0.07677468622445702 30.582156093805697 0 0 0
1009 1 -0.17259028027385076 0.7629983806386358 28.140722792588193 0 0 0
1014 1 5.8677591998891465 2.0301307057045515 28.363431058042057 0 0 0
1016 1 3.8750352373731367 1.8292476170641794 30.149237515163243 0 0 0
1015 1 5.947824696645651 0.05460392261836666 30.361273380116952 0 0 0
1018 1 9.880750816473332 1.9810711723663523 27.98194265699403 0 0 0
1020 1 7.779855902005844 1.8715042587827715 30.05299162067732 0 0 0
1019 1 9.939915733467787 -0.09124138445101265 30.013119021938362 0 0 0
1024 1 12.196464913387222 1.8819901777046284 30.103716077482048 0 0 0
1022 1 14.09546152531834 1.855465415717029 27.855982165202576 0 0 0
1028 1 16.135326148132293 1.8418782317545528 29.818293598319524 0 0 0
1026 1 18.446368442593467 1.5849242355041324 28.221691223854396 0 0 0
1032 1 20.25190713544272 2.415105376057718 30.300196847221876 0 0 0
1027 1 18.197977726664675 -0.10000361501147657 30.14496752518401 0 0 0
1029 1 20.52847087206692 -0.10524356127613312 28.299122751845914 0 0 0
1030 1 22.261133184006177 2.4131163065671215 28.308836105383914 0 0 0
1031 1 22.47569190374405 -0.09514145781942318 30.476875244637167 0 0 0
1034 1 1.9879952142916326 6.032215628404437 27.800579399542006 0 0 0
1035 1 1.6419240390735628 4.2798631360986565 30.239833901096436 0 0 0
1037 1 3.8111402263960743 3.829804775729052 28.265463188446336 0 0 0
1038 1 5.981965730818704 6.017817721270286 27.770039112826858 0 0 0
1039 1 6.039834802625394 4.003285967993681 30.19618992289802 0 0 0
1040 1 3.7529520387043154 5.941938016734672 30.036062951623553 0 0 0
1041 1 7.869246033317138 4.091918653753605 28.07725784792491 0 0 0
1042 1 10.112550751907621 6.162451236409658 27.852432052098916 0 0 0
1043 1 10.219113442994036 3.7651660298565277 29.827266965449795 0 0 0
1044 1 8.095136701749587 6.140236855044338 29.90282354883672 0 0 0
1045 1 12.008590041139255 3.9257607593397967 27.983116738725492 0 0 0
1048 1 12.131174435564969 6.025033515391576 29.955134145166053 0 0 0
1047 1 13.905244617228007 3.9503729723242005 29.649003925602035 0 0 0
1046 1 14.146113247169245 6.339832821713512 28.072262652932473 0 0 0
1049 1 16.181001999753278 4.435039738086081 27.970210049871316 0 0 0
1052 1 16.186823072271245 6.256161843032861 30.282835727726997 0 0 0
1050 1 18.18498442191921 6.169022499483703 28.00034422386465 0 0 0
1051 1 18.136304265874344 4.169883309623399 29.771195279336148 0 0 0
1053 1 20.260657058614406 4.157777160528921 27.690026055256315 0 0 0
1056 1 20.278565258928616 6.254104935645219 30.23185127679643 0 0 0
1036 1 24.35553685160216 6.022559992783056 30.038159427151427 -1 0 0
1033 1 24.34260723652883 4.1485931962869715 27.88111158381651 -1 0 0
1054 1 22.16083810701867 6.074452593480195 28.222859507488213 0 0 0
1055 1 22.35703197305157 4.2579965345387345 29.941308988179383 0 0 0
1058 1 1.7615162068452341 9.88801338683847 28.216552012621996 0 0 0
1059 1 1.6567118066805473 8.052763380220554 30.131025621048188 0 0 0
1061 1 3.9114117126776016 7.939474406072959 28.065133802853808 0 0 0
1063 1 5.758800906850171 8.033350678763753 29.943994052644832 0 0 0
1062 1 5.8448417010995835 9.936406781229756 28.112298239752004 0 0 0
1064 1 3.9770798025682934 10.375850850850428 30.017984103938517 0 0 0
1065 1 8.211811987013476 8.29420008495921 28.08092540701353 0 0 0
1066 1 10.358423493005622 10.242941772555787 28.262344130311355 0 0 0
1067 1 10.171923994307319 8.04075229481271 30.122080710654714 0 0 0
1068 1 7.948394116780806 9.955590331340055 30.10121493701164 0 0 0
1069 1 12.278851920730055 8.208046048473433 28.096938803193023 0 0 0
1072 1 12.326026323744085 10.167739930879927 30.023337589787676 0 0 0
1071 1 14.17933456508963 8.114752964038502 30.302484698329074 0 0 0
1073 1 16.372594813478706 8.407437791754399 28.030348116490345 0 0 0
1076 1 16.55720443067372 10.025539271899918 30.202565740543495 0 0 0
1070 1 14.31994081655966 10.339738608240292 28.02970805245004 0 0 0
1074 1 18.502052316914238 10.237091971114163 28.209376969822994 0 0 0
1075 1 18.283915026137677 7.935315992269263 29.7778876295224 0 0 0
1077 1 20.393223696245315 7.9999172306678545 27.709877919000867 0 0 0
1080 1 20.23982820290631 9.768739865499022 30.14347260122752 0 0 0
1057 1 24.42449166553574 7.789820853349801 28.062419810423 -1 0 0
1078 1 22.369556868732218 9.96518785055751 27.99296133739677 0 0 0
1079 1 22.42092844320252 7.8567436611655435 30.176254930111533 0 0 0
1083 1 1.7847822487148244 12.182305578041964 30.130745990863502 0 0 0
1085 1 3.5943576301438123 11.446315187071672 27.676142829028887 0 0 0
1087 1 6.004510826928465 12.23278420862844 30.178449621610994 0 0 0
1086 1 5.801059822861098 13.62254987813515 28.0622239281298 0 0 0
1089 1 8.295874532530595 12.12090662049563 28.274886026052464 0 0 0
1091 1 10.308145859802 12.340011568862268 30.214259260302747 0 0 0
1093 1 12.394011338714348 12.275345932423356 28.087855141292206 0 0 0
1095 1 14.281373373086378 12.268121408420832 29.99210472354918 0 0 0
1097 1 16.42342201056377 12.314675931004516 27.861955136797672 0 0 0
1099 1 18.313099623718877 12.222767386509197 30.16012752896242 0 0 0
1101 1 20.22743896240059 12.507746476179909 28.05985553491571 0 0 0
1104 1 20.515794262103164 13.862817417997334 30.333953836339436 0 0 0
1060 1 24.351608775098896 10.444745625168272 30.054167980830236 -1 0 0
1081 1 24.372681600880007 12.118160749644865 27.750747030924387 -1 0 0
1103 1 22.29288450128218 11.881920681898327 30.03244422823474 0 0 0
1082 1 1.7787657727588466 14.116296260583468 27.713814730425963 0 0 0
1107 1 1.9290603228897982 16.005721953937076 29.78340987687012 0 0 0
1088 1 3.9136444332371942 14.052678501770536 30.29866948326261 0 0 0
1109 1 4.038276138098694 15.766431280510854 27.748609913695816 0 0 0
1111 1 6.025445759845844 15.732720957603552 30.196171200308655 0 0 0
1090 1 9.967532022890412 14.389054882383968 28.41954724684721 0 0 0
1092 1 8.0920743691968 13.972988948077003 30.319687433392126 0 0 0
1113 1 7.866699251349928 15.952697728555338 28.23128537048034 0 0 0
1115 1 10.315284208479724 16.143060989527818 29.852738363304017 0 0 0
1096 1 12.39061875486876 14.132290445585754 30.1525027995965 0 0 0
1117 1 12.096459922901925 16.79938441653752 27.987413913541644 0 0 0
1119 1 14.186610344390207 16.202185053428842 29.954200693820912 0 0 0
1094 1 14.4543772892149 14.245188800343849 28.132184750031257 0 0 0
1100 1 16.35232891868248 14.196781223263232 30.13268132675932 0 0 0
1121 1 16.143998781884832 16.47779593139647 27.84743516676512 0 0 0
1098 1 18.649168654653934 14.881081550207178 28.11478552229284 0 0 0
1123 1 18.119224076425674 16.500034599487307 30.157142669883232 0 0 0
1125 1 20.398073656227837 16.34765118017266 27.764683946609964 0 0 0
1102 1 22.26067229010728 14.274519520663802 28.094400525555628 0 0 0
1084 1 24.398842660239538 14.370112602194885 30.07143201821163 -1 0 0
1105 1 24.369728394652626 16.241411076190296 27.94109159259542 -1 0 0
1127 1 22.409209581799757 16.49782841726283 30.167837493376464 0 0 0
1106 1 1.5420487533632532 18.45461453940672 28.158152547871918 0 0 0
1131 1 1.714684424309677 20.581069998188383 30.44728118074554 0 0 0
1108 1 -0.19991004267084672 17.817158531675126 30.23144097974301 0 0 0
1110 1 5.90029676254369 17.93337320537995 27.83550146965116 0 0 0
1112 1 4.051858895452464 17.75353647255504 29.832877982694473 0 0 0
1133 1 3.813143568511725 20.261147276571997 28.180792331117807 0 0 0
1135 1 5.717348252637644 19.995010132629055 29.774957646904955 0 0 0
1116 1 7.888693827233833 17.944786760711963 30.16195919781272 0 0 0
1137 1 7.982898343669181 20.19544287918884 28.01896164939142 0 0 0
1139 1 10.069886981121908 20.124034981482474 30.317244096293468 0 0 0
1114 1 9.701057234357416 18.501569051982557 28.263637956876202 0 0 0
1120 1 12.1301406560832 18.27736446453632 30.197139258286327 0 0 0
1141 1 12.12109896915572 20.194524331973938 28.1185139955136 0 0 0
1143 1 13.777089665488607 20.798171843684784 30.39083526719123 0 0 0
1118 1 14.204491444623002 18.52159966519764 28.154084917941663 0 0 0
1124 1 16.116834965977056 18.369207648463302 29.966228403145685 0 0 0
1145 1 16.24940188379317 20.423733426423873 28.264825453435197 0 0 0
1122 1 18.41561837745217 18.21403428814186 28.099740488251374 0 0 0
1128 1 20.22461877959583 18.314760552316038 30.026177975621533 0 0 0
1147 1 18.330336262019124 20.443805561330755 30.411478392597473 0 0 0
1149 1 20.339864341953962 20.39060633509694 27.577780557758768 0 0 0
1129 1 24.501591576096136 20.511018745135864 28.010645180844314 -1 0 0
1126 1 22.63015230780595 18.420785845117557 27.942385591698017 0 0 0
1151 1 22.497691322912907 20.275641972112396 29.905600335678283 0 0 0
1130 1 1.628127561665018 22.89144058992317 28.20857971556415 0 0 0
1013 1 3.9603192658052073 24.328717362347035 28.50825772641235 0 -1 0
1134 1 6.028980862481682 22.25255857339321 28.146306636154655 0 0 0
1136 1 4.000666707153906 22.226100552301574 30.115918905397034 0 0 0
1017 1 7.783595677854356 24.332541213589945 28.28251377678195 0 -1 0
1138 1 10.108985577374318 22.498876115406723 28.099537330099086 0 0 0
1140 1 8.010122756646798 22.36154399358064 30.081309150297106 0 0 0
1021 1 12.308094066168787 24.41352292507135 28.052770894608518 0 -1 0
1144 1 12.120940487465749 22.75123621610703 30.448354983343563 0 0 0
1025 1 16.397384027258227 24.38518776269046 27.99545277094138 0 -1 0
1023 1 14.134632292438745 24.47148402875384 30.004869267743103 0 -1 0
1142 1 14.15082088835303 22.53317177082092 28.072704640134646 0 0 0
1148 1 16.398159278551958 22.509621439709107 29.75183526289528 0 0 0
1146 1 18.730036616338055 22.41977076620173 28.224755358115104 0 0 0
1152 1 20.583765509995686 22.60507390377262 30.491086588435817 0 0 0
1132 1 24.454512600334176 22.779912416845285 29.934360070954025 -1 0 0
1150 1 22.383988172027998 22.748367103518085 28.04231978562542 0 0 0
1154 1 1.9212365742162425 2.07275723542215 32.32336357501844 0 0 0
1156 1 -0.16888798992354737 2.1362547273595673 33.930876718587534 0 0 0
1158 1 5.892844170140208 2.0491776799173276 32.406702744129745 0 0 0
1160 1 3.6150170231380883 2.16133268329446 34.050130547799384 0 0 0
1162 1 9.879522220618218 1.9768725927674233 32.201596968292904 0 0 0
1164 1 7.786305345282084 1.8330393293000764 34.1604087456427 0 0 0
1168 1 12.257526232225834 2.12053837637274 34.02445046164935 0 0 0
1165 1 12.174569620106025 0.01793003806243143 32.34946962647936 0 0 0
1166 1 14.207819552405098 1.861569709254753 32.029291885154805 0 0 0
1172 1 16.095607777819133 2.0318773094910316 34.384411981441836 0 0 0
1170 1 18.09747943062969 1.8685781950009757 32.214725163490904 0 0 0
1176 1 20.428845483289102 2.095495942009481 34.118923446953026 0 0 0
1171 1 18.573113025318186 0.21086133912155508 34.340894920389445 0 0 0
1173 1 20.133163387559513 -0.008529466733159463 32.19815838226604 0 0 0
1174 1 22.509152644061587 2.1180834258286576 32.00865104588666 0 0 0
1175 1 22.383737508049627 0.08861011679726022 34.29188549734198 0 0 0
1178 1 1.6977216551838548 6.4609970992799655 32.311546150216074 0 0 0
1180 1 -0.05321150154538057 6.218891632336591 34.306716945482734 0 0 0
1179 1 1.7522796442579283 4.057494060345148 34.47164803920896 0 0 0
1181 1 3.7484339397599498 4.256024792755135 31.879621074689027 0 0 0
1182 1 6.025569300757955 6.097000245770842 32.05308989547188 0 0 0
1183 1 5.786174862192185 4.155067275248484 34.15303048522311 0 0 0
1184 1 3.612697875254205 5.919285890168497 34.02760465245863 0 0 0
1185 1 7.756364943778984 4.087888295742614 32.30020856141386 0 0 0
1186 1 9.870822152904568 5.697368882268538 31.81402931076122 0 0 0
1188 1 8.25912328884076 6.161281808834261 34.1415182073932 0 0 0
1187 1 9.990081472009985 4.208027009717229 34.32227362547154 0 0 0
1189 1 12.162676173607673 4.158139992669168 32.03034780953249 0 0 0
1192 1 12.327087876638924 5.8130844370863555 34.278135859338704 0 0 0
1190 1 14.085709309357505 6.087548240867165 32.23782915680126 0 0 0
1191 1 14.156309988804555 3.825380282052763 34.12690131182457 0 0 0
1193 1 15.990050204340251 4.089334535898185 31.913340300277618 0 0 0
1196 1 15.904450080407097 6.243650468940181 34.37809328925511 0 0 0
1195 1 18.007886579877628 4.478596246309108 34.21247361293721 0 0 0
1194 1 18.21948432929417 6.096010189319632 32.196142735129335 0 0 0
1197 1 20.46912490812778 4.048995109736627 32.70582213799383 0 0 0
1177 1 24.481291244288983 4.3796686507864795 32.23686598675884 -1 0 0
1198 1 22.26666804077498 6.077832059433516 32.139062929867045 0 0 0
1199 1 22.428492821707188 4.474388759478977 34.4069204421008 0 0 0
1203 1 1.761469950473216 8.285017192017627 33.9328267285675 0 0 0
1202 1 1.5142884198781497 10.000332961619351 32.0042466819225 0 0 0
1205 1 3.8613073453058817 8.055798856296521 32.2384088464878 0 0 0
1206 1 6.007686658761977 10.092738713239603 32.18089060656445 0 0 0
1207 1 5.93220310278944 8.420034300217804 34.25601088048814 0 0 0
1208 1 3.5177394759623706 10.35556427984065 34.11227766458726 0 0 0
1209 1 8.02587464795217 7.994013211709589 32.13197949403028 0 0 0
1210 1 9.981503730496712 9.985448894068872 31.95078578261913 0 0 0
1211 1 10.092569322948059 8.04375007325987 34.483507779752294 0 0 0
1212 1 8.045449041719701 10.288896567449473 34.11397715356429 0 0 0
1213 1 11.84504831324608 8.239574564464084 32.30788894293077 0 0 0
1216 1 12.24869841804828 10.075521478573698 34.350735150726905 0 0 0
1214 1 14.22903862408336 10.089840295604157 32.20116776694114 0 0 0
1217 1 15.971469662106395 8.240501088826608 32.28737109250275 0 0 0
1219 1 18.16457720651973 8.098369970780258 34.349384996593486 0 0 0
1221 1 20.04387495137933 8.112131600370008 32.24141611326859 0 0 0
1224 1 20.233389569144684 10.34201698889392 34.42202384347633 0 0 0
1218 1 18.352789679624678 10.020924208332312 32.401351492309466 0 0 0
1201 1 24.03174412311602 8.458896181966711 32.280345308100095 -1 0 0
1222 1 22.01320303290929 10.190150031280776 32.274945652297475 0 0 0
1227 1 1.6599989368413834 12.429589142385893 34.08642276221185 0 0 0
1229 1 3.681111060615177 11.996565962667187 32.085006129322174 0 0 0
1231 1 6.001148505372779 12.360551148398446 34.40721740667611 0 0 0
1232 1 3.943942988426615 13.795448614656687 34.34489051486952 0 0 0
1233 1 8.116290213426096 11.930073742935013 32.45324111159287 0 0 0
1235 1 10.415255519234671 12.126365904556438 34.108595583765364 0 0 0
1237 1 12.201256607254924 12.258677363650763 32.157263496145376 0 0 0
1220 1 16.470996081379916 10.452910173229204 34.10466202886696 0 0 0
1239 1 14.250325291548116 12.264465536280913 33.97517361399622 0 0 0
1241 1 16.058968843555164 12.128453993211531 31.85595893529998 0 0 0
1243 1 18.130803741807107 12.20784622128273 34.327775752569494 0 0 0
1245 1 20.62277973958262 12.040517111804883 32.139644348803635 0 0 0
1204 1 24.12269621375186 10.453168717284816 34.2608187673932 -1 0 0
1225 1 23.952590342467666 12.208755449310704 32.09548989243218 -1 0 0
1226 1 1.8049582746329578 14.031230382951456 31.842467461029358 0 0 0
1251 1 2.132681440769541 16.194186230002046 34.307842595311186 0 0 0
1228 1 -0.09929028592615197 14.304900069914268 34.13151783175912 0 0 0
1230 1 6.215287202482859 13.959037756197477 32.44140934324425 0 0 0
1253 1 3.945029749213303 15.826219703474809 32.32639981034722 0 0 0
1255 1 6.254666054572413 16.183174361888774 34.15565933497383 0 0 0
1234 1 10.210080085856893 14.251330902391842 32.21398970638789 0 0 0
1257 1 8.236477735555772 15.86914147387378 32.26302604372852 0 0 0
1259 1 10.241965343998508 16.254109763482106 34.270065663640864 0 0 0
1236 1 8.445961550181716 13.93279811395635 34.426912331681415 0 0 0
1240 1 12.36836054719187 14.030385809573653 34.192526453540445 0 0 0
1261 1 12.043979520023518 16.012501394926083 32.27285838033439 0 0 0
1263 1 14.295750097993597 16.19953032693654 34.189927970392766 0 0 0
1238 1 14.30795075089189 14.172628787356377 32.20878796733396 0 0 0
1244 1 16.442579400545725 14.21815136547588 34.04237513596259 0 0 0
1265 1 16.095067623224985 16.37626214799885 32.06191083176113 0 0 0
1248 1 20.048277448246367 14.321226516516926 34.31666312626662 0 0 0
1242 1 18.31690798860526 14.16191549222906 32.26570954364945 0 0 0
1267 1 18.39005810800743 16.292058754606337 34.271069512892026 0 0 0
1269 1 20.199742182665467 16.26862053744056 31.98651915967801 0 0 0
1249 1 24.499369916218875 16.391721256491948 32.601991496842516 -1 0 0
1246 1 22.35012691459459 14.661934748700988 32.367006073871806 0 0 0
1271 1 22.34849301753848 16.40703127851539 34.48990100958474 0 0 0
1250 1 1.8566783088185845 17.996928894847734 32.05484628376081 0 0 0
1275 1 2.1045478613874096 20.58634121697669 34.188218103584994 0 0 0
1273 1 0.062311791932209815 20.261964345158205 32.340434682662554 0 0 0
1254 1 6.008304632717629 18.25520661163909 31.89726281860461 0 0 0
1256 1 3.852516496228093 18.058593192394774 34.1648366973914 0 0 0
1277 1 3.9065975381613596 20.226324006766617 32.07176213043649 0 0 0
1279 1 6.117452774878004 20.092814205295227 34.21888727205048 0 0 0
1258 1 10.098300980164995 17.868232315910845 32.03233572119952 0 0 0
1260 1 8.18035010234919 18.37840521116739 34.242157006360635 0 0 0
1281 1 7.895971566493943 20.21083612537791 32.158160367083006 0 0 0
1283 1 10.1305317354412 20.346044674141417 34.23609838275439 0 0 0
1264 1 11.871433191174162 18.341377981540376 33.86953221156711 0 0 0
1285 1 11.972018233185798 20.56850613180162 32.109997721019745 0 0 0
1262 1 14.164096145463262 18.353337567302304 32.29934856997959 0 0 0
1268 1 16.276572702151626 18.41220681626188 34.06044306300798 0 0 0
1287 1 14.25588198275608 20.570559333726656 34.23662438844236 0 0 0
1289 1 16.107850300117647 20.491167177452702 31.768705982344343 0 0 0
1266 1 18.327674218579283 18.56286530491112 32.28850344830724 0 0 0
1272 1 20.40074418636867 18.477937157005762 33.97269722083751 0 0 0
1293 1 20.843172270258435 20.448956920814275 32.22802898776268 0 0 0
1270 1 22.66943272417982 18.364372010185058 32.09282905929071 0 0 0
1295 1 22.54173036218873 20.44081698821868 34.257024429084694 0 0 0
1274 1 2.2626953324535846 22.563173859997548 32.10472713690772 0 0 0
1155 1 1.8145297999332888 24.333738127248466 34.12701010805298 0 -1 0
1276 1 -0.1052969644741708 22.459154965678522 34.021702867798616 0 0 0
1157 1 4.080944586772568 24.313949163073904 32.24751524896221 0 -1 0
1278 1 6.103667762256399 22.389072016681304 32.42373177156367 0 0 0
1159 1 6.058896682335944 24.344468297573027 34.21884151374175 0 -1 0
1280 1 4.217376686553474 22.222549527072857 34.4118164695044 0 0 0
1161 1 8.114376020300348 24.10110155408826 32.19885678347382 0 -1 0
1163 1 9.977980211178053 24.100549318275057 34.1435619732266 0 -1 0
1282 1 10.262755322159219 22.396245273487054 32.094347058082285 0 0 0
1284 1 7.983269494374461 22.06330641118638 34.43959147776438 0 0 0
1288 1 12.216732841932593 22.36642409047898 34.30848141375098 0 0 0
1167 1 14.487343958901027 24.234723192154085 34.27700703019433 0 -1 0
1169 1 15.899343430800924 24.40297001765353 31.978515652312346 0 -1 0
1286 1 14.442559750937233 22.3388811346067 32.189325193010305 0 0 0
1292 1 16.330921043998003 22.44839239996098 34.00069262043732 0 0 0
1291 1 18.310675805446508 21.086217021133017 34.19028228079029 0 0 0
1290 1 18.16139080497622 22.958652401717025 32.14318388472697 0 0 0
1296 1 20.480384393235475 22.587725861772867 34.23540583300842 0 0 0
1153 1 24.088619328927336 24.28576243197743 32.34155117141554 -1 -1 0
1294 1 22.685227577556716 22.21097111070813 32.13902676767489 0 0 0
1298 1 2.0914696428143045 2.035584892234002 36.23255861029112 0 0 0
1297 1 0.11930289456609644 -0.042695572501620926 35.89820456033235 0 0 0
1302 1 5.85550027415835 1.965421891903313 36.42878985809442 0 0 0
1301 1 4.149367566283618 -0.021884308032154798 35.92574985483596 0 0 0
1306 1 10.030488847827849 2.3960797217323972 36.136375464774204 0 0 0
1308 1 8.064324715339605 2.211456481305465 38.029134497515 0 0 0
1310 1 14.307401989949621 1.8926978145252953 36.49161145061885 0 0 0
1313 1 16.326808567809074 -0.006908997980254461 36.319580343751994 0 0 0
1314 1 18.080194128528724 2.4075512106156474 36.39255837017644 0 0 0
1317 1 20.16875826221613 0.02552598793113206 36.44179459492109 0 0 0
1318 1 22.633975822694943 2.1705491609224423 36.036542166691255 0 0 0
1300 1 24.27152729233528 1.9045480041863998 38.03123209405205 -1 0 0
1322 1 1.6766877684775554 6.2044140334348805 36.271008526505796 0 0 0
1325 1 4.0031469431046425 4.164166394341966 36.294457261230136 0 0 0
1326 1 5.641076916351385 6.427180153401395 35.99099682134748 0 0 0
1329 1 8.047027479511033 4.413812516607358 36.24455789225864 0 0 0
1330 1 10.045038000399945 6.191680996746973 36.390441544688045 0 0 0
1333 1 12.212792838351954 4.038529605990369 36.23796219189465 0 0 0
1334 1 14.230778009656197 6.3849775328828455 36.68883454214775 0 0 0
1337 1 16.013963352353784 4.106454566170249 36.29186098367349 0 0 0
1200 1 20.29029835710201 6.407372221940508 34.57257488083249 0 0 0
1338 1 18.1195431199994 5.948653108884984 36.75154471035713 0 0 0
1341 1 20.090759171675735 4.064922182289235 36.03301479020072 0 0 0
1321 1 24.279028554789285 4.164726029779163 36.23532435721637 -1 0 0
1342 1 22.520559202517802 6.366909763220935 36.634469194890066 0 0 0
1346 1 1.6697319060373355 10.061304131422876 35.99235613409209 0 0 0
1349 1 3.9058901411126206 8.548171410840741 36.08276876186556 0 0 0
1350 1 5.816997683025157 10.362223045954952 36.289062955633796 0 0 0
1353 1 7.966756868134782 8.644926644420599 35.97617332313732 0 0 0
1354 1 9.839216870142117 10.218873249993138 36.20608793730404 0 0 0
1357 1 12.050820777063919 8.016737974115848 36.30518670329574 0 0 0
1215 1 14.10631724053855 8.302133211858164 34.53697630219207 0 0 0
1358 1 14.271414008945547 10.197954467857874 36.37427590848091 0 0 0
1361 1 16.38540084856396 8.192666387469657 36.37241985755133 0 0 0
1362 1 18.430921448419937 10.08114521541474 36.49412314629448 0 0 0
1365 1 20.196043162365292 7.991926738197838 36.83806723819356 0 0 0
1345 1 24.49123440084447 8.105537053952961 36.56359482788721 -1 0 0
1223 1 22.402670791757437 8.052656522349311 34.623929053877944 0 0 0
1366 1 21.989448014846246 10.347843789066426 36.464481612383075 0 0 0
1373 1 3.8790600570408804 11.959632587865052 36.53536408687183 0 0 0
1377 1 7.917683078236216 12.429811840376184 36.531265836697585 0 0 0
1381 1 11.968792751949861 12.446072892450943 36.36667704747763 0 0 0
1385 1 15.945425439704374 11.997413617374526 36.50793838440073 0 0 0
1389 1 20.32318454560967 12.598590894691096 36.53017741682039 0 0 0
1247 1 22.3067079890143 12.250054591047965 34.54044607283893 0 0 0
1369 1 24.21609399086382 12.768662802753255 36.50560068056961 -1 0 0
1348 1 24.494101763560604 10.638618374035373 37.9397359765319 -1 0 0
1370 1 1.8961904056710814 14.07019781759326 36.51820241085207 0 0 0
1393 1 -0.06547486637330194 16.204192350917218 36.19587016468168 0 0 0
1374 1 5.986749848201349 14.47709436977386 36.22335693461945 0 0 0
1397 1 3.9264931505115284 16.26524278672825 36.22017397168213 0 0 0
1378 1 10.031330487206251 14.437274110777542 36.51508893283704 0 0 0
1401 1 8.26713678592332 16.361055859616798 36.3154538366263 0 0 0
1405 1 12.210621168317092 16.412732058788713 36.20232633342944 0 0 0
1382 1 13.872636746288672 14.338851865432863 36.216751952889354 0 0 0
1409 1 16.159885673324084 16.220614659933887 36.12755081884298 0 0 0
1386 1 18.1393695777652 14.201026859567007 36.400234013793025 0 0 0
1413 1 20.346065061289288 16.491452906447 36.26644895187026 0 0 0
1390 1 22.141399119778846 14.591886377678746 36.049606021106094 0 0 0
1252 1 -0.0957224668918171 18.591660342581 34.53481053091226 0 0 0
1394 1 1.6677150305772341 18.50534807907455 36.464387799596324 0 0 0
1417 1 3.1596342097373054e-05 20.667788398709746 36.08162485578608 0 0 0
1398 1 6.075233218928147 17.99163420744918 36.32311913745395 0 0 0
1421 1 4.20146053426259 20.253934059076194 36.0049458692968 0 0 0
1400 1 3.9415954038997976 18.226045653838476 38.00469263207281 0 0 0
1425 1 8.123578346688422 20.418396780572593 36.55834420054989 0 0 0
1402 1 10.167179040554672 18.413000518314398 36.22994766360411 0 0 0
1429 1 12.141655746346242 20.318984387192316 36.430129777048066 0 0 0
1406 1 14.392772878612364 18.40033201175359 36.02982307589552 0 0 0
1433 1 16.4309730507024 20.370573787771683 36.05428376437469 0 0 0
1412 1 16.522496012274438 18.369170013208603 37.85480116640016 0 0 0
1410 1 18.498628009544767 18.417318414356885 36.10483936300969 0 0 0
1437 1 20.408280341204808 20.21025971412935 36.00692680662051 0 0 0
1414 1 22.63588170222569 18.24936429033339 36.27115952403302 0 0 0
1418 1 1.8034868844126164 22.218274101594282 36.60064892051634 0 0 0
1422 1 6.200359162351194 22.424518140034117 36.367961822378575 0 0 0
1305 1 8.352406038722124 24.413356644529372 36.30877625498707 0 -1 0
1426 1 10.028108150278483 22.29781844244033 36.39398871817691 0 0 0
1309 1 12.264985046953463 24.257280473145403 36.1317688006214 0 -1 0
1430 1 14.250964337246204 22.45152853343196 36.53355089222794 0 0 0
1434 1 18.0530691094014 22.47530173308565 36.55348877908703 0 0 0
1438 1 22.577211315031526 22.588207051131484 36.221321014257256 0 0 0
1442 1 1.8380534967533428 1.9187688522637716 40.17415752957613 0 0 0
1304 1 3.7149362281827565 1.9768208604585777 38.22475667325715 0 0 0
1446 1 6.196113790831138 1.8593734162223075 40.156897499097546 0 0 0
1303 1 5.95964797310276 0.0020371672245502737 38.29710547621423 0 0 0
1450 1 10.130340339400792 2.193548078939677 40.434433058276696 0 0 0
1307 1 10.310032272329146 0.28240004979125327 38.40628794150292 0 0 0
1312 1 12.211989113228748 2.1806191609295547 38.417268761143106 0 0 0
1453 1 12.007193947697747 0.14072795746642847 40.23210400290455 0 0 0
1316 1 16.189554285775266 2.3932069733836503 38.43347986063007 0 0 0
1454 1 14.381717543152188 2.0148286048258863 40.284841614380774 0 0 0
1311 1 14.085715139502673 -0.12303383640502825 38.48636388178554 0 0 0
1457 1 16.26351344191223 -0.08887904125956367 40.16219921398711 0 0 0
1320 1 20.154749553619162 2.082005288139165 38.160186467628925 0 0 0
1458 1 18.320474904444957 2.0163891011516792 40.3286874408579 0 0 0
1315 1 18.35105985261655 -0.10317902921260763 38.49145652450018 0 0 0
1461 1 20.235582369860182 0.12385205189775961 40.53907629812564 0 0 0
1462 1 22.085716932560537 2.0675887603877956 40.46843890371697 0 0 0
1319 1 22.3549529753479 0.06983793192595969 38.35285263923193 0 0 0
1323 1 1.6308966542819423 3.9891010760317984 38.379551937968785 0 0 0
1466 1 1.6022019132512055 6.018235567143686 40.43797032976822 0 0 0
1327 1 5.820059402144086 4.10512233880545 38.18923203756109 0 0 0
1328 1 3.7233575708519964 6.13829337257461 38.41738453389281 0 0 0
1469 1 3.4952491959978396 3.996911707073888 40.285786436320265 0 0 0
1470 1 5.874721309293866 5.578608841494805 40.328515273917084 0 0 0
1332 1 7.939062663413003 6.316266321395987 38.076787021059054 0 0 0
1473 1 8.14269457150739 4.035228117795501 40.541527920798984 0 0 0
1474 1 10.156887308692605 6.176373394936595 40.48945679993487 0 0 0
1331 1 10.448437838773545 4.54520873834669 38.60070360312479 0 0 0
1336 1 12.307944823999774 6.5186482217 38.4968124018957 0 0 0
1477 1 11.998174656085165 4.371522477228374 40.68847505423657 0 0 0
1335 1 13.880209220918738 4.165415257983015 38.70898996902003 0 0 0
1478 1 13.993140280019086 6.160162272203491 40.828248653483385 0 0 0
1340 1 15.914611469928863 5.803450164468826 38.668736459667265 0 0 0
1481 1 16.488462569744193 3.9748942605884263 40.63563648086589 0 0 0
1339 1 18.334301729981746 4.203440962670856 38.803311175362914 0 0 0
1344 1 20.35181439945879 5.977456506033403 38.61534527844527 0 0 0
1482 1 18.145027123805924 6.359518878733766 40.78145602368856 0 0 0
1485 1 20.391259856182394 4.296977282660953 40.55662645463758 0 0 0
1324 1 24.33249628060723 5.964734628012812 38.4946232002024 -1 0 0
1465 1 24.29194393378603 3.722429746478246 40.12483291013043 -1 0 0
1343 1 22.369242925679004 3.9379974417029366 38.31861138307798 0 0 0
1486 1 22.58473157687493 5.924601486095465 40.4863992255463 0 0 0
1347 1 1.7443200392489084 8.272178240489259 38.59657168408614 0 0 0
1490 1 2.057810028442378 10.235477610759373 40.70005343730299 0 0 0
1489 1 -0.028972391784320206 7.9997271887135675 40.66589790238099 0 0 0
1351 1 5.8372573890793005 8.43814279414604 38.422758717271826 0 0 0
1493 1 3.7489544632385914 7.939309639987236 40.34213033877714 0 0 0
1494 1 5.942016362795069 10.309812901340552 40.68371953935182 0 0 0
1352 1 3.7425147508788874 9.908652584248667 38.45689449389335 0 0 0
1355 1 9.956486205690876 8.298090531141844 38.45745469190983 0 0 0
1356 1 7.834432434400524 10.159362823833671 38.31299157659246 0 0 0
1497 1 7.7931940196849805 8.090204931826275 40.19455123424795 0 0 0
1498 1 10.077413300681737 10.335813339238381 40.23770908399727 0 0 0
1360 1 12.150699573224372 10.220651589428819 38.13532711084087 0 0 0
1501 1 12.010298458604815 8.317046185991419 40.610659722276466 0 0 0
1359 1 13.949254260809303 8.299916994890975 38.57306081718499 0 0 0
1364 1 16.185115483293373 9.932751114973378 38.61536579939422 0 0 0
1505 1 16.07685875839732 8.108259456103903 40.63961259543434 0 0 0
1502 1 14.18168828291607 10.366617039487974 40.49994028621076 0 0 0
1363 1 17.97765223008475 8.212523054956675 38.67062980643222 0 0 0
1506 1 18.262505757011603 10.203359154374779 40.233129571150855 0 0 0
1509 1 20.50764224186714 8.59844052141338 40.64375866674547 0 0 0
1367 1 22.41038090072484 8.316551344114245 38.637425049344685 0 0 0
1371 1 1.94947294703308 12.161308848845602 38.70939104602824 0 0 0
1375 1 5.756509398472186 12.319002592692756 38.36443662965764 0 0 0
1517 1 3.900526591452607 12.33046419361447 40.52702883424858 0 0 0
1379 1 9.907072191083278 12.35946086291918 38.47089110290983 0 0 0
1521 1 8.100786545727319 12.131104243088144 40.61845959143166 0 0 0
1525 1 12.094614366290246 12.516875943975498 40.19874855047181 0 0 0
1383 1 14.177331392354938 12.26015706485177 38.32672589016531 0 0 0
1529 1 16.28332224064112 12.459348087246555 40.610855241914756 0 0 0
1368 1 20.29394279312089 10.541173432730352 38.65462156265471 0 0 0
1387 1 18.238168153309076 12.306444273042183 38.34587396148602 0 0 0
1533 1 20.249553864638514 12.324511578195638 40.5797584764212 0 0 0
1510 1 22.569413459903302 10.444170301115513 40.30183660983133 0 0 0
1513 1 24.3410020443958 12.23598171134122 40.12360549712166 -1 0 0
1391 1 22.430591755598137 12.473702085374605 38.51032640895805 0 0 0
1395 1 2.0486788756928873 16.295356127392395 38.531685782947115 0 0 0
1514 1 1.8872772053399443 14.18228414255627 40.91193369202447 0 0 0
1537 1 -0.06720666766514682 16.239087420596675 40.46082994702297 0 0 0
1376 1 3.85339382481696 14.444203565990286 38.53216105432852 0 0 0
1399 1 6.185884490613605 16.09884082456705 38.42123826669387 0 0 0
1518 1 6.0204343574023484 14.282157447492935 40.45775172110873 0 0 0
1541 1 4.193617508342048 16.261047635118892 40.438251605241724 0 0 0
1380 1 7.865830571752674 14.338041971680404 38.38911203674477 0 0 0
1403 1 10.198599358181008 16.60954573626855 38.250946622169955 0 0 0
1522 1 9.844583814682561 14.353581355461781 40.355055322834936 0 0 0
1545 1 8.111091324527765 16.470963797731777 40.53839632671365 0 0 0
1384 1 11.889654758440662 14.21038773196181 38.35956427445931 0 0 0
1549 1 12.131984246155582 16.42402888257414 40.51626865353167 0 0 0
1407 1 14.09281266855655 16.05924365876745 38.168087124235136 0 0 0
1388 1 16.44157152275244 14.426308778410002 38.25117869877409 0 0 0
1526 1 14.303526480579551 14.504604898103791 40.169322055971605 0 0 0
1553 1 16.166807949152826 16.70649840941671 40.29948880116987 0 0 0
1392 1 20.37317178231236 14.207108708299662 38.3635869407157 0 0 0
1411 1 18.515025135976714 16.18062881582881 38.36612760485717 0 0 0
1530 1 18.23668333828713 14.261840271341155 40.453537430228195 0 0 0
1557 1 20.426027248037833 16.50986437778875 40.33284079845915 0 0 0
1415 1 22.46323859584318 16.506420732579997 38.3409828019809 0 0 0
1372 1 24.491131988525794 14.305433119615296 38.56170947751299 -1 0 0
1534 1 22.499696934115192 14.535623643998045 40.33090990727246 0 0 0
1419 1 1.8880269958551898 20.351274221695157 38.405264008533784 0 0 0
1538 1 2.1331815162140053 18.363795830963305 40.41134376735212 0 0 0
1396 1 -0.06153202467813937 18.309381735559967 38.692207734519855 0 0 0
1561 1 -0.14572625358913727 20.388495856147692 40.352815168697724 0 0 0
1423 1 6.015737228204198 20.08570513726137 38.292183626880146 0 0 0
1542 1 5.962707144257481 18.266488742497536 40.30189522861827 0 0 0
1565 1 4.0712788625908445 20.332347614775564 40.42815757807252 0 0 0
1404 1 8.12021178687157 18.191411394509764 38.238444812733526 0 0 0
1427 1 10.215306160714354 20.437787529226853 38.608453816610435 0 0 0
1546 1 10.04551082763796 18.361418432009266 40.29978863216353 0 0 0
1569 1 7.893924588690551 20.221209331752355 40.23119257091455 0 0 0
1408 1 12.277550441533222 18.394908423830962 38.22927279675229 0 0 0
1573 1 12.153876130486339 20.46671011953061 40.28443286769946 0 0 0
1431 1 14.494829083337281 20.31795575838533 38.42345064229321 0 0 0
1550 1 14.092869329856159 18.546834109686188 40.47631333592203 0 0 0
1577 1 16.320503420753276 19.928653656911976 40.267092897707904 0 0 0
1435 1 18.586676524034758 20.362340762326163 38.377901251297615 0 0 0
1416 1 20.506475093873014 18.415000968318942 38.15428335654311 0 0 0
1554 1 18.43564738528488 18.41225493823714 40.23062377713415 0 0 0
1581 1 20.54523462936953 20.32626471350663 40.292010072960196 0 0 0
1439 1 22.582644165552864 20.60462436893073 38.12848476445181 0 0 0
1558 1 22.672933947506472 18.392045098308593 40.3343896118267 0 0 0
1441 1 -0.1591384788468726 24.356685796538507 40.04783011389721 0 -1 0
1299 1 2.0962701220704476 24.45206591204927 38.286135007915576 0 -1 0
1562 1 2.025875192005856 22.503878758622157 40.13705582431326 0 0 0
1424 1 4.178027567487675 22.36370612956592 38.124419011484456 0 0 0
1445 1 3.8239128523575365 24.354721501518164 40.360247374471705 0 -1 0
1566 1 5.764921339073847 22.32595209925183 40.32666807323153 0 0 0
1449 1 7.826835644275903 24.0411958348622 40.28189871254129 0 -1 0
1428 1 7.9361897032600535 22.52891811388978 38.293215914386025 0 0 0
1570 1 10.052696284909441 22.475636455314593 40.143737595628416 0 0 0
1432 1 12.210433003031074 22.619308991078853 38.427970340354385 0 0 0
1436 1 16.021813551489664 22.6430683231438 38.52771099563342 0 0 0
1574 1 14.488377134227514 22.300836356489476 40.54461033276667 0 0 0
1440 1 20.607957973862995 22.623333829285464 38.25315449346027 0 0 0
1578 1 18.472419279227644 22.36053987519516 40.2126263695272 0 0 0
1420 1 24.445525922470154 22.778208923002346 38.22925444230196 -1 0 0
1582 1 22.60656568207623 22.420661393668226 40.31941724536831 0 0 0
1586 1 1.4663624740546797 1.9391993792464999 44.37704166944855 0 0 0
1443 1 1.654840372349384 -0.15688940517907213 42.09011701459461 0 0 0
1448 1 3.8845009297046245 1.7616390706171354 42.105035122728054 0 0 0
1590 1 5.948360614739843 1.93227533929428 44.220257713363786 0 0 0
1589 1 3.907283152146742 0.11643142979296783 44.63409606040938 0 0 0
1447 1 5.826642651375123 0.03205048099137997 42.284414570445556 0 0 0
1452 1 8.024898680553115 1.7840855250121321 42.3658860782279 0 0 0
1594 1 9.927621245296194 1.9143256733048966 44.23371048131169 0 0 0
1456 1 12.44072302714407 1.9827823727150413 42.40251858308584 0 0 0
1455 1 13.881785155060836 -0.1568663695645114 42.42836688749812 0 0 0
1460 1 16.31134854259411 1.9045529979081484 42.35500618364363 0 0 0
1598 1 14.276141090975628 1.7796669093249031 44.94449510025937 0 0 0
1464 1 20.184040713447544 2.3971414801581252 42.38950654006828 0 0 0
1602 1 18.26982588794803 1.9263230329926477 44.59882074338823 0 0 0
1459 1 18.09338688583815 -0.072827799874887 42.531836702089834 0 0 0
1605 1 20.298216770211013 -0.028167843809943777 44.10285424534212 0 0 0
1444 1 24.48255555929711 1.5549104036521058 42.0666378835076 -1 0 0
1606 1 22.396319382246205 1.86282753951411 44.491723312772265 0 0 0
1463 1 22.46187252349035 0.05318870087134872 42.2873309111329 0 0 0
1467 1 1.7567379963660081 3.8496981307337865 42.3600515354926 0 0 0
1468 1 -0.12362202607033343 6.19355332275398 42.65580759858722 0 0 0
1610 1 1.631994796779464 5.87440139509194 44.44158083382455 0 0 0
1609 1 -0.16977487839169925 3.9682471279686933 44.40797452629914 0 0 0
1471 1 5.944574741652335 3.7853749522863542 42.28779902074608 0 0 0
1472 1 3.9147710318428626 6.027392884511787 42.28904641016667 0 0 0
1613 1 3.8068949001793015 4.101114741068678 44.3329402577307 0 0 0
1614 1 6.249275561392392 5.952906595587278 44.743009228274595 0 0 0
1475 1 10.089979398743301 3.7010306329387346 42.40571060307308 0 0 0
1476 1 8.30373639544853 6.129016517197462 42.38418740038227 0 0 0
1617 1 7.942639148093585 3.845751098868317 44.18978977531615 0 0 0
1618 1 10.02761203652691 5.979459203641515 44.624238250680904 0 0 0
1480 1 11.932470318163967 6.306647779905427 42.70422567858908 0 0 0
1621 1 12.32293570361866 3.728024976354294 44.71293768730255 0 0 0
1479 1 14.315335181964775 3.979350876382198 42.53479553305944 0 0 0
1484 1 16.169097613813136 6.273628443447177 42.832408331165375 0 0 0
1622 1 14.257220432978546 6.0066833175229295 44.68884387031581 0 0 0
1625 1 16.3288253424707 3.8544967272834514 44.76560110808195 0 0 0
1483 1 18.287993090406438 4.30773417854687 42.636642083176184 0 0 0
1488 1 20.51090121981384 6.17759747673318 42.58830949669968 0 0 0
1626 1 18.276657973122553 6.185689004395656 44.88273049494227 0 0 0
1629 1 20.358830025421128 3.8605610239085326 44.79856648491516 0 0 0
1487 1 22.585348093683443 4.060772203833839 42.584296888542795 0 0 0
1630 1 22.63871177697591 6.0948773595118 44.73987441080834 0 0 0
1491 1 1.9069886550661073 8.2550363318661 42.35242989171778 0 0 0
1634 1 1.782604782986868 10.253477380326148 44.4577258897164 0 0 0
1495 1 6.032178889072576 7.909230582889283 42.65800374990644 0 0 0
1496 1 4.096731293072328 9.918938507324286 42.69230428862462 0 0 0
1637 1 4.143933488961902 7.613972667057021 44.57978358062626 0 0 0
1638 1 6.089877629965004 10.136409984111761 44.68125299523888 0 0 0
1641 1 8.255584312549463 7.8243589380299765 44.69926549763265 0 0 0
1642 1 10.108749945895786 10.37550266118362 44.5664102318964 0 0 0
1500 1 7.880306095564661 9.834130210353594 42.608224084105906 0 0 0
1499 1 9.714419935179565 8.46390185892215 42.50984595799684 0 0 0
1504 1 12.012345961965163 10.352528139057863 42.30715000702509 0 0 0
1645 1 11.870522189082166 8.191255044585176 44.47869584829684 0 0 0
1503 1 13.906046354620528 8.317691202803875 42.691436264059 0 0 0
1649 1 15.9877248942009 8.30154709959207 44.42426924396119 0 0 0
1507 1 18.199711750358645 8.423854793764887 42.849552435764295 0 0 0
1650 1 18.174342812662047 10.185559159209673 44.83089890540489 0 0 0
1653 1 20.558764092111538 8.088922905712824 44.56579895415471 0 0 0
1633 1 24.471956169332156 8.280855662318489 44.67710243756492 -1 0 0
1511 1 22.692562412142046 8.070110039963131 42.44053352739631 0 0 0
1654 1 22.626817499444222 10.260504968272965 44.58487787918762 0 0 0
1515 1 2.102463701279322 12.21421650187219 42.56935299232355 0 0 0
1657 1 -0.02098798309003322 12.168236525066192 44.640566947268844 0 0 0
1519 1 6.0946346293146325 12.336430671043992 42.3934803215898 0 0 0
1661 1 3.8895246843530966 12.292793671078618 44.80866655615285 0 0 0
1523 1 9.966834262579923 12.654606959045399 42.82908842797889 0 0 0
1665 1 8.156527603021294 12.420405443958854 44.531528919600916 0 0 0
1669 1 12.200570920629739 12.344105494778729 44.486374825742686 0 0 0
1646 1 14.371119858160505 10.453674184814087 44.913522977705405 0 0 0
1508 1 16.49035672193323 10.45923939906905 42.471945635465744 0 0 0
1527 1 14.365549875682712 12.639350297213484 42.61708148649303 0 0 0
1673 1 16.4898145397838 12.27325551826437 44.67511198106706 0 0 0
1512 1 20.821404427170712 10.690217817138675 42.42535143181386 0 0 0
1677 1 20.402393135534695 12.096733797502928 44.71595507042594 0 0 0
1531 1 18.3627259517125 12.306344496164838 42.73832807538666 0 0 0
1492 1 24.27787113460529 10.422094348273893 42.289932454567214 -1 0 0
1535 1 22.736730710327627 12.524000880482156 42.76803493536601 0 0 0
1658 1 2.044586480064871 14.077351888392123 44.86501224384875 0 0 0
1539 1 1.6442827543989738 16.423973741454134 42.37681978900249 0 0 0
1516 1 -0.02385275141852991 14.533458199433156 42.96060449198464 0 0 0
1685 1 4.186527469457532 16.215946559302857 44.64848955269899 0 0 0
1520 1 3.952117585263018 14.504481784137736 42.6807201079229 0 0 0
1543 1 6.055085045287836 16.478855374466157 42.270066798684674 0 0 0
1662 1 5.969654607958945 14.339206778480888 44.47741125086867 0 0 0
1666 1 10.190911930089042 14.522175873952728 44.533115639810106 0 0 0
1689 1 7.874505279380637 16.199046375599437 44.40499135876197 0 0 0
1524 1 7.911332958007177 14.56729383573798 42.418036752222854 0 0 0
1547 1 10.066400666195042 16.43834518208847 42.50607795731359 0 0 0
1693 1 12.498264827318838 16.483294649194768 44.43219991418827 0 0 0
1528 1 12.218601056544538 14.612142899866878 42.425578822799295 0 0 0
1697 1 16.390918693018875 16.213929120255635 44.681350202260106 0 0 0
1532 1 16.346091922849062 14.765123968887371 42.18874037227372 0 0 0
1551 1 14.165183448259915 16.619601154027464 42.50421416311712 0 0 0
1670 1 14.51286433265269 14.336686860727388 44.67644658693478 0 0 0
1674 1 18.525440607509182 14.372752202478697 44.78462364934745 0 0 0
1701 1 20.445913253086495 16.415486715025956 44.64633169702385 0 0 0
1536 1 20.474709026858903 14.153288633844047 42.42388063736887 0 0 0
1555 1 18.299792901267587 16.465811858016487 42.84602017967095 0 0 0
1681 1 24.37137974696401 16.2245914268145 44.61027238141995 -1 0 0
1678 1 22.353225891659342 14.232619167838573 44.6850768961736 0 0 0
1559 1 22.34547234923393 15.967975648362076 42.32835295988782 0 0 0
1682 1 1.9158631854509083 18.54580101562445 44.351907889100154 0 0 0
1563 1 2.034365022244565 20.459065420433426 42.12309396280236 0 0 0
1705 1 -0.11601445656995679 20.444224221328803 44.52082092143476 0 0 0
1540 1 -0.10322374548560692 18.46282869973095 42.357236472211795 0 0 0
1709 1 3.781246610213748 20.89627513926836 44.93231073053584 0 0 0
1686 1 6.132525519730949 18.608404602632717 44.74213435806585 0 0 0
1544 1 3.8295795076970762 18.189178398294885 42.48940921727305 0 0 0
1567 1 5.802011034058029 20.53048420496662 42.39601951197586 0 0 0
1713 1 7.7857998440585 20.90605318735726 44.38032811993557 0 0 0
1690 1 10.0818319100777 18.59915468257899 44.59710956503139 0 0 0
1548 1 7.94543275908142 18.625466389476763 42.71786173377693 0 0 0
1571 1 10.109158665215125 20.392778306983892 42.21986125536517 0 0 0
1552 1 12.067826577076227 18.50447684036383 42.33153359696203 0 0 0
1717 1 12.277089811452772 20.348897485965033 44.29167735696498 0 0 0
1721 1 16.43450278090114 20.73822164607642 44.65251543720596 0 0 0
1694 1 14.290122262133693 18.530270452081687 44.769855464660225 0 0 0
1556 1 16.397052302670552 18.34104141206754 42.81531752186776 0 0 0
1575 1 14.737283119188957 20.389571935713953 42.73317539770463 0 0 0
1725 1 20.481055464606726 20.45637431544752 44.55625976205466 0 0 0
1698 1 18.420317903024184 18.717825305548928 44.325452207094095 0 0 0
1560 1 20.600192579221122 18.29206906091332 42.32341191087868 0 0 0
1579 1 18.316204053736577 20.36241319098111 42.23675482616461 0 0 0
1702 1 22.713235639834913 18.24905265993342 44.30132318600367 0 0 0
1583 1 22.584347260864398 20.38080979758412 42.35450034666509 0 0 0
1706 1 1.839215501430802 22.78685877268549 44.257825962973214 0 0 0
1710 1 5.692178099019915 22.816618729244844 44.356200582648874 0 0 0
1568 1 3.7974125327519213 22.46426372411827 42.64790125478596 0 0 0
1593 1 7.9691995860723335 24.30552488818793 44.27498013605129 0 -1 0
1451 1 9.77041737879029 24.433344732299496 41.91363557738061 0 -1 0
1714 1 10.201078416313385 22.280117412949643 44.59626329088265 0 0 0
1572 1 8.002003305747786 22.461115112937122 42.357206366658936 0 0 0
1597 1 12.25600809581042 24.432983883946278 44.32956017742654 0 -1 0
1576 1 12.113361282861781 22.055451661091134 42.291935322273304 0 0 0
1601 1 16.177777556865138 24.450613403498824 44.29112320784654 0 -1 0
1718 1 14.268679127696306 22.732726379507007 44.48231526572929 0 0 0
1580 1 16.468523651947926 22.491794342820867 42.091067168618636 0 0 0
1722 1 18.446152833378363 22.36043385711116 44.56639457708643 0 0 0
1584 1 20.29004170396278 22.722584497468844 42.26254847419342 0 0 0
1585 1 24.284234159848545 24.264057680004 44.4121443589208 -1 -1 0
1564 1 24.44862014874704 22.303586618822727 42.53010975910943 -1 0 0
1726 1 22.35015891778084 22.407391629173382 44.601081329154646 0 0 0
1587 1 1.584455010742758 -0.0661805184272834 46.42709849684163 0 0 0
1591 1 6.1175659022427835 -0.027129130344729913 46.66569836480425 0 0 0
1733 1 3.71472195737175 0.10305627397564437 48.33642436800907 0 0 0
1592 1 3.7332885708064265 1.8878955131946258 46.34606308896773 0 0 0
1734 1 5.868603091951637 1.8033839637860205 48.43419458537064 0 0 0
1737 1 7.832402323375964 -0.06480240010884254 48.52731529709373 0 0 0
1595 1 10.2485844656696 -0.14551245832929283 46.08844135879477 0 0 0
1596 1 8.345196976313876 1.8936808001492569 46.53115018722325 0 0 0
1600 1 11.937433264123213 1.6974916660686403 46.61425691334582 0 0 0
1599 1 14.211320015078126 0.15808014965679656 46.94740179596063 0 0 0
1604 1 16.57307334521812 1.6104646463160248 46.5955413848037 0 0 0
1608 1 20.770447953192942 1.8822454731735734 46.70699399967377 0 0 0
1588 1 24.242323464498654 1.8145933282186426 46.6088561360848 -1 0 0
1754 1 1.7308057566996542 5.89148923883521 48.26013198929984 0 0 0
1611 1 1.7416812111518072 3.814844683215919 46.53860974723938 0 0 0
1757 1 3.902608247713581 3.8118655814920754 48.39719228988815 0 0 0
1615 1 6.122868144535425 3.880323608229209 46.41572367154758 0 0 0
1616 1 3.929758828269894 5.615980156885547 46.42969344386256 0 0 0
1758 1 6.0984295718171495 5.871342681544825 48.47987672130666 0 0 0
1619 1 10.14297607461962 4.054240102739673 46.703034513739716 0 0 0
1620 1 8.02563800657944 5.696098823966913 46.696374595896856 0 0 0
1762 1 10.057591949059656 6.081323297118659 48.22622337023233 0 0 0
1761 1 8.025979776691175 3.503160323624131 48.58835871008377 0 0 0
1624 1 12.15350844083902 5.817591567174813 46.580377588172084 0 0 0
1623 1 14.37263395469513 3.6900285706377742 46.89149299742852 0 0 0
1628 1 16.125371028399314 6.101997512558579 46.724671756985984 0 0 0
1627 1 18.219708486649843 4.049174794973137 46.828230395981734 0 0 0
1632 1 20.26878961619711 5.922608317533381 47.02958307880529 0 0 0
1612 1 24.388346092219543 6.4292648568489446 46.77291957882565 -1 0 0
1631 1 22.277913892830412 4.1030525683717265 46.675302505142625 0 0 0
1753 1 24.425402162031524 3.88909551496016 48.40435538952301 -1 0 0
1635 1 2.020943610730282 7.995865761937003 46.27097602929272 0 0 0
1778 1 1.8422178990668878 9.791676997230299 48.52077149637576 0 0 0
1781 1 4.031189729401139 7.689624287988579 48.2490879797497 0 0 0
1782 1 6.125419109909283 9.848072903011778 48.42346912669794 0 0 0
1639 1 6.128665899903349 7.930033814996033 46.412953312089165 0 0 0
1640 1 3.8845808591444895 10.137110804933345 46.88969067640859 0 0 0
1643 1 10.130933257901132 8.347113010048323 46.518072649215874 0 0 0
1644 1 7.856385629930175 10.16946109937102 46.40228702021458 0 0 0
1786 1 10.150683953862183 9.903349199621916 48.472240735360145 0 0 0
1785 1 8.199198846195502 7.797964610714074 48.56894221529013 0 0 0
1789 1 11.949504164569904 8.02936377925744 48.545548169165095 0 0 0
1648 1 12.132505211526714 10.221015781764477 46.617176579113945 0 0 0
1647 1 13.904539528574112 8.083694586276035 46.6697307477998 0 0 0
1652 1 16.208964865467564 9.789195132612129 46.7783285349778 0 0 0
1651 1 18.193852919156406 8.12336538265945 46.832718677819265 0 0 0
1656 1 20.54719391784348 10.150194689400136 46.82778198180065 0 0 0
1636 1 24.48233809912969 10.116206447809125 46.76107974729352 -1 0 0
1655 1 22.252700985618404 8.055674692162958 46.49937672617445 0 0 0
1659 1 1.720732178877412 12.170090757372854 46.82547996273582 0 0 0
1663 1 6.232249192796429 12.381639517624677 46.390217328446695 0 0 0
1667 1 10.275126074189014 12.11771062334259 46.79355743313831 0 0 0
1671 1 13.9921911654722 12.486431657196789 46.64040408565051 0 0 0
1675 1 18.301492000331223 11.819373119059994 46.85725902980526 0 0 0
1679 1 22.183916274249867 12.183600220171856 46.881340269697695 0 0 0
1660 1 24.300450505123422 13.908187510712157 47.01372105081473 -1 0 0
1683 1 1.7333318102223276 16.32824928391048 46.4996390110066 0 0 0
1829 1 3.6244070364893757 16.50537522971782 48.53952542669668 0 0 0
1687 1 6.091800713810666 16.320231497082567 46.58906135554117 0 0 0
1664 1 3.927804047346796 14.203444431967082 46.8883971914737 0 0 0
1668 1 8.271182004475005 14.50109855920368 46.185307473015804 0 0 0
1691 1 10.542846828609928 16.257178607712596 46.48984945394691 0 0 0
1672 1 12.12725984672978 14.141126515122023 46.46583592371356 0 0 0
1837 1 12.444024427492419 15.82878329220929 48.33070155215279 0 0 0
1695 1 14.333333976480318 16.286155734981868 46.44283773137401 0 0 0
1676 1 16.268437981786562 14.096688724219963 46.59516460132644 0 0 0
1841 1 16.404378239004743 16.037953932738375 48.52740332224042 0 0 0
1699 1 18.60913313208522 16.36276433277039 46.940013226827666 0 0 0
1680 1 20.099207232231855 14.147084187192949 46.8731226697043 0 0 0
1825 1 24.194335721159 16.342600213277713 48.5092165764257 -1 0 0
1703 1 22.27260243547851 16.244880557281704 46.492235327960906 0 0 0
1826 1 1.4824082987359357 18.40726326553571 48.29880709679488 0 0 0
1684 1 -0.12179365871760695 18.053702639649153 46.20792551281901 0 0 0
1707 1 1.588210275861124 20.579033614750173 46.79777261616886 0 0 0
1853 1 4.113680573559752 20.498539755276802 48.50397452724126 0 0 0
1688 1 3.5651422742302463 18.72369584867007 46.417367451021676 0 0 0
1711 1 5.92436292211219 20.057098240993106 46.54658174408752 0 0 0
1830 1 6.015014573867231 18.069170224343303 48.58354495617159 0 0 0
1692 1 8.06401137739726 18.361501763728434 46.77052129800078 0 0 0
1715 1 10.069864036459034 20.391563560090404 46.59499048598784 0 0 0
1696 1 12.425770649488841 18.492080202118004 46.79187586981668 0 0 0
1834 1 10.437713676507972 17.91499085299683 48.54810365683394 0 0 0
1719 1 14.394086278245291 20.614773999859615 46.45366268354505 0 0 0
1700 1 16.23903636010727 18.337981951766636 46.83155607136843 0 0 0
1723 1 18.40716498800459 20.420458052676118 46.52294856616043 0 0 0
1704 1 20.309406753619314 18.346813522201565 46.504460319125066 0 0 0
1846 1 22.524063670861388 18.29671302029304 48.53845763114441 0 0 0
1727 1 22.632318734600567 20.25191769211837 46.65781525163688 0 0 0
1729 1 -0.1837990128465631 24.167474285511595 48.46970676138695 0 -1 0
1712 1 3.863029908302239 22.934440126015716 46.70488188524233 0 0 0
1716 1 8.029063321887811 22.4338233848545 46.49632614375654 0 0 0
1858 1 10.055725105318613 22.268233534480807 48.52737341781292 0 0 0
1720 1 11.947631767297008 22.595590735819812 46.390615197218736 0 0 0
1741 1 12.136530161029267 24.25888451967841 48.56527970928157 0 -1 0
1724 1 16.293688517909963 22.451463850218616 46.65885655140269 0 0 0
1862 1 14.44063362553271 22.345695549467607 48.56420775487988 0 0 0
1728 1 20.318548065320833 22.426901998468523 46.33981537273408 0 0 0
1603 1 18.30769058034965 24.30814456042518 46.79996095107655 0 -1 0
1607 1 22.146687588424584 24.324045610413098 46.462674481088186 0 -1 0
1708 1 24.4368579007429 22.536201153950955 46.42111299411403 -1 0 0
1870 1 22.30064583599004 22.361976754566086 48.39223045470365 0 0 0
1731 1 1.4683492465146677 -0.05421008171582997 50.5218393772784 0 0 0
1732 1 -0.13913960240282108 2.032000549784132 50.61290531173104 0 0 0
1730 1 1.8273178894901108 1.9903717129556417 48.77729487756218 0 0 0
1736 1 4.171488838369895 1.8851104415887985 50.73795603410499 0 0 0
1735 1 6.032593677740582 0.015982864633859145 50.66207950638766 0 0 0
1740 1 8.297841640001106 1.683674424218241 50.968810704953455 0 0 0
1738 1 10.215867593096235 1.7790066686983892 48.939633616959185 0 0 0
1744 1 12.413083035407958 1.7773534677328164 50.682390167412926 0 0 0
1748 1 16.264912850047907 1.6270457755065402 50.91364547368395 0 0 0
1743 1 14.345169802948156 -0.13277933762192617 51.001751490271765 0 0 0
1769 1 16.400124794662034 3.3058826957980014 48.64652670770574 0 0 0
1745 1 16.246225428929264 0.08894254120639877 49.01946207632244 0 0 0
1742 1 14.338054676466749 1.7693840610472744 49.03079864264811 0 0 0
1752 1 20.48157993175643 1.9119672704922732 50.83944671624675 0 0 0
1746 1 18.5771060130118 1.7601386926121636 48.81094548247299 0 0 0
1751 1 22.721354847792398 -0.08979491299657383 50.786665350962174 0 0 0
1750 1 22.579844724602125 1.6687609408018638 48.692197555507896 0 0 0
1755 1 1.761464943603577 4.111054997389644 50.41936188021917 0 0 0
1759 1 5.981292185454096 3.561121953904081 50.4384199671983 0 0 0
1760 1 3.7550973553998936 5.946129493235 50.160800632722854 0 0 0
1764 1 8.528899526850571 5.567890580117054 50.42149654736657 0 0 0
1763 1 10.058307259987197 3.6103068857915876 51.170522783348 0 0 0
1768 1 12.071162888189644 6.081726950357448 50.8953546563898 0 0 0
1765 1 12.106234636074294 3.5458612735833888 48.66107260380225 0 0 0
1767 1 14.44317054781506 3.893588336372651 50.61004930795342 0 0 0
1772 1 16.377144027949548 5.829742815440642 50.44879726485312 0 0 0
1766 1 14.059461202736898 5.671584693828108 48.78969615898943 0 0 0
1771 1 18.139464842553522 3.946872322187864 51.03599625655619 0 0 0
1776 1 20.356179699995693 5.753648854492691 50.6778104950598 0 0 0
1773 1 20.13377314951878 3.674703378922837 48.76488089261745 0 0 0
1770 1 18.286265463485684 5.89426217191183 48.79550949786637 0 0 0
1774 1 22.45182944284815 6.100948511141881 48.64803376646874 0 0 0
1756 1 24.395615328455207 5.608966829496243 50.60001870411463 -1 0 0
1775 1 22.353604859778926 3.980111975780938 50.424424639472406 0 0 0
1779 1 1.3647829220879468 7.810248892320844 50.7512942159141 0 0 0
1780 1 -0.16196855656618167 9.943237346542894 50.53456663764138 0 0 0
1783 1 5.832736438475564 7.929892062356799 50.37702935783789 0 0 0
1784 1 3.8380939536481495 9.70333203329829 50.227306807932315 0 0 0
1788 1 8.162055793578444 9.99202828289264 50.67700444238669 0 0 0
1787 1 10.216780333857688 8.011920367135263 50.594276932294925 0 0 0
1792 1 12.536888888253895 9.7544536995596 50.85558204355595 0 0 0
1790 1 13.945946877348785 9.856016093414256 48.65638888424323 0 0 0
1791 1 14.153745659009646 7.740846760745047 50.5474395393765 0 0 0
1796 1 16.006420457104134 9.71138352645607 50.84834037060539 0 0 0
1793 1 16.530288839356125 7.841478837182306 49.1015452016895 0 0 0
1795 1 18.651182152405845 7.760930593679974 51.09524597018535 0 0 0
1800 1 20.426953378097096 9.899826453952263 50.58620881293963 0 0 0
1794 1 18.404357855309016 9.835111522385075 48.75997688762689 0 0 0
1797 1 20.44753402302068 7.735429221715203 48.918637641361556 0 0 0
1799 1 22.437929755373183 8.047551478751256 50.96087671837998 0 0 0
1798 1 22.481226208897994 10.067237869906855 48.670638468555765 0 0 0
1777 1 24.33927797586395 8.13911321604676 48.86205833067661 -1 0 0
1803 1 1.9818423429150562 12.08216200697841 50.63610576750724 0 0 0
1807 1 6.042967766740458 11.488664635621952 50.66895728882993 0 0 0
1805 1 4.01497104315472 12.114725743960772 48.72215507874177 0 0 0
1811 1 10.356524987125278 12.07041850233852 50.80876023410298 0 0 0
1809 1 8.367468822940932 11.910995956362223 48.73495899351784 0 0 0
1813 1 12.36713925726682 11.982513382724106 48.95447451653238 0 0 0
1815 1 14.285639060945426 11.765003596831733 50.81902461465412 0 0 0
1817 1 16.32485541924448 11.772366525052524 48.60177424416143 0 0 0
1821 1 20.467418221177788 12.124949798975086 48.87958536616316 0 0 0
1819 1 18.24234729533402 11.62840682755792 50.63893935113612 0 0 0
1823 1 22.79866532284678 12.040359007837274 50.844635428358565 0 0 0
1801 1 24.35265038744557 11.925922585378139 48.71053963570806 -1 0 0
1827 1 1.5202958641875337 16.15384338730248 50.50885676437495 0 0 0
1804 1 -0.1660870120107067 14.027024765846017 50.62169560267671 0 0 0
1802 1 1.7995614969917235 14.343753752619598 48.66968309128988 0 0 0
1808 1 3.9565958203346883 14.593657216805205 50.427170664037185 0 0 0
1831 1 5.9880050798215185 16.29783703780626 50.72367046083192 0 0 0
1806 1 6.124694166544392 13.912719755992386 48.7646371995398 0 0 0
1812 1 8.27912909782969 14.013022922401994 50.687678498964424 0 0 0
1835 1 10.29498918490638 16.108414229325177 50.544521933310754 0 0 0
1833 1 8.157284596145104 16.00328048864168 48.724874319619396 0 0 0
1810 1 10.21353532716693 14.136773162776347 48.74218287690775 0 0 0
1816 1 12.396801538225136 14.179306879395236 50.801819136061866 0 0 0
1820 1 16.281392881792172 13.96558395955939 50.83048222107851 0 0 0
1839 1 14.152121431848576 16.102373286271813 50.79750417413991 0 0 0
1814 1 14.506357194055195 14.095583784674073 48.797063094119345 0 0 0
1824 1 20.622282406200107 14.177195412776703 50.95886779204124 0 0 0
1843 1 18.314626017288035 16.183141354729933 50.76201068915732 0 0 0
1818 1 18.582796995202905 14.174621037623444 49.14056478711675 0 0 0
1845 1 20.650425854186494 16.19765560987822 48.63351041267569 0 0 0
1847 1 22.52173308568561 16.180533023957217 50.974237020522345 0 0 0
1822 1 22.343427807419708 14.034507533209142 48.721656893609115 0 0 0
1851 1 1.72533670142813 19.98101187914809 50.29146455631332 0 0 0
1832 1 4.107095978349249 18.31704571513393 50.724274415929536 0 0 0
1855 1 5.906652918686016 20.302160967444728 50.59680090167474 0 0 0
1836 1 8.325874554186981 18.44821690532647 50.353508388129924 0 0 0
1857 1 8.006215645715992 20.293854249796546 48.65904312812618 0 0 0
1859 1 10.384420026781934 20.232300084038172 50.30411795367291 0 0 0
1840 1 12.229241847154524 18.448196183217235 50.65654303039487 0 0 0
1861 1 12.337079340135087 20.574995151930892 48.68731413773154 0 0 0
1865 1 16.32334439800382 20.57639557863189 48.6049642535283 0 0 0
1838 1 14.489260287480684 18.039749975285474 48.96779549316187 0 0 0
1863 1 14.418033676699373 20.29462258925777 50.81190800358516 0 0 0
1844 1 16.128850263209678 18.163061469098814 50.88155334497677 0 0 0
1842 1 18.103623565981117 18.54799415477492 48.700949460665825 0 0 0
1848 1 20.574483827561863 18.191980312214355 50.64157601287934 0 0 0
1867 1 18.507686481522207 20.226655861505 50.56669529756898 0 0 0
1869 1 20.562976673795646 20.3579283288015 48.64991943321536 0 0 0
1849 1 24.37836532502328 20.336232251774618 48.86957061820114 -1 0 0
1828 1 24.433255702857128 18.03131355683699 50.92530676262254 -1 0 0
1871 1 22.44327420298236 20.59763625384 50.579162823674544 0 0 0
1850 1 1.7928750101562705 22.28464151732826 48.72235653156862 0 0 0
1852 1 -0.08025087097838934 22.22663050497499 50.734566245730086 0 0 0
1856 1 3.680207158686552 22.363059784912323 50.289839596903974 0 0 0
1854 1 6.150906340192779 22.38341541423108 48.717304060192056 0 0 0
1739 1 9.905469079992795 24.193933679564317 50.60045783775821 0 -1 0
1860 1 8.329380532213172 22.162595165295073 50.50439535202746 0 0 0
1864 1 12.21191449203204 22.486417150431528 50.56390076211962 0 0 0
1868 1 16.08788510027688 22.449707735536222 50.82690859286547 0 0 0
1747 1 18.313646244915887 24.14715914331066 50.452703769987046 0 -1 0
1749 1 20.473483476143784 24.38570978199948 48.783899614233505 0 -1 0
1872 1 20.18303656108187 22.498506231209475 50.95753616866966 0 0 0
1866 1 18.76446981800848 22.12161273513381 48.68989224253064 0 0 0
1874 1 2.055043315709655 1.8063964728981872 52.298351418547625 0 0 0
1876 1 0.019696145226204442 1.767609415709145 54.55269687702244 0 0 0
1878 1 6.05985759023256 1.662037665534751 52.88138072803036 0 0 0
1880 1 3.981388548063541 2.135111388728369 54.611682362641645 0 0 0
1877 1 3.7254841268456405 -0.13594171859099902 52.867392735732075 0 0 0
1884 1 8.415328157985813 1.6289125235402624 54.378437738960145 0 0 0
1882 1 10.719601643381031 1.2466704003418867 52.538234631913596 0 0 0
1888 1 12.123130886556917 1.6302338868181128 54.86081495175933 0 0 0
1886 1 14.376431212548008 2.0916576474733493 52.91049110850925 0 0 0
1892 1 16.200377001881584 1.5918845039439848 54.909781160643284 0 0 0
1887 1 14.182577971864381 0.04486297388799443 55.16970016578365 0 0 0
1890 1 18.408634423567776 1.7755538211542088 52.63990643035353 0 0 0
1896 1 20.15869338219194 2.4369017004343867 54.66118183632621 0 0 0
1893 1 20.464147272537303 -0.1643091872184868 52.67525903645135 0 0 0
1891 1 18.21019380388408 0.16091561738161042 54.92103881044406 0 0 0
1894 1 22.784871818313462 2.180269052121667 52.86910350250325 0 0 0
1895 1 22.249168560513695 -0.13797248074607732 54.52232382905535 0 0 0
1898 1 2.0185864410948264 5.826788004805201 52.33704323563909 0 0 0
1899 1 1.8944561591841933 3.77886099969848 54.60918575688914 0 0 0
1900 1 -0.10352721934733387 5.922397598352673 54.712007991107434 0 0 0
1897 1 0.17689645130106274 3.797193188409626 52.63775898684889 0 0 0
1901 1 4.143446845822129 4.235258142840638 52.442811951399634 0 0 0
1902 1 5.9192010268492075 5.60742762631777 53.37068794313016 0 0 0
1903 1 6.237045980798836 3.4575917426549947 54.85835033565411 0 0 0
1904 1 3.811406953511347 5.911752185176612 54.70503086012032 0 0 0
1905 1 7.87949244224035 3.757271213997167 52.7862180768503 0 0 0
1906 1 10.183428847929642 6.151755957830277 52.65070812524822 0 0 0
1907 1 10.224122491507076 3.5322792059551027 54.2511580225273 0 0 0
1908 1 8.143289152986323 5.849172551268376 54.88426469876091 0 0 0
1909 1 12.374499538027454 4.018015721128368 52.43875404645577 0 0 0
1912 1 11.824743780427518 5.876591492498841 54.801843803659594 0 0 0
1910 1 14.57479053205939 5.890581199342079 52.44244533633184 0 0 0
1911 1 14.200047499185848 3.930758086060269 54.46974245127385 0 0 0
1913 1 16.363876132177758 3.6655872739361723 52.91890919861346 0 0 0
1916 1 16.28123775376951 5.766598206941665 54.88390314934242 0 0 0
1914 1 18.346890108334243 5.930039536607696 53.08053721938181 0 0 0
1915 1 18.170266281638845 3.8699503802238464 55.042529176189525 0 0 0
1917 1 20.586263631036203 4.02259388467947 52.503243331091085 0 0 0
1920 1 20.440552918348132 5.802216733683203 54.99420460126211 0 0 0
1918 1 22.766626743341085 5.665375426171452 53.237317434639216 0 0 0
1919 1 22.45298574878005 3.790800443652327 55.23682623415838 0 0 0
1923 1 1.7609907967419838 8.232285019212133 54.52777449738861 0 0 0
1922 1 1.7737795694221663 10.036672116352415 52.681064509053144 0 0 0
1925 1 3.7965162742011094 7.888168362257254 52.51199587366851 0 0 0
1927 1 5.899257787728248 7.989326505491649 54.623383531938195 0 0 0
1928 1 3.640319178984804 10.03226580005693 54.723432439963034 0 0 0
1926 1 5.778641285488698 9.639785320804078 52.53128891805519 0 0 0
1929 1 8.188814388051435 7.851351090398401 52.99417435012747 0 0 0
1931 1 10.062492349442286 8.199316952592621 54.969156188746645 0 0 0
1930 1 10.020562660015594 10.175716641754269 52.74731122512414 0 0 0
1932 1 7.843488842826918 10.143074909723605 54.67763222533434 0 0 0
1933 1 12.27586540413796 8.034587077022024 52.913816599643106 0 0 0
1936 1 12.208847242915475 10.18497275423144 54.923446702210974 0 0 0
1934 1 14.2109957489189 9.896984592675805 53.22202286937784 0 0 0
1935 1 14.119412313072717 7.637024940620741 54.78724960501427 0 0 0
1937 1 16.46677105654436 7.8529890837038945 53.1765863302575 0 0 0
1940 1 16.541554144510883 9.814478453991754 55.118276565517704 0 0 0
1938 1 18.501839367497084 9.97215073469901 53.10765523980597 0 0 0
1939 1 18.662168391259172 8.002120622906332 55.23627794865927 0 0 0
1941 1 20.52640451383958 7.932326240528717 53.0678867120039 0 0 0
1944 1 20.575751911754686 9.948765292344056 54.93754923688566 0 0 0
1924 1 24.49147978492726 10.11853354319192 55.32680269396695 -1 0 0
1921 1 24.392959405489236 7.910141794830642 52.80164207694763 -1 0 0
1942 1 22.16623379570516 10.197206621684176 52.79305306977656 0 0 0
1943 1 22.512353562411953 8.009551516717933 54.66414989518026 0 0 0
1947 1 1.8278654128585914 12.047626951723132 54.47631573393491 0 0 0
1949 1 3.919635114397222 12.115421521618694 52.58964494392042 0 0 0
1951 1 6.018047775200358 12.149854278057703 54.58061215565651 0 0 0
1950 1 6.046869794080443 13.853290633542729 52.52710946635261 0 0 0
1953 1 8.059576833027563 12.189323424508165 52.553093186570926 0 0 0
1955 1 10.114223913239904 12.063287659008353 54.46606978233385 0 0 0
1957 1 12.301676021438007 11.999934726585135 52.57463459298126 0 0 0
1960 1 12.082903059993091 13.8908427385158 54.820205525158045 0 0 0
1959 1 14.487432358875271 12.132570885939796 54.87305271738239 0 0 0
1961 1 16.333069328694073 11.591506640223919 52.746243440979775 0 0 0
1958 1 14.240762373371858 13.881960816665934 52.760500081952706 0 0 0
1963 1 18.286505766199674 12.043146091777162 54.84438078301461 0 0 0
1965 1 20.284955346291262 11.974114441519115 52.4644909437159 0 0 0
1945 1 24.487103549662965 11.96841056709673 52.662744502336565 -1 0 0
1967 1 22.623598655487562 12.042833731878876 54.96402885527686 0 0 0
1946 1 2.1711875090187287 14.358120340293206 52.46117065912845 0 0 0
1971 1 2.050478015670558 15.857175751330962 54.72269119899081 0 0 0
1969 1 -0.13997365165992925 16.193904506239342 52.693548934471764 0 0 0
1948 1 -0.05733824521635 14.259724612653585 54.85723468795417 0 0 0
1952 1 4.099186648424693 14.121589100290285 54.66871116839823 0 0 0
1973 1 4.259406481244022 16.141076738246042 52.96242051318066 0 0 0
1975 1 6.3126393968360714 16.28360862215414 54.70931415287085 0 0 0
1956 1 8.208268560140375 14.1946680307357 54.61470119794564 0 0 0
1977 1 8.102541944821862 15.99534721336268 52.602158278802996 0 0 0
1979 1 10.039606629753537 15.87229085119443 54.995331536319526 0 0 0
1954 1 10.433745431787859 14.345795388658356 52.757292129685446 0 0 0
1981 1 12.309089865238635 16.154508568925678 52.94366004503224 0 0 0
1964 1 16.24331505380148 14.066750649021124 54.76225636920878 0 0 0
1983 1 14.380311273583288 16.060489955458088 54.74576569699554 0 0 0
1985 1 16.26791058582316 16.25173632914094 52.64686355889161 0 0 0
1968 1 20.839825873523246 14.15638289892687 54.94656212678395 0 0 0
1962 1 18.304090342556194 14.014796045643706 52.88734496702422 0 0 0
1987 1 18.47209243029112 15.893958367283007 54.6905914977549 0 0 0
1989 1 20.399262620073195 16.204353284466087 52.77029788308399 0 0 0
1966 1 22.481553258945276 14.028344114703156 52.87768628336366 0 0 0
1991 1 22.818430861302254 16.295165533923978 54.768907206147695 0 0 0
1970 1 2.20248709092297 17.936628647299237 52.57388752279429 0 0 0
1995 1 1.9852398252456651 20.413106173670513 54.61865437347124 0 0 0
1972 1 -0.05103915854543001 18.22992047732219 54.77106865722053 0 0 0
1974 1 6.285694735949153 18.094918011951087 52.54601557458638 0 0 0
1976 1 4.098363271402931 18.1474096922123 54.587830501176086 0 0 0
1997 1 3.6145794275890784 20.25126951352682 52.61269992648624 0 0 0
1999 1 5.851972253878663 20.124541262364282 54.52306027991331 0 0 0
1980 1 8.00453972600305 18.239289612481528 54.743863689693065 0 0 0
2001 1 7.736451330759848 20.446554855570668 52.67451480101969 0 0 0
2003 1 9.998954142316398 20.14334439166025 54.6195346710628 0 0 0
1978 1 9.646128457082387 18.080673850565915 52.7155284480203 0 0 0
1984 1 11.929749746487714 17.763081281206013 54.74755049898802 0 0 0
2005 1 12.389519956383486 20.404643622241487 52.7280797186033 0 0 0
1982 1 14.224125476063717 18.302628163830413 52.559644620922974 0 0 0
1988 1 16.439000564988795 17.959729580053306 54.66039271759838 0 0 0
2007 1 14.126287451099403 20.117250985023674 54.574447389914745 0 0 0
2009 1 16.67097416123339 20.410537176839092 52.8492005880636 0 0 0
1986 1 18.534163025336227 18.184130313168467 52.57752735410473 0 0 0
1992 1 20.539195605767382 18.3108539629794 55.004066362367666 0 0 0
2011 1 18.44930245442933 20.02384868934486 54.64112531309529 0 0 0
2013 1 20.358610093630844 20.544258715423425 52.692919663420305 0 0 0
1993 1 24.437645149187492 19.95149534967105 52.88180307669931 -1 0 0
1990 1 22.602909607279962 18.343103755379204 52.867612102760255 0 0 0
2015 1 22.13869459934275 20.370556196412274 54.68132219002632 0 0 0
1875 1 1.9376192133589547 24.329115129847544 55.05015603554813 0 -1 0
1994 1 1.8809290385023907 22.34169776593896 52.64434596849015 0 0 0
1879 1 6.130634140684672 24.2199824534883 54.51572300008108 0 -1 0
1998 1 5.632142580252175 22.419256150079086 52.17204911259424 0 0 0
2000 1 4.00608602543858 22.39722503719117 54.708925988436754 0 0 0
1881 1 7.924050771094915 23.825327769404034 52.467777724691125 0 -1 0
1883 1 10.144078554096923 24.159843112494947 54.64374156120344 0 -1 0
2004 1 8.206878287449783 21.9271331588741 54.73390166737976 0 0 0
1885 1 12.645680343611696 24.222008191599166 52.88926969346569 0 -1 0
2002 1 10.4104611805459 22.19475923249143 52.31154558254657 0 0 0
2008 1 11.91977738251225 21.92779411352747 54.76274223743847 0 0 0
1889 1 16.195700439025806 24.355418668078695 52.872580465191405 0 -1 0
2006 1 14.221548329676157 22.41050282969657 53.32228053572532 0 0 0
2012 1 16.735878339886654 22.47032381557804 54.881183458803314 0 0 0
2010 1 18.38069710366579 22.418906407655527 52.8066163850391 0 0 0
2016 1 20.528383091697243 22.65721410175734 54.70800858136791 0 0 0
1873 1 24.328196137362163 24.26810060014664 52.90380134055264 -1 -1 0
1996 1 24.456589099384853 22.191075158473794 54.590999490487704 -1 0 0
2014 1 22.37719027086078 22.25286488512618 52.73268154833384 0 0 0
2018 1 1.696025742154771 1.9655223674500761 56.7905502836119 0 0 0
2020 1 -0.1664598966527935 1.7919924705478327 58.72634022498625 0 0 0
2019 1 1.836572111202675 -0.16154156687978108 58.84419283711982 0 0 0
2022 1 6.2055285589648514 1.5145011810211173 56.552796774404925 0 0 0
2023 1 6.107886858843098 -0.08739563198386449 58.52003478552564 0 0 0
2024 1 3.782386578711929 1.9433804607053946 58.690495642152655 0 0 0
2026 1 10.026614932862952 1.828275249122643 56.65695299572676 0 0 0
2028 1 8.039476260524056 1.7935394713584296 58.96015885790064 0 0 0
2032 1 12.042361508821742 1.5602096330044946 58.40216548569409 0 0 0
2030 1 14.121160224573742 1.7502444220686284 56.979691865568476 0 0 0
2036 1 16.436227387007207 1.8819468901412102 58.89676498925447 0 0 0
2031 1 14.22575978918211 -0.10895593753549804 58.912513789242 0 0 0
2034 1 18.397180065795098 1.93566563636 57.03611932097393 0 0 0
2037 1 20.238695930079523 0.14652693957319513 56.938217963724924 0 0 0
2038 1 22.26897954699139 1.833215252142642 57.21345113448206 0 0 0
2017 1 24.078434468247927 0.0022549242215248455 56.69860795221398 -1 0 0
2042 1 1.8702690731043985 6.158163223901045 56.462884770870744 0 0 0
2043 1 1.9035905347053728 4.020925468839353 58.70869546447235 0 0 0
2041 1 -0.057501571732039736 4.25630012408091 57.04601348392543 0 0 0
2045 1 3.880892542546974 3.6639404799900754 56.747700103242714 0 0 0
2046 1 5.741037794537644 5.691021280600388 56.69725588764215 0 0 0
2047 1 6.075174051135945 3.8886440432797205 58.82174144114239 0 0 0
2048 1 3.9338056914983746 5.6729822588495 58.859073192774616 0 0 0
2049 1 8.131604715429543 3.7842400842950203 56.8701248231376 0 0 0
2050 1 10.122515755524928 5.916450025706311 56.9357184993229 0 0 0
2051 1 10.045444286137993 3.71769826871142 58.80272412423844 0 0 0
2052 1 8.131240621282059 5.7391846390696974 58.851029904813025 0 0 0
2053 1 12.174966149756605 3.840700383684843 56.532178737261845 0 0 0
2056 1 12.065691916519507 5.714396028640811 58.821811598035204 0 0 0
2054 1 14.149704068851069 6.025530362490696 57.01513489652714 0 0 0
2055 1 13.981292178392716 3.5690126992271725 59.14961991033301 0 0 0
2057 1 16.01603443138618 3.915323195318206 57.19415821691363 0 0 0
2060 1 16.224894052990194 5.782494705346148 59.087955591298616 0 0 0
2058 1 18.430687697519048 5.861838741285807 57.08078495505486 0 0 0
2059 1 18.512115418788177 3.741872350194356 59.00010574956433 0 0 0
2061 1 20.49613914848706 3.7502439091778035 57.26613891651105 0 0 0
2064 1 20.432145036661886 5.881285754611735 58.924205765211134 0 0 0
2044 1 24.47140947396837 6.213778875955915 58.955528171739786 -1 0 0
2062 1 22.410086481329287 6.118876045603138 56.88008189901978 0 0 0
2063 1 22.424114703647874 4.103744149123918 59.093423744599185 0 0 0
2066 1 1.9590034393170503 9.819355592318319 56.86160646253338 0 0 0
2067 1 1.9389341999132208 7.970570578902166 58.751084694949924 0 0 0
2068 1 -0.01974960007812479 10.028729075552373 59.031954935448155 0 0 0
2069 1 4.168693213603341 8.186370753323509 56.911014358224385 0 0 0
2070 1 6.055252073397395 9.980842231643942 56.62003006023428 0 0 0
2072 1 3.8413038220941136 10.17789172796657 58.81721436155145 0 0 0
2071 1 6.0715220277121835 7.659684828375455 58.905548828698706 0 0 0
2073 1 8.213472101775036 8.066660668820042 56.910657166290356 0 0 0
2074 1 10.178227117803866 10.282206822260646 56.83032454899351 0 0 0
2075 1 10.247528591383283 7.84010288877567 59.11516765673395 0 0 0
2076 1 8.002292635605226 10.004426599218029 58.805070284243 0 0 0
2077 1 12.229166133643982 8.179012384030564 56.988265867954375 0 0 0
2080 1 12.615786980851123 10.087046794931542 59.1393064028764 0 0 0
2081 1 16.364423076590796 7.939960323632695 57.093783879896556 0 0 0
2084 1 16.560388599516976 9.751149010869042 58.95264212682533 0 0 0
2078 1 14.460258147286819 9.936484394875189 56.847182708025926 0 0 0
2082 1 18.55515536387309 10.357431751143425 56.76245455748438 0 0 0
2085 1 20.640980329918236 8.201868726806731 57.146261228228916 0 0 0
2088 1 20.376076913973847 9.947189302384356 58.877030384344216 0 0 0
2083 1 18.604180948720384 7.844091985613916 59.11807282870822 0 0 0
2065 1 24.407395681366438 8.067174283347882 56.97243910428233 -1 0 0
2086 1 22.33755632911143 10.26921619323092 57.031762230537666 0 0 0
2087 1 22.661042669531 8.172897267012136 59.15686023938312 0 0 0
2091 1 2.3178146541757556 12.199284843450576 59.1221711819119 0 0 0
2089 1 0.06302580231642024 11.924108503508757 57.196482009553954 0 0 0
2092 1 -0.06866590787187135 13.880801871446163 59.043835183203264 0 0 0
2093 1 4.171969940588659 11.90029376654663 56.69967104309109 0 0 0
2095 1 6.1025035436094965 11.900404713690108 58.79430012118855 0 0 0
2097 1 7.922931528388991 12.139385429679228 56.70274482843386 0 0 0
2099 1 10.199273314929652 12.11399600998647 59.12695180205015 0 0 0
2101 1 12.618544165358161 12.077982087919512 57.10159244286638 0 0 0
2104 1 12.328528865989098 13.893514934498558 58.903329617089106 0 0 0
2105 1 16.388438714381167 11.960346525291111 56.805663713798914 0 0 0
2107 1 18.2815993640895 11.754731950406882 58.78461521503579 0 0 0
2109 1 20.481996897843494 12.212935827070181 56.98083799962244 0 0 0
2111 1 22.46722134117379 12.019800835543112 59.155712715176385 0 0 0
2090 1 1.980957346028903 13.96334708177034 56.98060060294223 0 0 0
2113 1 0.034917590116134045 16.409681664640004 56.74806015418177 0 0 0
2115 1 2.0225053627648957 16.18482863371721 58.729279278703636 0 0 0
2096 1 4.125824466055243 14.029796484827411 59.13402817083808 0 0 0
2094 1 6.042110561841777 14.141500234614815 57.09930088164701 0 0 0
2117 1 4.01702811192184 16.056981605679034 56.697013926621096 0 0 0
2119 1 5.805095441008042 16.114261809653435 58.905927440452615 0 0 0
2098 1 10.099529120668398 13.94148613109174 56.82136225161352 0 0 0
2100 1 8.15311537256183 14.15766545173177 58.992051009289575 0 0 0
2121 1 8.083009854331564 16.15288823052454 56.89351715562297 0 0 0
2123 1 10.28134008340903 16.122266215679474 58.4161302458437 0 0 0
2125 1 12.456351535277816 15.64717869662244 56.82704854585174 0 0 0
2102 1 14.725561389746659 13.976643702584619 56.948363524921916 0 0 0
2108 1 16.72925052567968 13.984471437761767 58.7340964088066 0 0 0
2127 1 14.45309908350706 15.908318529956945 58.53662299509285 0 0 0
2129 1 16.439929481820712 15.99125578659955 56.62536792843728 0 0 0
2106 1 18.57488315999513 13.98284933060799 56.8126631310317 0 0 0
2131 1 18.828429373170422 15.995546393815241 58.67736822721857 0 0 0
2133 1 20.708367580761106 16.153828970353764 56.83777410887564 0 0 0
2112 1 20.271194871695016 14.20634905953686 58.97230530712527 0 0 0
2110 1 22.690741259152347 14.26425193535871 56.90833863918264 0 0 0
2135 1 22.746808229700946 15.887438656342768 58.84411243239209 0 0 0
2114 1 1.938571702280126 18.22620436235286 56.5420246347738 0 0 0
2137 1 0.07655337388950456 20.083805982195813 57.005689774042075 0 0 0
2139 1 2.1954656655287645 20.30592993942833 58.955974020229846 0 0 0
2116 1 -0.08161937957477719 18.094227196506786 58.970229819226894 0 0 0
2118 1 5.978922914478633 18.211184379377713 56.66956836177903 0 0 0
2120 1 4.239203548976276 18.42995738888107 58.72503372350676 0 0 0
2141 1 3.867634115109163 20.109207867381578 56.61624433813627 0 0 0
2143 1 5.969049516865454 20.76224756642553 58.587267572339734 0 0 0
2122 1 10.119275871738164 18.387516354466378 56.73894963131509 0 0 0
2124 1 8.032148609442144 18.18368594431464 58.81595749075386 0 0 0
2145 1 8.460962942700718 20.167024635802456 56.95845313840831 0 0 0
2147 1 10.16125978472261 20.19140149856785 58.92779894261024 0 0 0
2128 1 12.26007044783501 17.77628357644059 58.93096469481534 0 0 0
2149 1 12.336464715557371 20.063725928554213 56.81989913053305 0 0 0
2126 1 14.016822773451686 17.721601877089554 56.73942596800192 0 0 0
2132 1 16.47254554290975 17.91601960571046 58.61681937466067 0 0 0
2151 1 14.562142429241272 20.20725851006673 58.569371440645256 0 0 0
2153 1 16.203115573620437 20.09220336321438 56.41937770479006 0 0 0
2130 1 18.35986330719622 18.142059715018405 56.66437051378379 0 0 0
2136 1 20.450714475103723 18.272275219126016 58.82788737392945 0 0 0
2155 1 18.36998994538802 20.415722577143725 58.898011726479474 0 0 0
2157 1 20.403503228316325 20.263347655681713 56.56375074765592 0 0 0
2134 1 22.546646089336882 18.258868294606437 56.851768927695886 0 0 0
2159 1 22.457267575868556 20.237131807494542 58.817571949231024 0 0 0
2138 1 1.6975532398620303 22.417912701382825 56.9304280680131 0 0 0
2021 1 3.998065551290564 24.40058099593721 56.55492373405138 0 -1 0
2142 1 6.1223465969877084 22.005310686972336 56.43552907518252 0 0 0
2144 1 3.73496218947507 22.654029352054387 58.914277402277285 0 0 0
2025 1 7.828349310177057 24.13078777766971 56.337453481916114 0 -1 0
2027 1 10.221214747825016 24.42136162479759 58.667645259778226 0 -1 0
2146 1 10.123986962026777 22.48155842817686 56.75748811423131 0 0 0
2148 1 8.210586586712452 22.188498290281792 58.876422142719214 0 0 0
2029 1 12.101946362350136 24.066215945663394 56.80871255222467 0 -1 0
2152 1 12.040740175356511 22.098074167610058 58.76715502869554 0 0 0
2033 1 16.474618319413814 24.392429029346545 57.25566158674364 0 -1 0
2150 1 14.540942908967985 22.11003333526933 56.53092350235345 0 0 0
2156 1 16.363161525206237 22.502798631518807 59.04065956432007 0 0 0
2154 1 18.60324645727323 22.58871246672961 56.80092661628057 0 0 0
2160 1 20.260313289649247 22.276193584720403 58.72585031786796 0 0 0
2039 1 22.27620643014326 24.320917817152754 58.930130618588535 0 -1 0
2140 1 24.420441888005875 22.318739132276797 58.541768613507564 -1 0 0
2158 1 22.456011914762797 22.333409905083975 56.75868739700066 0 0 0
2162 1 1.9716820368051575 2.2551309701195246 61.05854244952152 0 0 0
2166 1 6.09120317519504 2.033585269254922 60.57598780081922 0 0 0
2165 1 3.71897172598258 -0.023600945897882752 60.92752596043473 0 0 0
2168 1 4.223859727405518 1.8570804952272097 62.67305175308969 0 0 0
2170 1 10.27260735919557 1.5427024946844552 60.86335835024822 0 0 0
2174 1 14.717708570966172 1.7289162429176899 61.11235508088606 0 0 0
2040 1 20.379421481095314 1.7213786620918772 59.295954832324945 0 0 0
2178 1 18.048524269222987 1.9077266213538602 61.19279575395248 0 0 0
2182 1 22.51331542433688 1.9786747875838397 60.898176163798574 0 0 0
2161 1 24.477530548335654 -0.09015050780128668 60.80652816994657 -1 0 0
2186 1 2.097716928438823 5.91839150379697 60.85092746381046 0 0 0
2185 1 -0.03779295010278386 4.132212947412567 60.674974166276954 0 0 0
2189 1 3.944978011862525 3.925549211783811 61.16627958621335 0 0 0
2190 1 6.119420405692029 5.985426914846117 61.17412466519096 0 0 0
2193 1 8.211561729673088 3.819851993416398 60.79334453335221 0 0 0
2194 1 10.42488698472012 5.693252032668764 60.82743706558624 0 0 0
2197 1 12.30276037510497 3.6547048777993734 60.85860098738618 0 0 0
2198 1 14.513786721560269 5.568361223092165 61.16136997952575 0 0 0
2201 1 16.25109160114465 3.8973798721656268 61.26029855790658 0 0 0
2202 1 18.715806943055945 5.54977824622775 61.039537329654024 0 0 0
2205 1 20.49291721572223 3.6761030337893024 61.119787236364736 0 0 0
2206 1 22.445228728218993 6.250233701091239 61.07487920847153 0 0 0
2209 1 -0.05047438997057732 8.197032901977373 61.01035389282595 0 0 0
2210 1 1.815334452736344 10.311877368246964 60.88223515844513 0 0 0
2213 1 4.020573326243267 8.11634798672519 60.90237891492826 0 0 0
2214 1 5.795059028464275 10.264696417241048 60.85763542770678 0 0 0
2217 1 7.938822022909347 7.84918453829162 60.90846593703666 0 0 0
2218 1 9.931994074809303 9.985401888604404 60.997871755861425 0 0 0
2221 1 12.480338549228257 7.864202240801257 61.24033311336083 0 0 0
2079 1 14.430839820725353 8.029291543254931 59.25183079976468 0 0 0
2225 1 16.467294367667726 7.8311287721507625 60.989510988583376 0 0 0
2222 1 14.316326422097806 9.994289285159365 61.13576002692488 0 0 0
2229 1 20.214161867968336 7.8633015818808385 60.9682217716548 0 0 0
2226 1 18.10155887227048 9.989144477281679 61.06396288095801 0 0 0
2230 1 22.439323682645067 10.013154708483054 61.020990411213816 0 0 0
2233 1 -0.14183079289090914 12.097009471835356 61.07842583514888 0 0 0
2237 1 3.73393645759198 12.116165646580958 61.29170704975775 0 0 0
2241 1 7.9876040155479355 11.997692742367002 60.99607631178662 0 0 0
2245 1 12.186602477112174 11.924497808979057 61.179660968449845 0 0 0
2103 1 14.502809678157016 11.912606784519726 59.18415036669266 0 0 0
2249 1 16.393723052805328 12.098187574040532 60.89704932484777 0 0 0
2253 1 20.532932374305368 12.071816552148357 61.15669864094394 0 0 0
2234 1 1.9287946573175132 14.365659550058819 61.31947614848153 0 0 0
2257 1 -0.08607675300273651 16.210763861385793 61.10339058112558 0 0 0
2238 1 5.905509627027781 14.108178239600472 60.781187396137675 0 0 0
2261 1 3.964365030504056 16.250854758585866 60.784836205751056 0 0 0
2242 1 10.310285137291496 14.036319496156732 60.8859076782984 0 0 0
2265 1 8.565605284988075 16.253374336918945 60.88107921815659 0 0 0
2269 1 12.212247310108625 16.226073173270628 60.9680025065048 0 0 0
2246 1 14.317100868443504 14.054396401505388 60.90248765493274 0 0 0
2273 1 16.337774289334988 15.989900404905411 60.67949451945248 0 0 0
2250 1 18.418912390383255 14.064940200402255 60.77336340332825 0 0 0
2277 1 20.37075284560484 16.138076353405232 60.85135222759656 0 0 0
2254 1 22.577144658031315 14.061295658184022 61.08907062132105 0 0 0
2258 1 2.2273680608929918 18.227790796432558 60.82871823375851 0 0 0
2262 1 6.097092974598192 18.02461837988171 60.92746691254235 0 0 0
2285 1 4.118188472161103 20.477546820968882 60.73179280052926 0 0 0
2287 1 5.977622679006627 20.204846233049892 62.50368598303548 0 0 0
2266 1 10.3458817518574 17.836070688540367 60.759724023108795 0 0 0
2289 1 7.970621588195559 20.00944389848364 60.693208553914786 0 0 0
2291 1 10.007605262947454 20.319626160531918 62.33564147462436 0 0 0
2293 1 12.178513004602866 19.963603790873805 60.59209288821821 0 0 0
2270 1 14.413006227302807 18.129190425158313 60.65031637157653 0 0 0
2297 1 16.374814207055877 20.019773788184096 60.86178238488556 0 0 0
2295 1 14.305682268061986 20.357603328896808 62.53420377960596 0 0 0
2274 1 18.37270573199398 18.060037739814845 60.651892067776906 0 0 0
2301 1 20.482428559303088 20.133703127629943 60.83345580606744 0 0 0
2281 1 24.44862256075429 20.103964716025118 60.80654512468011 -1 0 0
2278 1 22.424248956618655 17.885959735726168 60.805478394870214 0 0 0
2282 1 1.6462275383903042 22.579897962698652 60.71771935669504 0 0 0
2286 1 5.957698427309385 22.468066393520523 60.54948033653919 0 0 0
2169 1 7.925630760746797 24.272162089595753 60.68868469029402 0 -1 0
2290 1 9.970255799505058 22.56694502535027 60.704753877700945 0 0 0
2173 1 12.474186077895983 24.342071789913497 60.87792383159326 0 -1 0
2296 1 12.268579646067474 22.214856479211896 62.43257590290032 0 0 0
2177 1 16.459459102219377 24.331703783539766 61.18326115856918 0 -1 0
2294 1 14.301020325182611 22.240035633260327 60.43427009896795 0 0 0
2035 1 18.45602289123407 24.310404597335214 59.19715064360155 0 -1 0
2181 1 20.35278554756386 24.411476413161925 61.065406459561466 0 -1 0
2298 1 18.171296900782103 22.289943019639473 61.05749663446628 0 0 0
2302 1 22.58226741312319 22.661690132589996 60.621104401088004 0 0 0
2306 1 1.750019221400644 1.7359997298200518 65.09134287140881 0 0 0
2163 1 2.052041556137957 -0.07621864824410807 63.09197867287679 0 0 0
2310 1 5.83537870601247 1.6822642829797774 65.11637542176408 0 0 0
2309 1 3.7359494575805487 -0.0121123051562807 64.99021532397786 0 0 0
2172 1 8.00980238126518 1.6256122781064213 62.68983133374947 0 0 0
2314 1 9.70955191683907 1.6465220262989648 64.83949998884609 0 0 0
2176 1 11.982330808946386 1.5584187073597981 63.040468845106204 0 0 0
2180 1 16.13329911073437 1.4530591726240323 63.239775558498074 0 0 0
2318 1 14.065075817797453 1.3748194343794473 65.05788907715697 0 0 0
2184 1 20.34681252386693 1.6417069413222936 63.0558397186276 0 0 0
2322 1 18.365483906302742 1.7905744874481968 65.34303369057555 0 0 0
2164 1 24.302583226650277 1.9346890323707395 62.918925442192766 -1 0 0
2326 1 22.392105028700293 1.7415949790103373 65.20002575946819 0 0 0
2187 1 1.6892771039410863 4.124548709298822 63.016749442754225 0 0 0
2330 1 1.649529564529438 5.791586727052199 65.1722236269264 0 0 0
2192 1 3.799569698011654 6.3801001898387675 62.88784900996727 0 0 0
2191 1 6.034532979417788 3.796159480148613 62.9422102212829 0 0 0
2333 1 3.6583582794365395 3.990854894926426 64.8582440135155 0 0 0
2334 1 5.948483555451576 5.769138382506974 64.80551496689846 0 0 0
2196 1 8.297129281862787 5.82678635004894 62.72874906841834 0 0 0
2195 1 10.260861799203159 3.643026916246739 62.77708781415912 0 0 0
2337 1 7.836013510084737 3.7536357005696743 64.79846245559067 0 0 0
2338 1 9.940884158010887 5.575960678548826 64.91066296463087 0 0 0
2200 1 12.047688645007241 5.512847564304812 63.214957693115366 0 0 0
2341 1 11.916697374690697 3.4715913151157367 65.10669743882984 0 0 0
2199 1 14.247473666845261 3.3737640051233018 63.05080210087974 0 0 0
2204 1 16.467460964744035 5.697015649038043 63.26919627248305 0 0 0
2342 1 14.392722090179985 5.631746454426285 64.8965515898086 0 0 0
2345 1 16.101126799726693 3.6444454817471303 65.45399371154686 0 0 0
2203 1 18.332021919042134 3.654792202119416 63.32654892731945 0 0 0
2208 1 20.584726473048313 6.106345856288766 63.024894391473296 0 0 0
2346 1 18.163313396752486 5.728404043690437 65.10881744912695 0 0 0
2349 1 20.346000684084025 3.885261946790794 65.23810870388596 0 0 0
2329 1 24.36959685106025 3.73893108208671 65.12754805744848 -1 0 0
2188 1 24.275261735698663 6.10863653394013 62.92571030491015 -1 0 0
2207 1 22.468222705494384 3.8779194489425013 63.17232804310424 0 0 0
2350 1 22.453071895227012 5.934473170873039 65.30275643746258 0 0 0
2211 1 1.811286868355487 8.193654689433691 63.194555546291944 0 0 0
2354 1 1.957950659270383 9.78790305714254 65.21006220107262 0 0 0
2212 1 -0.20750197972147705 10.140244149488078 63.20708595431672 0 0 0
2215 1 5.955964285940546 8.061699144541047 63.16132371020941 0 0 0
2357 1 3.9317297170504553 7.852815914011705 65.12601204921614 0 0 0
2358 1 5.936473194077925 10.135676033521507 65.10897671413126 0 0 0
2219 1 10.009779688029122 7.431649736947065 62.915403144468804 0 0 0
2361 1 8.139320097561171 8.081807057848678 65.15334464184713 0 0 0
2220 1 7.845673060854335 9.679464269337267 62.8557065716856 0 0 0
2362 1 10.390469051101837 9.824187836956984 64.7761324529632 0 0 0
2224 1 12.298208233866987 9.810077965610105 63.01144187975343 0 0 0
2365 1 12.19375869007237 7.840266274132388 64.81718634585718 0 0 0
2223 1 14.519147874108151 7.773244564271663 63.2568387391499 0 0 0
2228 1 16.413155590482134 9.999617727589941 62.84749309997153 0 0 0
2369 1 15.938523971850868 7.945966107652122 65.14096699315732 0 0 0
2366 1 14.207112700783854 10.005750017520773 65.14381690279785 0 0 0
2227 1 18.30183142742304 7.883798796805062 63.28327533271264 0 0 0
2232 1 20.222647618154106 10.121951288333616 62.9079529562383 0 0 0
2370 1 18.27153017331446 10.080202516085405 65.01290107407381 0 0 0
2373 1 20.236669748647508 8.02632808495355 65.37176521903746 0 0 0
2353 1 24.18243779986205 7.933387260896842 65.4851742659799 -1 0 0
2231 1 22.21377847434131 8.26034269033264 63.02111172698854 0 0 0
2374 1 22.565104506226184 10.232783178369885 65.08390168558262 0 0 0
2235 1 1.808667784975095 12.128350233623742 63.43522163290504 0 0 0
2377 1 -0.015604550638623732 12.245940328188711 65.18311148857411 0 0 0
2216 1 3.7147552413453213 10.422048582065132 63.16336126957541 0 0 0
2239 1 6.03058107240444 12.243337046623619 63.26026060187613 0 0 0
2381 1 3.898844923831758 12.34040920741602 65.4088730183935 0 0 0
2243 1 10.09849770046565 12.141271770379022 63.09395974018127 0 0 0
2385 1 8.423652025083525 11.724294473857535 64.77780448139829 0 0 0
2389 1 12.3596483634915 11.981824213674065 65.201536497571 0 0 0
2248 1 12.137138978116898 13.888375119605197 62.79615660450157 0 0 0
2247 1 14.231608023397321 11.762513874748823 62.87468493813017 0 0 0
2393 1 16.27919240292958 11.996310665842923 64.78781289481354 0 0 0
2251 1 18.492322309186 12.195511415797979 62.80605093560074 0 0 0
2397 1 20.402004822278705 12.103832949220717 65.0863709337075 0 0 0
2255 1 22.579117400214088 11.9543204504286 63.24265110291467 0 0 0
2259 1 2.311461953432718 16.160347084856234 63.10903414262484 0 0 0
2378 1 1.9994177192328388 14.370268937173936 65.10236544807532 0 0 0
2401 1 0.11550115307355513 16.16511773597241 64.86002479622746 0 0 0
2240 1 4.075711669784847 13.940268166155617 63.04263259015479 0 0 0
2263 1 6.47716108736417 16.057748468011226 62.77861248940769 0 0 0
2382 1 6.267208183333821 14.300328073840907 65.2025263932827 0 0 0
2405 1 4.312958048593043 16.381141285236374 64.9259303812093 0 0 0
2244 1 8.149765900926878 13.98643742180215 62.99196287081482 0 0 0
2267 1 10.233692389260495 15.772268695695399 63.01727980355734 0 0 0
2386 1 10.108096864751882 14.063982905939481 65.20137493986935 0 0 0
2409 1 8.404958031568116 16.264232707563217 65.08580825719403 0 0 0
2413 1 12.209017982909753 15.976828374032136 64.98871756911979 0 0 0
2390 1 14.11420946985912 14.22994379179462 64.87821073609256 0 0 0
2271 1 14.247398903406607 16.014324819031685 62.869338627481405 0 0 0
2252 1 16.321769665781197 14.205327209081014 62.81764264092798 0 0 0
2417 1 16.30405200189442 16.22330401179706 65.11695504740162 0 0 0
2275 1 18.3123378392551 16.05232863930067 63.32283288769051 0 0 0
2394 1 18.278106690165075 14.01827866871677 65.07870672181397 0 0 0
2256 1 20.27826232203845 14.107221976967987 63.31354556902525 0 0 0
2421 1 20.42128016822177 16.504537571670554 64.89522564389907 0 0 0
2236 1 24.22863952226887 14.10931487898725 63.31907046627758 -1 0 0
2398 1 22.582993824776423 14.296969725624972 65.21881014145211 0 0 0
2279 1 22.13835001549961 16.20487878872055 62.95208837113721 0 0 0
2283 1 2.1431522048812552 20.332556101296312 62.691862732530815 0 0 0
2260 1 -0.05591703587850552 18.18583605727364 62.814366829744316 0 0 0
2402 1 1.94948628575372 18.243645971920543 64.79362067224024 0 0 0
2264 1 4.225917280551675 18.18521031835504 62.95359573326578 0 0 0
2406 1 6.248876281255291 17.915323025961776 64.92884065505265 0 0 0
2429 1 3.7204144105190013 20.10451974614609 64.86451327807488 0 0 0
2268 1 8.312134826223033 18.548738623447072 63.19307476130698 0 0 0
2410 1 10.288051319477834 18.155277842048903 65.38031330593078 0 0 0
2433 1 7.886414592854289 20.18832574427389 65.1318785397103 0 0 0
2272 1 12.183844611146545 18.15872289097495 63.017369456317255 0 0 0
2437 1 12.358874041206708 20.1522841787609 64.9843436867824 0 0 0
2414 1 14.17097938448265 17.944417721364452 64.80731046163288 0 0 0
2276 1 16.413275561165825 17.989529409706677 62.765463029117775 0 0 0
2441 1 16.125557009176106 20.22174878040574 64.73993636823748 0 0 0
2299 1 18.377996086926565 19.930898205229646 62.993840495306465 0 0 0
2280 1 20.312820862268843 18.323131986591413 62.866187839875195 0 0 0
2418 1 18.453715150446122 18.24521078300213 65.19933665652421 0 0 0
2445 1 20.209444731050823 20.53752936313694 65.05589483950826 0 0 0
2303 1 22.153021756205987 20.360479157667527 62.758137349731754 0 0 0
2425 1 24.30555498450619 20.29963051654338 64.64613847233778 -1 0 0
2422 1 22.72336756742645 18.04561958119205 64.58991829387836 0 0 0
2305 1 -0.09857188330912839 24.2681255024575 65.34039852056193 0 -1 0
2426 1 1.981093681295662 22.345136775789342 64.67789345577116 0 0 0
2284 1 -0.15504559510378677 22.677898464358883 62.77522544439814 0 0 0
2167 1 5.889102571769623 24.398774395698837 62.868365817447284 0 -1 0
2288 1 3.9175421303155984 22.297808722510062 63.00022859018465 0 0 0
2430 1 5.990842622392914 21.671871808413762 64.85050361134267 0 0 0
2313 1 7.942227076200995 24.21826444164082 65.04917262297701 0 -1 0
2171 1 10.101044764066797 24.084886446153753 62.96871254181516 0 -1 0
2292 1 7.989445503282646 22.357074948179196 63.123967610639795 0 0 0
2434 1 10.092593808270907 21.6037554560503 64.6308523649352 0 0 0
2317 1 12.066443131660211 24.052239129884484 64.74447776767651 0 -1 0
2175 1 14.380910868799901 23.977506526253002 62.93694294919846 0 -1 0
2321 1 16.4117232682149 24.404229372968288 65.06860205406593 0 -1 0
2300 1 16.31123118823725 21.948740829941194 63.04789741445212 0 0 0
2438 1 14.26953214732365 22.24459339902149 65.06256147734524 0 0 0
2179 1 18.599635910483343 24.421671843636027 63.19907629689258 0 -1 0
2325 1 20.66199061390069 24.035324779774854 65.06038737116839 0 -1 0
2304 1 20.311077622206362 22.036752762432364 62.91929630596651 0 0 0
2442 1 18.384272614743644 22.43372451575265 65.02204315462917 0 0 0
2183 1 22.375426137206112 24.27056280255597 62.90651814771983 0 -1 0
2446 1 22.6741147592345 22.514935817966617 64.7810201978206 0 0 0
2450 1 2.0496624236313057 1.8551708837132423 69.43233459662116 0 0 0
2308 1 0.09894305082700539 1.5008841333913034 67.33201980391846 0 0 0
2312 1 3.986249059913548 1.7718344880467967 67.18258358699005 0 0 0
2454 1 6.2092512239610995 1.5343608529946426 69.19264295204874 0 0 0
2316 1 8.043132290051838 1.5519243878532065 66.93920943407909 0 0 0
2458 1 10.256921720548307 2.0074062345643933 68.75343260655326 0 0 0
2457 1 8.289215215349127 -0.028874295125135563 69.0398546112686 0 0 0
2320 1 12.114578788672503 1.6593299913088315 67.17237479631059 0 0 0
2324 1 16.16772843748936 1.7461779597829732 67.21690886720457 0 0 0
2462 1 14.104699687703073 1.7460928246785583 69.17020898406203 0 0 0
2328 1 20.583921234436517 1.3575341428690624 67.05214841350178 0 0 0
2466 1 18.489263180944285 2.0794288208434346 69.19141483010846 0 0 0
2470 1 22.656026780481724 1.73407114783691 69.18256556049963 0 0 0
2331 1 1.7625431932814493 3.764322955561209 67.1870941475226 0 0 0
2474 1 1.3350001984780293 5.6999133894273815 69.27735898662297 0 0 0
2335 1 5.87304864675606 3.7106692171449702 66.62487500148235 0 0 0
2336 1 3.6956440522282237 5.892580418164805 67.08407993528421 0 0 0
2477 1 3.753712869855168 3.9751696186417105 69.13409697009716 0 0 0
2478 1 5.909151102995681 5.91080166267531 69.1739363312022 0 0 0
2340 1 7.92812739063611 5.698552356958243 67.03598674297744 0 0 0
2481 1 7.78898953431392 3.636500510227347 69.35063216499525 0 0 0
2482 1 10.00892465209685 6.00052987175742 68.69788368807161 0 0 0
2339 1 9.787579910445103 3.5331646098966836 66.71599754825509 0 0 0
2344 1 12.263053918717619 5.704515702059444 66.95612340550971 0 0 0
2485 1 12.121547756141384 3.8125761239334723 69.19434458225403 0 0 0
2486 1 13.874008989147821 6.103079800856929 69.08076281029112 0 0 0
2343 1 13.944664360019424 3.5958139974361703 67.05560564841454 0 0 0
2348 1 16.11109749514415 5.92998611781456 66.92725955347078 0 0 0
2489 1 15.941899785183166 4.0425326448896675 68.86557559031188 0 0 0
2347 1 18.540210996939408 3.6427976055780715 67.19292866614433 0 0 0
2352 1 19.991602291455294 5.810836188059866 67.08314595755823 0 0 0
2490 1 17.84139663551342 5.801311050834803 68.92144307281461 0 0 0
2493 1 20.554195205647645 3.9537300910597803 69.15958327203651 0 0 0
2473 1 24.438716964804513 3.5556597737385522 69.28859173818086 -1 0 0
2332 1 24.314276463972234 5.909340286344608 67.25661900686221 -1 0 0
2351 1 22.443073174099005 3.6315763332211017 67.22923594395625 0 0 0
2494 1 22.569010308827608 5.89516822234827 69.07298831582276 0 0 0
2355 1 1.6546462549450693 7.837866858237096 67.27569592932541 0 0 0
2498 1 1.6914806300253669 10.337232388396107 69.1886687730424 0 0 0
2359 1 5.932921853671479 7.92857249444328 67.09409587065711 0 0 0
2360 1 3.8025779829934443 10.164093667749817 67.26675318830983 0 0 0
2501 1 3.9115160298545275 7.851618500068566 69.26668153867266 0 0 0
2502 1 5.915633822788816 10.242073276442689 69.42897965167604 0 0 0
2363 1 9.762896486426696 8.04265236894328 66.78004545187362 0 0 0
2364 1 8.310509210199447 10.141087652502202 66.83439110060355 0 0 0
2505 1 7.956778945578828 7.746331288052335 69.18174848798753 0 0 0
2506 1 9.89877485635678 9.81005576746912 69.15291781837044 0 0 0
2368 1 12.013353783442014 9.940387817820174 66.83300739565034 0 0 0
2509 1 12.047682890262077 8.10253326295773 68.7092603381209 0 0 0
2367 1 14.038499332231725 8.284157999812011 67.2299579763072 0 0 0
2372 1 16.188941284405765 10.0779514998528 66.75943524892223 0 0 0
2513 1 15.872955092011482 7.967923333657659 69.13140128520392 0 0 0
2510 1 14.279808004273768 10.008016349018604 69.18692219350532 0 0 0
2371 1 17.95823418015361 8.019195178587422 66.81356270334933 0 0 0
2514 1 18.347743395628953 9.526444654881793 69.03784849296456 0 0 0
2517 1 20.172758902255204 7.655363232528753 69.25344487499721 0 0 0
2356 1 24.462526520249607 10.047044252326012 67.32441874373367 -1 0 0
2497 1 24.34687429329022 8.085180073607166 69.318320356365 -1 0 0
2375 1 22.170173490716465 8.50218290563123 67.1597853631711 0 0 0
2518 1 22.54533187680518 10.149531404365268 69.36115861529446 0 0 0
2379 1 1.8319722062559989 12.40182439488702 67.41901057811874 0 0 0
2383 1 6.281183745787253 12.227831893181461 66.7801778000821 0 0 0
2525 1 4.2165332510937805 12.194879282585378 69.1711655219453 0 0 0
2387 1 10.366912337496755 12.068696175538737 67.19752739555473 0 0 0
2529 1 8.132582400580636 11.988265433999587 68.92339435393657 0 0 0
2533 1 12.014254803550696 12.024969271125055 69.25135098845895 0 0 0
2391 1 14.303266796296661 12.173226024277138 66.94438903315206 0 0 0
2537 1 16.21550580356198 11.803489344051203 69.10720485192667 0 0 0
2534 1 14.401820274711278 13.688159110945145 69.01856208062792 0 0 0
2376 1 20.305434180290746 10.40258282559221 67.1178635088886 0 0 0
2541 1 20.54594972622658 11.948524993184387 69.50393090122324 0 0 0
2395 1 18.361656839679867 12.132302624263552 66.88246442661406 0 0 0
2538 1 18.31990042903537 13.905627970962056 69.00050643509755 0 0 0
2521 1 24.480292929829545 12.1416510879676 69.45344808554785 -1 0 0
2399 1 22.67729179703764 12.242186224262959 67.33598830340269 0 0 0
2403 1 2.149584719465025 16.185639806395628 67.30867830961417 0 0 0
2522 1 2.096008994988095 14.324790258354424 69.14936873302936 0 0 0
2545 1 0.10959016762977036 16.623029873930697 68.76813137663656 0 0 0
2549 1 4.236716590248637 16.514137175056142 69.17881142448749 0 0 0
2384 1 4.153884225199582 14.112835800300696 67.26294896156872 0 0 0
2407 1 6.308729234275728 16.130667164818163 67.02826189425245 0 0 0
2526 1 6.14335135580655 14.038496550905775 69.0369006824386 0 0 0
2530 1 10.263627388440339 14.017841279138562 69.30393731962742 0 0 0
2553 1 8.1760867107398 16.10179660743777 69.32580588086049 0 0 0
2388 1 8.374061456378373 14.184518534732668 67.3039225954252 0 0 0
2411 1 10.569749026042029 15.966735811339161 67.17425760366507 0 0 0
2557 1 12.324019705469212 16.095481987737585 69.09667951340266 0 0 0
2392 1 12.169022125517728 14.06102228159819 67.37371432771197 0 0 0
2396 1 16.38342514571538 14.052623347732613 67.02425738224036 0 0 0
2561 1 16.453802402643625 16.11152854254592 68.98721908154315 0 0 0
2415 1 14.420553930882607 16.0260914231632 67.22237394609255 0 0 0
2565 1 20.362049244426622 16.163303422355412 69.48794772919271 0 0 0
2400 1 20.647844296223 13.977482979787808 67.12246005143594 0 0 0
2419 1 18.430505004817896 16.05520296634186 66.97622584525836 0 0 0
2542 1 22.2824331146306 14.330490651436435 69.26358053965178 0 0 0
2380 1 24.416962825387532 14.08530818694108 67.07752083149335 -1 0 0
2423 1 22.75417123632493 16.415323844926753 67.0087419018209 0 0 0
2546 1 1.9441758050768954 18.449493449473486 69.23450345734558 0 0 0
2427 1 2.1596763561253023 20.14919771075138 67.50454277518512 0 0 0
2404 1 -0.05534199255487238 18.69195832210977 66.83270629498588 0 0 0
2569 1 -0.19863040415949443 20.201549384868272 69.22749523544955 0 0 0
2573 1 4.279426607020696 20.195637360125815 69.11773309067411 0 0 0
2550 1 6.504532987248227 18.360327239894403 69.22707288285693 0 0 0
2408 1 4.384468279785541 18.19532303520152 66.90124496311766 0 0 0
2431 1 5.912987543896475 20.297443904754843 67.05238438259228 0 0 0
2577 1 8.202038047579364 20.57356837060491 69.37247096856574 0 0 0
2554 1 10.144883734086209 18.303276522196782 69.30620960464111 0 0 0
2412 1 8.416680930998146 18.16342033473292 67.22929075662036 0 0 0
2435 1 10.142515595724666 20.569212165534942 67.20728448804913 0 0 0
2581 1 12.189643253304608 20.21327426967634 68.78201767842742 0 0 0
2416 1 12.3876284809776 17.894989218975255 66.89217151278908 0 0 0
2585 1 16.55528945613566 19.959955151148456 69.04964285356222 0 0 0
2558 1 14.428652156084198 18.295382919390818 69.06163018987772 0 0 0
2420 1 16.58268590320739 18.258721995188573 66.96217305387113 0 0 0
2439 1 14.49781023523796 20.235458796643243 67.03167584565718 0 0 0
2589 1 20.348417459473794 20.35047271590598 69.068876031868 0 0 0
2562 1 18.483064650747075 18.11836214146051 68.92640587432973 0 0 0
2424 1 20.61058195422835 18.26450710341974 67.05899176966943 0 0 0
2443 1 18.173382467472074 20.398742130964976 67.11608441452766 0 0 0
2566 1 22.545551921224664 18.3520491478699 68.91708092482132 0 0 0
2447 1 22.36963878880219 20.453879574095055 66.58884071095427 0 0 0
2307 1 2.2103589261755423 24.21819052200778 67.14304391268726 0 -1 0
2449 1 -0.1126736774758135 24.21393374735755 69.10313888560168 0 -1 0
2570 1 1.6684583454539539 22.154637069757975 69.25169404314173 0 0 0
2428 1 0.07735250876600802 21.88352167538234 66.76257550510668 0 0 0
2311 1 5.801142677013645 24.073723533407467 67.02767566247783 0 -1 0
2453 1 3.8795100380282985 24.236068418786225 69.06617129805177 0 -1 0
2574 1 6.085776342465733 22.380887448381714 69.14694396553818 0 0 0
2432 1 3.8152874967774926 22.237311978050755 67.10464455952892 0 0 0
2315 1 10.132575189197341 24.334127977894195 66.83474010086435 0 -1 0
2578 1 9.976953149931868 22.559981994719443 69.12828293974651 0 0 0
2436 1 7.891665025043224 22.344668178328426 66.92768159701234 0 0 0
2461 1 12.083630939115931 24.404948521570873 68.97104345856332 0 -1 0
2440 1 12.162317877550661 22.441554135279624 66.68717188342985 0 0 0
2319 1 14.207300508174875 24.116389066788415 67.23557213894203 0 -1 0
2465 1 16.240545923812846 24.43438380697514 69.24811163123897 0 -1 0
2582 1 14.381698819419793 22.363148448795208 69.00280079664513 0 0 0
2444 1 16.38416713703606 22.3954016597041 67.02392666207501 0 0 0
2469 1 20.421752632085024 24.271319548129483 69.16484079040785 0 -1 0
2323 1 18.518880425366348 24.3985207654403 67.12638118919811 0 -1 0
2586 1 18.14926079191555 22.532336142572582 69.07077814188848 0 0 0
2448 1 20.477971650486474 22.37818803376178 67.12567740672728 0 0 0
2327 1 22.742764388472125 24.293043181678463 67.09931182174189 0 -1 0
2590 1 22.55583797758173 22.323033312464844 68.97816032975574 0 0 0
2451 1 2.103271814219661 -0.15666782966587078 71.2342326784282 0 0 0
2456 1 3.9500280395058427 1.6105538366299423 71.38384782664613 0 0 0
2460 1 8.177624098745836 1.6868018263821964 71.1681490990324 0 0 0
2464 1 11.940149681425078 2.0762641090268037 71.02675341150922 0 0 0
2463 1 14.240226084111281 -0.1185176408228573 71.1642478767436 0 0 0
2468 1 16.256886316069505 1.9631913513009214 71.40227017676975 0 0 0
2472 1 20.24097368393906 1.670012585404045 71.23405815005908 0 0 0
2610 1 18.26051562383254 2.038679760579772 73.1720383572399 0 0 0
2452 1 24.505899530705523 1.5851405314887534 71.30585327860148 -1 0 0
2614 1 22.151517954747796 1.710147306379091 73.1623260473758 0 0 0
2475 1 1.5605513682029848 3.8904819836939897 71.41638672751931 0 0 0
2618 1 1.7596583698298613 5.7124583699282 73.13043563948331 0 0 0
2479 1 5.9256841970054275 3.891576283289891 71.10727696099218 0 0 0
2480 1 3.8646742515964547 6.012012761883378 71.18186934319756 0 0 0
2621 1 3.9668438108835744 3.5647794170316494 73.23625981443158 0 0 0
2483 1 9.93289035779846 4.15282086144597 70.86633583554801 0 0 0
2484 1 7.876598656804621 5.7889075563523535 71.22683438127135 0 0 0
2625 1 7.875164465096132 3.729756096889653 73.15896001867613 0 0 0
2488 1 12.217472100540798 5.806624094898254 71.26887771132166 0 0 0
2629 1 11.77836036405444 3.7662238127484726 73.21690348562366 0 0 0
2487 1 14.087125084804242 3.8162952157407473 71.166110756811 0 0 0
2492 1 15.973932228948962 5.949848530942581 71.04691211646822 0 0 0
2491 1 17.961845736990327 3.7588493547243895 70.99638429262158 0 0 0
2496 1 20.021959881480406 5.590584477360572 71.0405292531976 0 0 0
2634 1 18.374947944874656 5.978283825202723 73.18758210342614 0 0 0
2637 1 20.30368815951158 3.9024334488562307 73.13740798932811 0 0 0
2476 1 24.14014039853027 5.858105484435044 71.39928411470852 -1 0 0
2495 1 22.187551864337678 3.645781192489095 71.14389128656534 0 0 0
2617 1 24.134970505868786 3.7294344050657027 73.12555774283116 -1 0 0
2499 1 1.7863200206840557 7.939864284540361 71.3205240143443 0 0 0
2500 1 0.08612160934601476 9.646837595016056 71.16876615930576 0 0 0
2503 1 5.912584488436156 8.157734021545865 71.02462496197346 0 0 0
2504 1 3.7497090374188393 10.136344240806615 71.04186104588325 0 0 0
2645 1 4.030486703481657 7.904853330553193 72.98828670165736 0 0 0
2507 1 9.983534168310245 7.723986282578953 71.05580315670285 0 0 0
2508 1 7.990329332006821 10.012273191938608 71.11262912184897 0 0 0
2649 1 7.972636656328248 7.7586705788062735 73.10579383979291 0 0 0
2512 1 12.001611890748686 10.039592297414982 71.20183625801856 0 0 0
2511 1 13.711186809975503 7.819807808305176 71.43414858563952 0 0 0
2516 1 16.320565696983344 9.87751925049088 71.3111245379228 0 0 0
2657 1 16.18640949963651 7.969184148406155 73.18667829659199 0 0 0
2515 1 18.097176048729004 7.690910183898679 71.20701217029756 0 0 0
2520 1 20.112823518161925 9.788973003433997 71.20923957749216 0 0 0
2519 1 22.099273530910274 7.686803430494285 71.3900975026839 0 0 0
2662 1 22.33690022782679 10.078583668414232 73.0058465032649 0 0 0
2523 1 2.022385731067755 12.244041433276715 71.33780742609049 0 0 0
2527 1 6.121156358084748 12.418149765990163 71.38481364757989 0 0 0
2669 1 3.84101093790653 12.07897745203345 73.21349800260461 0 0 0
2531 1 10.079305480497757 11.8279199082833 71.39513092969119 0 0 0
2673 1 7.990890597010507 11.941936094815391 72.93470222404142 0 0 0
2677 1 12.41411152557308 12.152338398364876 73.21941276551141 0 0 0
2540 1 16.15367480415855 13.80636175771702 71.10420240586063 0 0 0
2535 1 14.16623502912421 12.111206287754845 71.17106186162404 0 0 0
2539 1 18.39663038046158 11.984497396291646 71.00137274984873 0 0 0
2543 1 22.61037083136869 12.255451951958118 71.45122831543401 0 0 0
2547 1 1.8590115365633575 16.2004620444105 71.20384391741023 0 0 0
2524 1 0.07075195442381216 14.120048026518795 70.95379975798735 0 0 0
2666 1 1.6984123112940541 14.266720243512376 72.99485119424806 0 0 0
2528 1 3.968914405283952 14.356414091521044 71.04162668152053 0 0 0
2551 1 5.998407994029363 16.017648154720625 71.1814726915809 0 0 0
2555 1 10.189440196728645 16.19567414972105 71.29849345397092 0 0 0
2532 1 7.984571466803475 14.309472161164038 71.02883059321626 0 0 0
2697 1 8.181227978524447 16.02852170154597 73.0396426681609 0 0 0
2674 1 10.030063568588755 14.044736124314133 73.15284117148647 0 0 0
2536 1 12.238495787335376 14.337312950270762 71.27197820943108 0 0 0
2559 1 14.431335045864376 15.924393404471735 70.96462433358741 0 0 0
2709 1 20.48815372957568 16.188238303030552 73.12610227033454 0 0 0
2544 1 20.084778098325145 14.208842470211438 71.52791689406905 0 0 0
2563 1 18.129437603493344 16.133901325094996 71.6753836287921 0 0 0
2567 1 22.853356846449813 16.24411204048613 71.08619215145772 0 0 0
2571 1 1.8984801365651873 20.190096579547564 71.51653201106605 0 0 0
2552 1 3.9256119464279084 18.173518504507655 71.31709942104733 0 0 0
2575 1 6.055836972107413 20.218118832145308 71.27191676724009 0 0 0
2579 1 10.252987625312775 20.4393236953578 70.99323325840909 0 0 0
2556 1 8.191406799875852 18.17552854084157 71.18562027278085 0 0 0
2698 1 10.102820648042282 18.58639022104623 72.70038191210007 0 0 0
2560 1 12.190193158156989 18.450559669310856 70.80545008357268 0 0 0
2725 1 11.982871869727898 20.418298037805187 72.8829881749628 0 0 0
2564 1 16.064710138912787 18.180003102069186 71.1822252755442 0 0 0
2583 1 14.342760335636621 20.519358925781233 70.8038286336138 0 0 0
2702 1 14.084821623830335 18.26061634674118 73.18327743782156 0 0 0
2729 1 15.836725411969974 20.44605693942608 73.01201220541071 0 0 0
2587 1 18.32766586852148 20.245832665024047 71.22047815665307 0 0 0
2568 1 19.99161014979675 18.497237751998178 71.05619655917974 0 0 0
2706 1 18.384767835411886 18.37722486881742 73.17293322103157 0 0 0
2591 1 22.39166210958438 20.367844429621265 71.32365871523112 0 0 0
2548 1 24.36632461621062 18.35051778830026 71.28434693449117 -1 0 0
2572 1 0.0430515785617942 22.233246516710686 71.36638614320859 0 0 0
2576 1 3.9807608187958348 21.910645625569096 71.08638978771526 0 0 0
2455 1 5.914277257447437 24.31433283002977 71.0308357657473 0 -1 0
2459 1 10.105347396316338 24.421511839401056 71.08037567130926 0 -1 0
2580 1 8.070799591575739 22.611492742534992 71.10332011791832 0 0 0
2601 1 8.03497536877635 24.265717368099438 72.97477551981963 0 -1 0
2584 1 12.009835382316323 22.611579090668165 71.05503767430368 0 0 0
2605 1 12.073374583511535 24.410477947460702 73.08147725147967 0 -1 0
2588 1 16.514874193436448 22.423161027429877 71.17219127407927 0 0 0
2726 1 13.943288429518528 22.439215171322488 73.10985885434874 0 0 0
2609 1 15.86890205061856 24.382567819817076 73.19457766183122 0 -1 0
2592 1 20.579961905621502 22.209497188651063 71.18959516791452 0 0 0
2467 1 18.04127988251343 24.442436808671303 71.41659022279434 0 -1 0
2613 1 20.50285718401838 24.240819873285602 73.06921686403906 0 -1 0
2593 1 24.42621146686067 24.379479309549236 73.12507367064582 -1 -1 0
2471 1 22.37779555226213 24.36952451051623 70.90019003376734 0 -1 0
2594 1 1.64976255251862 2.002655247875026 73.58628386679182 0 0 0
2600 1 4.145030292392459 1.8233897617675767 75.60143311823752 0 0 0
2598 1 5.923445443354661 1.7604053411652543 73.35461509739406 0 0 0
2604 1 7.990865090660295 1.5037243264005038 75.1247138047399 0 0 0
2602 1 10.102162508381385 1.6611127152150038 73.29112456971993 0 0 0
2608 1 11.988572269039228 1.5902145999839536 75.18017333577306 0 0 0
2612 1 16.349524510037206 1.673985855295644 75.23739002494455 0 0 0
2606 1 14.136547165587029 1.855578548270235 73.26763504196241 0 0 0
2616 1 20.165261461731248 1.603835770139851 75.26930667695635 0 0 0
2596 1 24.49783427163379 2.0319846539062985 75.21322461970648 -1 0 0
2615 1 22.37211102833046 -0.14767233284905604 75.16020536298467 0 0 0
2619 1 1.7829061573502953 4.093659528953753 75.27950754727604 0 0 0
2623 1 5.817212908139552 3.80033894479457 75.18576297818488 0 0 0
2624 1 3.9904959508224582 5.9323364558365554 75.00828239525886 0 0 0
2622 1 6.0664010231223005 5.996953557065413 73.60226787176707 0 0 0
2627 1 9.908692919523011 3.8027713058088755 75.29981624081196 0 0 0
2628 1 7.77087488330822 5.681609670558059 75.25397318585144 0 0 0
2626 1 10.010577291807607 5.71849518095285 73.30095021018019 0 0 0
2632 1 11.892089524454388 5.882731663244375 75.49364593653895 0 0 0
2631 1 13.634445179708102 3.878694172640431 75.1958772556085 0 0 0
2636 1 16.43368898152876 5.938972408848582 75.40780332388242 0 0 0
2633 1 15.986252015128906 3.893439438758384 73.4609700809089 0 0 0
2630 1 14.257314630038778 5.933114815151153 73.3326674437842 0 0 0
2635 1 17.89636422547612 3.5084243818308325 75.2769428480675 0 0 0
2640 1 20.36152394945713 5.815037715683185 75.37305671596913 0 0 0
2620 1 24.298485816833143 6.223130876834088 75.57557634523818 -1 0 0
2639 1 22.199115659673133 3.6605178864964163 75.27306346869527 0 0 0
2638 1 22.504220937311224 5.819748076920129 73.53615833076753 0 0 0
2642 1 1.9507022907424618 9.78807133266943 73.32564135366707 0 0 0
2643 1 1.9611911269596272 7.691193792638302 75.27227520466023 0 0 0
2647 1 6.119838603301245 7.923090760420289 75.40256043269073 0 0 0
2648 1 3.753869863345915 9.788888539336526 75.42730110251996 0 0 0
2646 1 5.705893268803985 9.899404266599047 73.28648727532106 0 0 0
2650 1 10.073752398776858 9.857966409696497 73.34880928283417 0 0 0
2651 1 10.067684727457634 8.096383530981536 75.16193527545397 0 0 0
2656 1 12.30765623588978 9.703889960778103 75.50964332555559 0 0 0
2653 1 12.249488507729282 8.026874337371295 73.43198032862398 0 0 0
2655 1 14.197634387564838 7.541723034352673 75.39991729950029 0 0 0
2660 1 16.135072100476492 10.034944419436012 75.3333608156154 0 0 0
2654 1 14.328020970856352 9.671170805873459 73.32888014901594 0 0 0
2659 1 18.42899466668556 7.6915489934932255 75.42331589375651 0 0 0
2664 1 20.537915035716367 10.011026945963767 75.43870531806644 0 0 0
2658 1 18.24589979135014 10.079014640295616 73.45038574069794 0 0 0
2661 1 20.362107753478078 8.072207710997187 73.48916323760479 0 0 0
2644 1 24.27688615512536 9.900467533137132 75.53848087603048 -1 0 0
2663 1 22.324022316138887 8.05578504347349 75.29215532310612 0 0 0
2641 1 24.263840291692055 7.947274769138788 73.40585068910518 -1 0 0
2667 1 1.8793095445722812 11.845145862786913 75.23752703868864 0 0 0
2665 1 -0.1869214784199998 12.034148271261667 73.35331573978738 0 0 0
2671 1 6.227547958944549 12.235708528595794 75.03667072749222 0 0 0
2652 1 7.994900321610627 10.689103428116354 75.23132857122785 0 0 0
2675 1 10.22393404036823 12.032970556712801 74.96901997727953 0 0 0
2679 1 13.717742078536205 12.30574252805134 75.3393217443859 0 0 0
2681 1 15.950918867590017 11.948640124547689 73.35598045442174 0 0 0
2682 1 18.359269830397892 13.86778301179761 73.39215813240152 0 0 0
2683 1 18.308431722520403 12.066447896559904 75.22301797195878 0 0 0
2685 1 20.317675105119598 11.844779623328181 73.40676969498303 0 0 0
2687 1 22.80686537880812 12.092151696758865 75.24900401748236 0 0 0
2691 1 1.7693942059714727 15.951622227464084 75.52442956040622 0 0 0
2668 1 -0.06288648413455833 13.967149993880136 75.3998763776271 0 0 0
2689 1 0.1393449828308292 16.184639992672608 73.26201707487157 0 0 0
2672 1 3.87507573439218 13.928068315955375 75.32228938592537 0 0 0
2695 1 5.819547084157066 16.276500303165015 75.48188542940603 0 0 0
2670 1 5.696207477222326 14.26486863576656 73.3664988630882 0 0 0
2693 1 3.656135182002025 16.171250149617528 73.32258089293562 0 0 0
2676 1 8.109814369573895 14.091284791981566 75.13198892734773 0 0 0
2699 1 10.10939668193774 16.205156566087496 75.34397423526714 0 0 0
2680 1 11.883425639033145 14.1399730480912 74.946578528861 0 0 0
2701 1 12.112871205584518 16.442828701152962 73.29151418307848 0 0 0
2684 1 16.456613749512442 14.424029435843543 75.45699040109203 0 0 0
2703 1 14.02432040382061 16.20022517168696 75.44472527636293 0 0 0
2678 1 14.448417134344993 14.329938080126894 73.2919231842949 0 0 0
2705 1 16.3243253852876 16.33641353371756 73.35337726641556 0 0 0
2688 1 20.207341772243332 14.116387237900062 75.27169319937059 0 0 0
2707 1 18.588525847720085 16.33457936721006 75.12653377827642 0 0 0
2711 1 22.681809050566912 16.130231639650667 75.23980771409947 0 0 0
2686 1 22.61387481686768 14.049003324029576 73.35055745121439 0 0 0
2690 1 1.8384492654231472 18.366835791940794 73.30300142067105 0 0 0
2715 1 2.090759879570006 20.088702920272837 75.4533709443109 0 0 0
2692 1 -0.023923966149267256 18.052602881004603 75.23924448879538 0 0 0
2696 1 3.9639875194217806 18.134188141829696 75.25226660202517 0 0 0
2719 1 6.232355247280138 20.199699135658292 75.53488655548375 0 0 0
2717 1 3.9867109005973074 20.303798663925996 73.39313830194136 0 0 0
2694 1 5.776760539843434 18.121748196513416 73.44181302976328 0 0 0
2700 1 8.429107559661494 17.923195136727514 74.87227175486291 0 0 0
2723 1 10.064311713960146 20.032041006419902 75.13172873784389 0 0 0
2721 1 7.6173583355924634 20.216212043687342 73.41047433194097 0 0 0
2704 1 12.129791178141211 18.47322135942599 74.99735869894556 0 0 0
2727 1 14.217105650420626 20.60882961878655 75.1266003577718 0 0 0
2708 1 16.10386706070851 18.434979688354957 75.23202105048945 0 0 0
2712 1 20.490379868857772 18.24597988856211 75.094349331266 0 0 0
2731 1 18.369875600232753 20.285292410020602 74.97469700210591 0 0 0
2733 1 20.315805366811176 20.374886637517392 73.26357691299725 0 0 0
2713 1 24.4532327396414 20.353055135329413 73.40925639146039 -1 0 0
2735 1 22.618279820353443 20.54110560988837 75.65390525434712 0 0 0
2710 1 22.507459383837862 18.235491307060116 73.52995079412189 0 0 0
2595 1 1.9107189132105793 24.435148056033977 74.9895873502303 0 -1 0
2714 1 2.0874183604374426 22.23758554334544 73.28105077980409 0 0 0
2597 1 4.189042700564669 24.17806163086444 73.25732760232302 0 -1 0
2599 1 5.750738022254497 24.30215459622108 75.53062004508814 0 -1 0
2720 1 3.864986078783205 21.977027573750014 75.44759041749035 0 0 0
2718 1 6.111661578055087 22.286829178799934 73.46149919882697 0 0 0
2722 1 9.970179836025212 22.41770394681602 73.31391738258507 0 0 0
2603 1 9.899148808577856 24.339503331720486 75.45881757343433 0 -1 0
2724 1 8.12846711000737 22.142855884109032 75.1568537229183 0 0 0
2728 1 11.958342787626464 22.139272934993734 75.16541369226866 0 0 0
2607 1 13.98745269449138 24.400150434377224 75.35956881486426 0 -1 0
2732 1 16.29664102781468 22.044801854892953 75.011830403957 0 0 0
2611 1 18.09929208062932 24.25051125750639 74.88193735882305 0 -1 0
2736 1 20.464542651696874 22.247782972039765 75.3557644745559 0 0 0
2730 1 18.42474364613149 22.355131180755684 73.26376459026918 0 0 0
2716 1 24.39238966537505 22.566339663651178 75.21018114911931 -1 0 0
2734 1 22.57775023679018 22.24376991493002 73.33474683790052 0 0 0
2738 1 1.819492567944918 1.7115404064219693 77.14729245843924 0 0 0
2739 1 1.5695387111320245 -0.09024556389632465 79.32728884725047 0 0 0
2742 1 5.936829175695167 1.7233153293222645 77.53975621875466 0 0 0
2744 1 3.8839197438460236 1.3533666211553321 78.87914842854192 0 0 0
2746 1 10.032150104225183 1.9379435450245404 77.5511814667679 0 0 0
2748 1 7.866696796827993 1.7889478299089447 79.457932959998 0 0 0
2752 1 11.879035306688252 1.678124413663616 79.32805784954371 0 0 0
2750 1 14.004204097176139 1.8738764231469403 77.1645770702506 0 0 0
2756 1 16.430567138731767 1.443373337184124 79.40818370450532 0 0 0
2754 1 18.252991839678884 1.4580541458957557 77.32171683000581 0 0 0
2760 1 20.307766338090275 1.6366311948852323 79.58219143624069 0 0 0
2740 1 24.132545610115763 2.0042060546520233 79.16641085859649 -1 0 0
2758 1 22.42125024661658 1.8692311186732886 77.09612285794627 0 0 0
2737 1 24.481648286703205 0.01569999913207154 77.11204710821895 -1 0 0
2762 1 1.6567033617932143 6.052188345850199 77.60846862733018 0 0 0
2763 1 1.8302019949993023 3.829686580737426 79.23514768785984 0 0 0
2765 1 3.6488040683947087 3.9107492712565683 77.10844711789356 0 0 0
2766 1 5.707335754624539 5.834941675161082 77.30832138055631 0 0 0
2767 1 5.837581241071494 3.940323785937405 79.34972003210352 0 0 0
2768 1 3.7147092174202183 5.928521557606038 79.38311127717802 0 0 0
2769 1 8.075407147452752 3.81078158122672 77.44018194599985 0 0 0
2771 1 9.907388454585458 3.5519593317037517 79.67861022731468 0 0 0
2772 1 7.870381969561537 5.657510910167528 79.50157665183907 0 0 0
2770 1 9.635755384181607 5.692014646222295 77.20256733793056 0 0 0
2773 1 11.679541336315586 3.8410489806640644 77.31851276588019 0 0 0
2776 1 12.01741853706982 5.728734930625614 79.5623722741045 0 0 0
2774 1 14.036505925084748 5.6679788020270605 77.29242661465942 0 0 0
2775 1 14.043460563678028 3.7002194378731064 79.42019001468692 0 0 0
2777 1 16.16220926513637 3.687679612446043 77.56649093658035 0 0 0
2780 1 15.870019005624846 6.140136249872931 79.3637922316777 0 0 0
2778 1 18.358964903160846 5.786168475191789 77.4722639646737 0 0 0
2779 1 18.338968889497117 3.741779086253351 79.54078735340076 0 0 0
2781 1 19.95552509926179 3.6677213776357225 77.27161051068883 0 0 0
2784 1 20.328226077727592 5.828188038510687 79.26694685852098 0 0 0
2761 1 23.798855355438135 4.13982977605153 77.42792021893108 -1 0 0
2764 1 24.115921736215704 5.874967503336275 79.60802962908339 -1 0 0
2782 1 22.145883250352007 6.423421312608129 77.34116782161351 0 0 0
2783 1 21.983646372604042 3.95874992215749 79.6292224124427 0 0 0
2786 1 1.7357636987980734 10.121174611205358 77.36987079054309 0 0 0
2787 1 1.6988861324099351 7.693540210520105 79.6147059685013 0 0 0
2785 1 -0.04434094595744398 8.159473025685436 77.60971307580606 0 0 0
2788 1 -0.18887651889444243 10.144641736436105 79.57133069301383 0 0 0
2789 1 3.627292638425372 8.14705126232256 77.63989357304213 0 0 0
2790 1 5.992449033564501 10.065887707690994 77.20544122740378 0 0 0
2791 1 5.786749691497078 8.240256653140108 79.45541486098789 0 0 0
2792 1 3.7869039472217016 10.003961267611011 79.38297957048023 0 0 0
2793 1 7.854164980243523 7.9130163311159745 77.55066204132147 0 0 0
2795 1 9.609044686851863 7.748460545236867 79.43054640339503 0 0 0
2794 1 9.741641370675607 9.994277560182883 77.34768045130369 0 0 0
2796 1 7.837659398508654 9.98443923855244 79.55357354000681 0 0 0
2797 1 11.526093519506755 7.694455237071145 77.36793253725705 0 0 0
2799 1 13.78536144710527 7.783630870070329 79.39891601320464 0 0 0
2800 1 11.960160748035333 9.84988071359136 79.3703800511588 0 0 0
2798 1 14.072106223184134 10.080771190630786 77.37263288227571 0 0 0
2801 1 16.06748540384561 8.08860681438804 77.32059059498536 0 0 0
2804 1 15.65083073102682 9.866543522507731 79.28016369511778 0 0 0
2802 1 18.245058614567704 9.817561975200057 77.1663740830103 0 0 0
2803 1 18.225987446278907 7.760859659525174 79.44338764069438 0 0 0
2805 1 20.33592679882193 8.205049333901457 77.68126258377069 0 0 0
2808 1 19.98481806931685 10.016205718223066 79.24495486401928 0 0 0
2806 1 22.310186019369908 10.157554164150268 77.46237232646456 0 0 0
2807 1 22.32189917789801 8.398262097347612 79.45706964010664 0 0 0
2811 1 1.6211311855606036 12.266086141700294 79.88036712831048 0 0 0
2813 1 3.8705286505732044 11.998779726026694 77.20492639309796 0 0 0
2815 1 6.094070655708703 11.9783250665885 79.43247777376394 0 0 0
2817 1 7.919514553466982 12.154669788635257 77.49002500998438 0 0 0
2819 1 9.90341718055232 12.117842023186224 79.64848026347919 0 0 0
2821 1 11.830522052115269 11.942607443169367 77.37820879759242 0 0 0
2823 1 13.802338482372392 11.896848722643337 79.25869555151266 0 0 0
2825 1 16.07312151939817 11.765774003482726 77.07547879746741 0 0 0
2827 1 17.907129038966247 11.732686287920185 79.19668795796183 0 0 0
2829 1 20.113738771046165 12.164425425585955 77.216093944823 0 0 0
2809 1 24.472828987269555 12.253504450328375 77.5162182064351 -1 0 0
2831 1 22.254950577481573 11.711163938280242 79.39052144420074 0 0 0
2810 1 2.0331818354967934 14.3088943714528 77.70016835934328 0 0 0
2835 1 1.9654232676442756 16.310187479812562 79.3616492809294 0 0 0
2814 1 6.067505645356296 14.261826987911592 76.97130204879845 0 0 0
2816 1 4.14270491431153 13.939764615658097 79.37866118127602 0 0 0
2837 1 4.291792503117177 15.892257932031145 77.63704137194595 0 0 0
2839 1 5.82343752585714 16.26544957053636 79.40876329013552 0 0 0
2818 1 9.907115682269238 14.097282061981998 77.32327274384268 0 0 0
2820 1 7.716281381759495 14.132385754531112 79.50468792284636 0 0 0
2841 1 8.329229597459104 15.990628693687283 77.14978560746928 0 0 0
2843 1 10.107876552258732 16.30982222434084 79.4091939843453 0 0 0
2824 1 12.080413889816144 14.236804749621479 79.33429724694629 0 0 0
2845 1 12.217978724399925 16.436839716944164 77.56087378552685 0 0 0
2822 1 14.202562743001799 14.004177253481073 77.47339832905445 0 0 0
2828 1 16.16940332138153 14.284667936500023 79.57631753072341 0 0 0
2847 1 14.064174074432911 16.06098007779051 79.36777989195996 0 0 0
2849 1 16.255958734448825 16.25632462966378 77.35654707813356 0 0 0
2826 1 18.292430876675667 13.95214530163143 77.45063895529842 0 0 0
2832 1 20.763881642523685 14.322626300441627 79.41766512744843 0 0 0
2851 1 18.278792403060358 16.032039738221002 79.2761139890522 0 0 0
2853 1 20.34845662621416 16.203579595474345 77.00713567643734 0 0 0
2833 1 24.37353936407585 16.15386014266425 77.40722001924232 -1 0 0
2812 1 24.406598713688616 14.105151660841967 79.26633296658002 -1 0 0
2830 1 22.210197593119062 14.258489427675558 77.35416801051456 0 0 0
2855 1 22.263459218042826 16.20704744710742 79.28399366607522 0 0 0
2834 1 1.9315797363267824 18.156245690151792 77.44407909237573 0 0 0
2859 1 1.8239454652513136 20.217219907722026 79.67460232984648 0 0 0
2857 1 -0.09693123757954777 20.39590528061825 77.1611822476325 0 0 0
2838 1 5.942837878122195 18.24576333448652 77.71173193061172 0 0 0
2840 1 4.060703269290134 18.407804488813554 79.75383625591932 0 0 0
2861 1 3.9177575354401606 20.208652892313744 77.52255943636281 0 0 0
2863 1 5.998408461611494 20.3308342258875 79.2401316223649 0 0 0
2842 1 10.308936135630677 18.265084478004674 77.34872212366496 0 0 0
2844 1 7.881172705838889 18.246484112256468 79.3691144999254 0 0 0
2865 1 8.31190885939638 19.817478583347373 77.39142838153359 0 0 0
2867 1 10.434077461449176 20.517147681809192 79.42276804500895 0 0 0
2848 1 12.338470871314053 18.20940343696688 79.67035068097837 0 0 0
2869 1 12.416295868767428 20.264798005544755 77.08371405109222 0 0 0
2846 1 14.411797065676042 18.31345254607168 77.40805619403298 0 0 0
2852 1 16.197772284262015 18.533498555169743 79.58582723071139 0 0 0
2871 1 13.979863469813447 20.34492622384016 79.1708950052294 0 0 0
2873 1 16.557654831960058 20.198576329965242 77.32686437416854 0 0 0
2850 1 18.51503572184295 18.451576502738902 76.94635392207567 0 0 0
2856 1 20.37175979509817 17.941185798577656 78.93069863119602 0 0 0
2875 1 18.447835337160647 20.259874527928083 79.62319220989481 0 0 0
2877 1 20.5402647938473 20.228386457021514 77.1778103131232 0 0 0
2836 1 24.49624366524769 18.129222117147613 79.40176778202435 -1 0 0
2854 1 22.623243529930626 18.416219358466762 77.35271064169862 0 0 0
2879 1 22.27601180649058 20.262232394554154 79.29595783536375 0 0 0
2858 1 1.5712783794826275 22.255620608290755 77.29108017278881 0 0 0
2743 1 5.968693448674003 24.254141851889756 79.56919725276964 0 -1 0
2741 1 3.6560719730776734 23.9554132945809 77.29190244623692 0 -1 0
2862 1 5.769805604489816 22.210204490965488 77.41605336780431 0 0 0
2864 1 3.8297204190016014 22.36252067757961 79.690764027425 0 0 0
2745 1 8.058057461663973 24.332683026680016 77.29501340493255 0 -1 0
2747 1 9.831066623090507 24.39061796144506 79.19555485201325 0 -1 0
2866 1 10.255625848806394 22.095113045596975 77.15753006355293 0 0 0
2868 1 8.154752244583428 22.444314999108975 79.20975840347802 0 0 0
2749 1 12.02701003859129 24.419357963912837 77.40511112063668 0 -1 0
2872 1 12.254505753976268 22.46542954878081 79.31557891523605 0 0 0
2751 1 14.360588119099646 24.067904190665637 79.3314207837011 0 -1 0
2753 1 15.961610598410092 24.283677815372776 76.97901614239785 0 -1 0
2870 1 14.012231486102198 22.50289166823387 77.42578051733429 0 0 0
2876 1 16.299284899636795 22.165084329871178 79.32781032743391 0 0 0
2757 1 20.351149201457375 24.377724910174642 77.34594418868049 0 -1 0
2755 1 18.329517555512766 24.24546134914521 79.2334436679965 0 -1 0
2874 1 18.440587947407458 22.099199051016285 77.59018206849461 0 0 0
2880 1 20.430089488976705 22.703277122320273 79.42872061989307 0 0 0
2860 1 24.39332574773168 22.361521641130643 79.36872289725778 -1 0 0
2759 1 22.525585822024283 24.300654538533678 79.2723895140309 0 -1 0
2878 1 22.59265069822306 22.819870380419957 77.21139905865016 0 0 0
2882 1 1.412571148619946 2.172881677566983 81.44274912958822 0 0 0
2886 1 5.771019571842965 1.9340280954464553 81.07936409637789 0 0 0
2888 1 3.8237319481185805 1.761872925418736 83.27781554772044 0 0 0
2885 1 3.624044906823298 -0.04842038789300318 81.54566186883518 0 0 0
2887 1 5.953334790488077 0.10638916776623253 83.0650527144861 0 0 0
2892 1 7.935762490428788 1.8526980390970915 83.42377483109135 0 0 0
2890 1 10.008524979522495 1.5554441738969556 81.6139366109807 0 0 0
2894 1 14.118333532803572 1.7116819574770143 81.23670563664575 0 0 0
2900 1 16.130738860111336 1.6521592772574936 83.25431113056729 0 0 0
2898 1 18.191481930887775 1.506075072438151 81.42812165406754 0 0 0
2904 1 20.331346203469167 1.7354818952875422 83.46266952448276 0 0 0
2884 1 24.446213348755222 1.7328469850446817 83.41377138990666 -1 0 0
2902 1 22.2639267567313 1.8775851095347735 81.55046865872895 0 0 0
2903 1 22.411231781058767 0.01253356554221341 83.72846002706967 0 0 0
2881 1 24.008573542181765 0.11194766375080434 81.36148689897949 -1 0 0
2906 1 1.5496991784832377 6.000915907809732 81.46228459900705 0 0 0
2907 1 1.604183879125453 4.050689673564385 83.66536942905527 0 0 0
2909 1 3.5986656369048293 3.930949673933248 81.41552927080144 0 0 0
2910 1 5.8761871283181515 5.976927157839239 81.25079254823892 0 0 0
2912 1 3.5134807467303957 5.884805601470022 83.5900508898091 0 0 0
2911 1 5.686866237258132 3.816060376135036 83.41639724789643 0 0 0
2913 1 7.882264013452598 3.947657210744431 81.50423252706676 0 0 0
2914 1 9.936164051876473 5.795145334157189 81.53019927541261 0 0 0
2915 1 9.554538712693505 3.9423191250684146 83.62509052862542 0 0 0
2916 1 7.708225603003689 6.185599965048656 83.5899084501186 0 0 0
2917 1 12.023193390190226 3.422933216337409 81.5664438672576 0 0 0
2920 1 11.74267672978002 5.64750060953834 83.39417502607358 0 0 0
2918 1 13.869448719519706 5.636225802790519 81.60173855885049 0 0 0
2919 1 14.083017904531145 3.920773671417396 83.6188259228503 0 0 0
2921 1 15.91779457164458 3.8845189905936506 81.6134385136561 0 0 0
2924 1 15.827444590610456 5.984160426584786 83.56416448436173 0 0 0
2922 1 18.064871538157696 5.7723478092927465 81.79861629780336 0 0 0
2923 1 18.54248524657342 3.564940158034901 83.53086750515843 0 0 0
2925 1 20.16096977924706 3.7528294847493457 81.45122744901796 0 0 0
2928 1 20.20815304528167 6.010416477868334 83.39088051858407 0 0 0
2905 1 24.178568403303295 3.927575726066209 81.27379848522773 -1 0 0
2908 1 24.21043444133565 5.956798746658338 83.67636777719457 -1 0 0
2926 1 22.194171191731947 5.967826138815092 81.76473440266861 0 0 0
2927 1 22.460461706663885 3.9338565545153585 83.6689684242507 0 0 0
2930 1 1.5742976436529987 10.119788604717922 81.63570331392026 0 0 0
2931 1 1.6860557074574487 8.025913852734035 83.66388892959617 0 0 0
2933 1 3.4642397498227346 8.216191761010425 81.53675144715308 0 0 0
2934 1 6.033874170628612 10.20056425644801 81.54498202665825 0 0 0
2936 1 4.001267697265484 10.14697956779217 83.30371645649991 0 0 0
2935 1 5.860923534552649 8.204546847318062 83.47350142564368 0 0 0
2937 1 8.090310210400986 8.020174572321467 81.70147812197 0 0 0
2938 1 10.015800431975855 9.921769698153648 81.42327664646673 0 0 0
2939 1 10.144891950736394 8.019715804541256 83.56513711518105 0 0 0
2940 1 8.03822718397937 10.300351032171141 83.53193290561263 0 0 0
2941 1 11.867269112967087 7.8399916686910185 81.68571611749674 0 0 0
2944 1 12.302743972349381 10.071090910415261 83.34300386885518 0 0 0
2942 1 14.133562356928765 9.68144680585952 81.40435699863278 0 0 0
2943 1 14.096923229972482 7.9803747434234715 83.77812271204272 0 0 0
2945 1 15.90345293069626 7.922504824219073 81.55901296906782 0 0 0
2948 1 16.37312965840045 10.23045588997593 83.14284874592276 0 0 0
2946 1 18.367832056416958 9.655531469747045 81.32989114222299 0 0 0
2947 1 18.131515663458508 8.043009899940051 83.30200198988125 0 0 0
2949 1 20.34611995824789 7.762304890662436 81.27077497785731 0 0 0
2929 1 24.125899685128772 8.020965830058172 81.36611654932967 -1 0 0
2932 1 24.434239128910974 9.92448950332139 83.59873402755541 -1 0 0
2950 1 22.09785122475494 10.099400724106587 81.57186998987963 0 0 0
2951 1 22.261711677617193 8.244937852331612 83.54432348456717 0 0 0
2955 1 1.7973012762238345 12.276817794899301 83.71442562475102 0 0 0
2957 1 3.858311352337952 12.017173058172267 81.31526387785392 0 0 0
2959 1 5.823430492482039 12.182743898927045 83.59614050664896 0 0 0
2961 1 8.14548325928433 12.301654413255982 81.64782427483031 0 0 0
2963 1 10.029739647387736 12.60875788677948 83.61674464921272 0 0 0
2965 1 12.096818825143107 12.032860080850805 81.42761506703071 0 0 0
2967 1 14.389826205302633 11.952951994052778 83.26133037849264 0 0 0
2969 1 16.0633986363845 11.997368987317923 81.22927862099691 0 0 0
2952 1 20.192802400353088 10.412160885279206 83.35259009355605 0 0 0
2971 1 18.19218882151541 12.159481941034835 83.08457344656034 0 0 0
2973 1 20.256468587376382 12.166149272401803 81.07589435586706 0 0 0
2953 1 24.386803345768552 12.125943995819727 81.7571783406809 -1 0 0
2975 1 22.109418717835084 12.120048094600518 83.45549232689646 0 0 0
2954 1 1.7684390627893123 14.332161101587872 81.6103739081239 0 0 0
2979 1 1.8373104247479857 16.167084128396624 83.6428712684672 0 0 0
2958 1 6.016592439782901 14.255907672051926 81.53449002157052 0 0 0
2960 1 3.7975377823624523 14.151451045055797 83.36344922771532 0 0 0
2981 1 4.045900353699625 16.278816248984732 81.52412567657761 0 0 0
2983 1 5.967253656394506 16.053642084897945 83.64334823404525 0 0 0
2962 1 10.199437905188718 14.210910198449767 81.91027227583672 0 0 0
2964 1 7.991055830132414 14.275004276056613 83.48571941722776 0 0 0
2985 1 8.03038404298026 16.121339583281454 81.39978349405577 0 0 0
2987 1 10.408424892653334 16.354624140276407 83.59930324756185 0 0 0
2968 1 12.6398924107109 14.222189440097104 83.5189595901501 0 0 0
2989 1 12.111866885090684 16.164889400930292 81.60076778176297 0 0 0
2991 1 14.310227743589314 16.18215340726607 83.44583458208555 0 0 0
2966 1 14.305977197799974 13.928133787861194 81.10960445309216 0 0 0
2972 1 16.41932777152691 14.070111842674539 83.51661907695718 0 0 0
2993 1 16.25379379925824 15.943483513789177 81.59484332954365 0 0 0
2970 1 18.611063009760024 14.051701643627593 81.08552256957948 0 0 0
2976 1 20.21914988291573 14.020575073387814 83.71854215640147 0 0 0
2995 1 18.309288954241886 16.355325856267093 83.32414972917155 0 0 0
2997 1 20.094125454545377 16.119334527020683 81.47933919045148 0 0 0
2977 1 24.419635612853206 16.130489445264473 81.78101108039574 -1 0 0
2974 1 22.37113862156066 14.145977898291006 81.69018463520635 0 0 0
2999 1 22.327532530488526 16.142729173240554 83.46447112324007 0 0 0
2978 1 1.7036041170122038 18.228301187723865 81.38884713419277 0 0 0
3003 1 1.8898964294118068 19.713342960538128 83.61183792705268 0 0 0
3001 1 -0.06685745427304113 20.012158171353953 81.5857308536889 0 0 0
2982 1 6.099281499811835 18.2561790780333 81.5015917115622 0 0 0
3005 1 3.7963601212459004 20.57916266818777 81.96877837532242 0 0 0
3007 1 6.2265118491067994 20.45826955711783 83.50893237039038 0 0 0
2984 1 4.158122671012106 17.901165987735375 83.52986747804901 0 0 0
2988 1 8.399545924931687 18.587916783735558 83.47474134782195 0 0 0
3009 1 8.120354462095804 20.509299022595684 81.32038993609304 0 0 0
3011 1 10.188491284284689 20.528124640512722 83.43411508107451 0 0 0
2986 1 9.840464670053425 18.326368557327108 81.30360977193078 0 0 0
3013 1 12.390151839349551 20.16140959908035 81.60883274478415 0 0 0
2990 1 14.186979690641879 17.99636622162062 81.55849238915202 0 0 0
3015 1 14.291037894625745 20.261410407641826 83.54174922360512 0 0 0
2996 1 16.393576226116267 18.546864523665192 83.45348510544684 0 0 0
3017 1 16.32553949873759 20.55385079898135 81.5262716354642 0 0 0
2994 1 18.204098576078962 18.369146083477368 81.35063359809817 0 0 0
3000 1 20.456252468773663 18.144969360364854 83.60048194467763 0 0 0
3019 1 18.399192939991238 20.127941000886125 83.63534674117123 0 0 0
3021 1 20.464750866739188 20.518539616761444 81.63363669040491 0 0 0
2998 1 21.978884207728264 18.056808284993437 81.25814427663168 0 0 0
3023 1 22.617508984614602 19.878517790101263 83.2711630794076 0 0 0
2883 1 1.3509770714651332 24.34736760838615 83.18692181552416 0 -1 0
3002 1 1.4965859390775842 22.38253101827368 81.50369639328186 0 0 0
3006 1 6.129335727924541 22.46472434268886 81.38212668077323 0 0 0
3008 1 3.709967306197128 22.49817642264823 83.47143107233042 0 0 0
2889 1 8.333461043359904 24.394945320196527 81.4557339265491 0 -1 0
2891 1 9.900109213238647 24.420077400848 83.5557441900623 0 -1 0
3012 1 7.834412866382513 22.579649507571645 83.26255716465714 0 0 0
3010 1 10.366599378557709 22.436822803758226 81.28802316240949 0 0 0
2893 1 12.165405792919122 24.345871947438418 81.31690961853091 0 -1 0
3016 1 12.246267745718061 22.345198099727604 83.39473571067597 0 0 0
2895 1 14.056336590308995 24.44234625191052 83.48153167375466 0 -1 0
2897 1 16.15612860233081 24.314053926210747 81.20717320101865 0 -1 0
3014 1 14.4379375881001 22.275455814579708 81.52980745799918 0 0 0
3020 1 16.494625672517614 22.278927764572316 83.65941866632744 0 0 0
2901 1 20.280885062628485 24.385312187228237 81.6828222095019 0 -1 0
2899 1 18.303229225992254 24.328205679526555 83.81160965087007 0 -1 0
3018 1 18.39646979942178 22.406938751467578 81.6480642799086 0 0 0
3024 1 20.58478114516179 22.18894816885323 83.37336095786515 0 0 0
3004 1 24.262581749067316 22.15328410699739 83.5490553056132 -1 0 0
3022 1 22.51904061043085 22.247643086976353 81.30695545799956 0 0 0
3026 1 1.6947919046012825 1.7438642976654015 85.36109715215206 0 0 0
3030 1 5.82573523546742 2.203965936341845 85.6036620534461 0 0 0
3034 1 9.82157676838105 2.1144306429357798 85.74320312286737 0 0 0
3033 1 7.849171898092642 0.29184616247331974 85.59336714294467 0 0 0
2896 1 11.794253430491569 1.844244690020731 83.92537753581504 0 0 0
3040 1 12.41950240012164 1.928392683433759 87.2097050006301 0 0 0
3038 1 14.394360580494798 1.700966575477251 85.76547059428466 0 0 0
3041 1 16.253593211885338 0.07081759967932605 85.53603649547014 0 0 0
3042 1 17.952171067946104 2.0793043200324752 85.89427225950695 0 0 0
3045 1 20.233127058122157 -0.0008362815783496957 85.60919486087734 0 0 0
3046 1 22.410222397095247 1.8154102570200399 85.65035708485038 0 0 0
3050 1 1.9303167095613558 5.9258888444570115 85.67160130448914 0 0 0
3053 1 3.801769612039176 3.697935538621078 85.37882425823969 0 0 0
3054 1 5.739073265126094 6.084726561300797 85.6225613599908 0 0 0
3057 1 7.692646724423594 3.9577569194437183 85.51790425047103 0 0 0
3058 1 9.858185320003772 6.167199117422482 85.5143440731954 0 0 0
3061 1 11.964431478630972 3.9211215754901287 85.53408122140644 0 0 0
3062 1 13.582718702783295 5.931803985043039 85.56258995722627 0 0 0
3065 1 16.273456626973832 3.9373389415054767 85.62412808315591 0 0 0
3066 1 18.352643334518312 5.989305831208404 85.38587516616342 0 0 0
3069 1 20.380998977400196 3.991311349254514 85.69835779505942 0 0 0
3049 1 24.511584202593742 3.704886315921671 85.37650735231904 -1 0 0
3070 1 22.067008812941296 6.104116161807173 85.88927140487999 0 0 0
3074 1 1.8117779774432794 10.172120212698259 85.67569738711987 0 0 0
3077 1 3.9078586176862586 8.065803156007949 85.22247965996701 0 0 0
3078 1 5.798645217068519 9.955544768061285 85.43591821788412 0 0 0
3080 1 3.6799226881447327 10.0559590644903 87.27671649231232 0 0 0
3081 1 8.247995523176971 8.34310506339958 85.35555607773279 0 0 0
3085 1 12.119121192489146 8.301499396970298 85.64134148973046 0 0 0
3088 1 12.261560912202034 10.283547277073358 87.30662876830799 0 0 0
3089 1 16.313415650957573 7.757354284099347 85.37160983091073 0 0 0
3086 1 14.492700992478285 10.069965507117107 85.41751846523917 0 0 0
3090 1 18.382352364081704 10.100801669070956 85.4097071648673 0 0 0
3093 1 20.296035806053794 8.129966652611413 85.44749003684286 0 0 0
3073 1 24.512983169407498 8.07479008805341 85.63505611281259 -1 0 0
3094 1 22.3762979415543 10.139048096812008 85.58746614709482 0 0 0
3101 1 3.9018578846106404 12.1931905321686 85.34637411338865 0 0 0
3082 1 10.25115991675473 10.40559449630217 85.31018311842294 0 0 0
3105 1 8.258184785001486 12.287211545542931 85.60370933675507 0 0 0
3109 1 12.168988227858875 12.472493912671881 85.46639076699596 0 0 0
3113 1 16.492091346820587 12.008995871983254 85.17431419820974 0 0 0
3117 1 20.563402214673793 12.222689954494506 85.6145002338375 0 0 0
3097 1 24.243178916319145 11.894642432423604 85.65084004650636 -1 0 0
3098 1 1.7455808343738217 14.269663341075528 85.82206664201834 0 0 0
3121 1 -0.18149281544595797 16.059120123283478 85.92676049518357 0 0 0
3102 1 6.203222617953288 14.158291689922105 85.67469047586562 0 0 0
3125 1 4.177592680627495 16.279398828624537 85.67838978362069 0 0 0
3106 1 10.322110729726642 14.35433779636705 85.90010334237536 0 0 0
3129 1 8.225498659281952 16.476986502562326 85.6640783870168 0 0 0
3133 1 12.193659917952234 16.502303948588903 85.76286542774668 0 0 0
3110 1 14.425742530705522 14.23535606669724 85.387148881358 0 0 0
3137 1 16.307547208934515 16.270803306041934 85.38403944999702 0 0 0
3114 1 18.577260128607527 14.080522933081163 85.77543295401985 0 0 0
3141 1 20.337421926456102 16.232451496010356 85.53695178341022 0 0 0
2956 1 24.26881515690434 14.0363080954119 83.85183907996499 -1 0 0
3118 1 22.390579673360143 14.257527779680315 86.0820208136867 0 0 0
2980 1 -0.1854126585648217 17.99411288141205 84.04419392760057 0 0 0
3122 1 1.8827598459671964 17.999719271357904 85.81231363948275 0 0 0
3145 1 0.02300945667937737 20.548142083883214 85.51659017323664 0 0 0
3126 1 6.063874902190276 18.543265748089347 85.4443025937321 0 0 0
3149 1 3.8491430830577045 20.188376883753335 85.77422109925612 0 0 0
3130 1 10.362328285375865 18.618966611740248 85.53092061749292 0 0 0
3153 1 8.089709952117131 20.83991077581951 85.36017157133236 0 0 0
2992 1 12.468085881932772 18.31108401036674 83.82990460060215 0 0 0
3157 1 12.178669827977204 20.642392833451687 85.4441184823567 0 0 0
3134 1 14.47481927885916 18.29970948592979 85.45489890703095 0 0 0
3161 1 16.31089365566497 20.59994536043874 85.66466203431818 0 0 0
3138 1 18.47690697367971 18.384257510678317 85.624912581255 0 0 0
3165 1 20.431306687384286 20.51878441785439 85.39635666817703 0 0 0
3142 1 22.46094054191675 18.49968479936664 85.72693405049814 0 0 0
3146 1 2.134812610377507 22.42980886332196 85.62396270894753 0 0 0
3029 1 4.035105807647826 24.45988963416258 85.39344136643928 0 -1 0
3150 1 5.566697202119337 22.425337529308287 85.38698919989636 0 0 0
3154 1 10.071792624182986 22.5269815467893 85.30893222589883 0 0 0
3156 1 7.914008899341438 22.39616897822016 87.26378641300832 0 0 0
3037 1 12.006112463753972 24.299887045217616 85.59358079007426 0 -1 0
3158 1 14.361855407839524 22.53838512058644 85.64857538383276 0 0 0
3162 1 18.62638412039069 22.277218917409797 85.4975276581421 0 0 0
3025 1 24.39965951835668 24.431311796452082 85.65963669841139 -1 -1 0
3166 1 22.23460424905545 22.58237378410881 85.77546440663897 0 0 0
3027 1 1.4798799065059838 -0.03185537890759557 87.84993483166774 0 0 0
3170 1 1.6140798821819269 2.1078429329215873 89.73316124406666 0 0 0
3169 1 -0.21323999296075868 -0.008506905415394783 89.97754135354263 0 0 0
3032 1 3.6636334924756535 1.646469779277652 87.41752931234491 0 0 0
3174 1 5.969493112399553 1.7321589041359151 89.29054600590322 0 0 0
3173 1 3.9658086434881135 0.03063379164297589 89.73659729941303 0 0 0
3036 1 7.583885928055238 1.7256957512178823 87.46928890012782 0 0 0
3178 1 10.083162769613956 1.8032285731237967 90.10200445292647 0 0 0
3177 1 7.965007789583536 0.18467562765219375 89.56920394220141 0 0 0
3035 1 9.998250769136773 0.08108359865883025 87.52570303081217 0 0 0
3044 1 16.101592029574007 2.0625522335520903 87.76429084149242 0 0 0
3182 1 14.060320109032704 1.6950853298555235 89.62416907409006 0 0 0
3039 1 14.37135089842562 -0.11467566269715945 87.74262670084522 0 0 0
3048 1 20.279189603559573 1.7560178976352665 87.67375174004891 0 0 0
3186 1 18.1743234297655 1.5462848374103584 89.76269679368397 0 0 0
3189 1 20.36725149100908 0.0004175592441721665 89.95012695807148 0 0 0
3028 1 24.345598338266477 2.0845304444938955 87.49798515920035 -1 0 0
3190 1 22.281678808973595 2.1034027205017236 89.5777797791618 0 0 0
3051 1 1.2870533273483071 3.9544603160277703 87.76095674561668 0 0 0
3194 1 2.1266421088701764 5.777465561947654 89.84895215644532 0 0 0
3193 1 -0.12914052199772952 4.375362900940589 89.64909114783363 0 0 0
3055 1 5.837191603446078 4.113109469447695 87.40565905116775 0 0 0
3056 1 3.8347692420391253 5.969926766389021 87.61050052649856 0 0 0
3197 1 3.8097938746603273 3.5729952788934045 89.74772565852514 0 0 0
3198 1 6.027171806418149 5.633801901976107 89.704298683595 0 0 0
3059 1 10.137362485042166 4.061237004117736 87.74451572048571 0 0 0
3060 1 7.806023095941612 5.8394809972385495 87.53853072546583 0 0 0
3201 1 8.067437524627085 3.7512701553472154 89.49988289600925 0 0 0
3202 1 10.086766001609464 6.253470447297078 89.7375216373973 0 0 0
3064 1 11.783375183365589 5.903249493237925 87.84666643169389 0 0 0
3205 1 12.143746333304078 3.751394688059649 89.87528304040816 0 0 0
3063 1 14.061582387313031 4.061451681295597 87.68909798442347 0 0 0
3068 1 16.007813778180974 5.899961766180494 87.78495161701058 0 0 0
3206 1 14.228335691854868 5.873933831024269 89.53385487190032 0 0 0
3209 1 16.386634507079926 3.686401975887132 89.84490265349402 0 0 0
3067 1 18.355423318258858 3.7004741181243315 87.78200470668784 0 0 0
3072 1 19.920936520841636 6.059895116137974 87.70351381519454 0 0 0
3210 1 18.264443075658676 5.709150276075913 89.69698593441343 0 0 0
3213 1 20.301388355924715 4.052617182034846 89.38552056300432 0 0 0
3071 1 22.381583281728574 4.021520500668057 87.61990911212868 0 0 0
3052 1 24.351414304394908 6.243798930007094 87.762993873784 -1 0 0
3214 1 22.51832182717382 6.181706957699969 89.59379900664626 0 0 0
3075 1 1.6929874483440002 8.030751633800916 87.54051547370675 0 0 0
3218 1 2.085146337735886 9.683301000754067 89.71953892432208 0 0 0
3076 1 0.11855791579933833 10.008107357406455 87.76477621643781 0 0 0
3217 1 -0.14765779062407614 8.007114627710555 89.71317422180674 0 0 0
3079 1 5.958828560944443 8.073316670790074 87.48956779264535 0 0 0
3221 1 4.201705451519702 8.028401866901202 89.69669427808172 0 0 0
3222 1 6.224441892844766 10.163840712032359 89.48023973319692 0 0 0
3084 1 8.051804640306804 10.270705442817807 87.52125903291405 0 0 0
3225 1 8.081897757235936 7.946990676299235 89.7018095074034 0 0 0
3226 1 10.107342859679758 9.814139673769281 89.55300738624702 0 0 0
3083 1 10.05663558773141 7.990104042392323 87.60350807582138 0 0 0
3229 1 12.090275181950657 8.284198113390673 89.49859386881512 0 0 0
3087 1 14.132595400015887 8.094515155532951 87.34821993708047 0 0 0
3092 1 16.46513339619981 10.104198272741002 87.70708686846758 0 0 0
3230 1 14.138665721507504 10.046830559329218 89.8219712030888 0 0 0
3233 1 16.195357518968933 8.13173211026281 89.9318485038047 0 0 0
3091 1 17.974537016528245 7.917404390965368 87.62843531474712 0 0 0
3096 1 20.489013648925734 10.205829588168505 87.70339036787206 0 0 0
3234 1 18.333289845882305 10.10903598285601 89.79257026499972 0 0 0
3237 1 20.174175024944944 8.251356219566972 89.75829464321184 0 0 0
3095 1 22.389704296692287 8.295924143109778 87.46605945433593 0 0 0
3238 1 22.802081775323977 10.122956503609515 89.86589952457933 0 0 0
3099 1 2.1608847355135787 12.083289557849673 87.84711306865779 0 0 0
3241 1 0.09217566384818732 12.181552320383387 89.72703556128764 0 0 0
3103 1 6.204535303803169 12.209370841989683 87.60118167640874 0 0 0
3245 1 3.9807173665383306 11.836163785499844 89.4956695302863 0 0 0
3249 1 8.213351716530902 12.163022925029518 89.39756673067582 0 0 0
3107 1 10.25356182105844 12.388799683264846 87.58978176116977 0 0 0
3253 1 12.055230902801336 12.189454675009952 89.45040271750328 0 0 0
3111 1 14.327539547728428 11.854480460815116 87.64287007964484 0 0 0
3257 1 16.358324221689386 11.974104082419322 89.75025240662589 0 0 0
3115 1 18.258859471262717 12.216860208678545 87.58710700376764 0 0 0
3261 1 20.582377158956703 11.979202995068235 89.89563918578554 0 0 0
3119 1 22.689081153435737 12.16827702767028 87.95432852843258 0 0 0
3123 1 1.794922352289885 16.408293141580806 87.94716420691921 0 0 0
3242 1 1.6920214375640925 14.238560298585972 89.81427030802519 0 0 0
3100 1 -0.04067682619667709 14.10785119473397 87.60950033654582 0 0 0
3127 1 6.077277058448556 16.356207708526966 87.46959469266542 0 0 0
3104 1 3.865246911041144 14.307340341450505 87.78518808070258 0 0 0
3246 1 5.819256755117694 14.057525828105927 89.9582384402552 0 0 0
3269 1 4.10062449258421 16.1676966935242 89.8452876715447 0 0 0
3131 1 9.982433014507594 16.606517942397183 87.87895678529551 0 0 0
3108 1 7.948246671537667 14.293140911614378 87.79818646442392 0 0 0
3273 1 7.781774246087494 16.09513094651311 89.63038655726037 0 0 0
3250 1 9.944442462112399 14.01455791310731 89.63208120509461 0 0 0
3112 1 12.508100198367258 14.297518619524286 87.94292706813442 0 0 0
3277 1 11.982487033774065 16.261627675339412 89.56780401279202 0 0 0
3135 1 14.373471624797409 16.339508099861874 87.52411047114055 0 0 0
3254 1 14.249928354675584 13.934298975200145 89.84073415338378 0 0 0
3116 1 16.30103046073586 14.010037408562525 87.6202908018189 0 0 0
3281 1 16.194058601726795 16.021671023582492 89.78059696335566 0 0 0
3139 1 18.46788285260886 16.20149223134255 87.36171147283571 0 0 0
3120 1 20.650499704892688 13.938092086729888 87.79293865707493 0 0 0
3258 1 18.32476381276357 14.214311762218067 89.52035141278931 0 0 0
3285 1 20.43179718323234 16.106175284828552 89.8300545693205 0 0 0
3143 1 22.66959922177069 16.323845870393704 87.81284934173344 0 0 0
3265 1 24.200772266230373 16.626987804981283 90.08781640584945 -1 0 0
3262 1 22.76370252414486 14.210771074783109 89.96404547052373 0 0 0
3124 1 0.1969912930856419 18.61270434341911 87.90263245627676 0 0 0
3147 1 1.9896030959705424 20.562495210988757 87.80195887817152 0 0 0
3266 1 2.192411091633269 18.564190512764533 89.85125341601437 0 0 0
3289 1 -0.16217202568093114 20.420022646166025 89.9137281733878 0 0 0
3128 1 4.088406258441286 18.219687099051626 87.71975110008601 0 0 0
3151 1 5.762853065754327 20.527316806095065 87.78119168560181 0 0 0
3270 1 6.438861787001329 18.350672946678827 89.3012545449599 0 0 0
3293 1 4.080557881332646 20.39749988940853 89.77114346891814 0 0 0
3132 1 8.134216437562213 18.73169597023213 87.38208403413086 0 0 0
3155 1 10.195135990163065 20.602027035973897 87.53033919867913 0 0 0
3297 1 8.07706628451097 20.586613541233547 89.72657261919052 0 0 0
3274 1 10.129650321846432 18.64254311187009 89.59215220838023 0 0 0
3136 1 12.43552359420308 18.46673665913017 87.6415662050353 0 0 0
3301 1 12.553554011813747 20.147831842149813 89.70152957583024 0 0 0
3159 1 14.381251761200787 20.368778518865852 87.41731807048318 0 0 0
3140 1 16.427924881641893 18.20803394990498 87.53833510407479 0 0 0
3278 1 14.40250509837899 18.05400029362928 89.58744693405905 0 0 0
3305 1 16.377760895641025 20.18116099749517 89.7440066395137 0 0 0
3144 1 20.669896638218034 18.147989353822283 87.83421574261743 0 0 0
3163 1 18.417032729313703 20.42180227108515 87.65037661712266 0 0 0
3282 1 18.253747555084857 18.407522205180314 89.9801804110985 0 0 0
3309 1 20.335369254953754 20.53051321256273 89.89838185982684 0 0 0
3167 1 22.651960346153494 20.607346057596644 87.56977590900483 0 0 0
3286 1 22.245104533911622 18.57936661912052 89.8567832429966 0 0 0
3290 1 2.2019702220793467 22.811946232109527 89.7321141503792 0 0 0
3148 1 -0.18817008035300858 22.64859767353328 87.77196581281113 0 0 0
3031 1 5.696406709479889 24.325583857637554 87.44869183589901 0 -1 0
3152 1 3.814249666791639 22.73009773955281 87.74918185081974 0 0 0
3294 1 5.851977094035978 22.476204321333817 89.5936452062608 0 0 0
3298 1 9.905180449738964 22.362731763771457 89.48347984814222 0 0 0
3181 1 11.951235978586945 24.384000300081496 89.35232763428424 0 -1 0
3160 1 12.35828130674014 22.54103343986621 88.01919717655372 0 0 0
3185 1 16.41752973229029 24.393711177483002 89.65373876196183 0 -1 0
3164 1 16.23112712240534 22.363587903190314 87.70710226898905 0 0 0
3302 1 14.44328828884764 22.53945412421855 89.77486871541224 0 0 0
3043 1 18.607029930622566 24.077161142204282 87.60753469623005 0 -1 0
3168 1 20.451628586109223 22.24612813303228 87.78376663179455 0 0 0
3306 1 18.39955221029318 22.369914051258704 89.77571458348298 0 0 0
3047 1 22.48524472981915 24.458109772855785 87.68041908813464 0 -1 0
3310 1 22.282989912331786 22.791852340099076 89.67537922569251 0 0 0
3314 1 2.1202468637445016 2.2647645104672764 93.97745694204119 0 0 0
3172 1 -0.1648465232838987 2.0580073625403874 91.80467538288458 0 0 0
3171 1 2.036453980473774 0.1274503257459988 91.86746669916832 0 0 0
3176 1 3.880042214268885 2.191905724929079 91.84956722153092 0 0 0
3318 1 5.986067576028802 1.769803823468322 93.8398755159924 0 0 0
3317 1 4.104730752904399 -0.1124536199469945 93.90419320824583 0 0 0
3180 1 8.038946683705733 1.6792355308503646 91.9363855700573 0 0 0
3321 1 8.026684638501603 -0.1267545359022808 93.72151131000095 0 0 0
3322 1 10.565525066596573 1.4991411810750366 93.40779938470772 0 0 0
3184 1 12.31886066012504 1.6671043825729006 91.67684282521893 0 0 0
3188 1 16.214710370378207 1.6052574934450095 91.62860138260643 0 0 0
3326 1 14.370644742241579 1.6053108857594958 93.48593837150564 0 0 0
3192 1 20.433291069639395 2.033732833335144 91.75689589078024 0 0 0
3330 1 18.325026581236003 1.4631935269239682 93.62988215101767 0 0 0
3333 1 20.618516855485936 -0.16754289864400107 93.74051396982875 0 0 0
3334 1 22.489620416386025 2.3092066282997723 93.6245285004632 0 0 0
3191 1 22.463005160776675 0.10178343584341915 91.7201765914113 0 0 0
3313 1 24.388110510406527 0.07734177480583598 93.62662447809272 -1 0 0
3195 1 1.8451765175557178 4.0157154722729 92.06823184480093 0 0 0
3338 1 1.7194283055464183 6.095118293075101 94.01019943272959 0 0 0
3196 1 0.27787909075979034 6.181222848784197 91.96115421033593 0 0 0
3199 1 6.095073894235265 3.62706530693241 91.50180385629643 0 0 0
3200 1 4.184817796538484 6.033824954703059 91.69588304568327 0 0 0
3341 1 3.9650722492896877 4.122100722422968 94.0491628544214 0 0 0
3342 1 6.09139547841257 5.88181393436639 93.82882171698834 0 0 0
3204 1 8.040245370736017 5.631865155856502 91.79664948531826 0 0 0
3345 1 8.002824050403007 3.6892998909873627 93.9582618613201 0 0 0
3346 1 10.115367517782621 6.0387454283705075 93.80654520978935 0 0 0
3203 1 10.090967362592874 3.860950925007172 91.70852948459476 0 0 0
3208 1 12.24108995854387 5.908896303599043 91.6282748468908 0 0 0
3349 1 12.199632858777067 3.7712392252017035 93.80896608504959 0 0 0
3207 1 14.283677226996502 3.8709469232086944 91.611691315942 0 0 0
3212 1 16.168469401120973 5.634054863343136 91.59293781793389 0 0 0
3350 1 14.046155149807944 5.903530328488216 93.80662026104307 0 0 0
3353 1 16.231733264903774 3.684634687820902 93.60234627713662 0 0 0
3211 1 18.53778404487572 3.657552512497625 91.4988844593401 0 0 0
3216 1 20.4700431200855 5.976090024486867 91.36796681117188 0 0 0
3354 1 17.900119498254554 5.797866224198691 93.66435424182616 0 0 0
3357 1 20.30781292644523 4.124027172182466 93.65344454394597 0 0 0
3337 1 24.380612505674733 4.0331454259527675 93.77308084445811 -1 0 0
3215 1 22.761377374404418 4.103043499896371 91.25407172688261 0 0 0
3358 1 22.055816112588168 5.968497906688321 93.63087803632732 0 0 0
3219 1 2.0779005798929866 7.849451805483323 92.06136799377272 0 0 0
3362 1 1.7764992403779598 9.92191445358019 94.09268332659272 0 0 0
3220 1 0.1204597242300326 9.879516636013822 91.79157222528303 0 0 0
3223 1 6.041470423680812 7.997521985445433 91.97812130382569 0 0 0
3224 1 3.9270315344187177 10.035211021064221 91.80261266318615 0 0 0
3365 1 3.9537194978506642 8.048532249739607 94.19330175302254 0 0 0
3366 1 5.805705585509447 9.854026827425256 93.82861504023201 0 0 0
3227 1 9.955805441791751 7.810947291114674 91.76268085414623 0 0 0
3369 1 8.050797906041247 7.790001200305881 93.8483576545704 0 0 0
3370 1 10.324424473811112 9.70114855986481 93.93876792243907 0 0 0
3228 1 8.31625040421473 10.008109095261023 92.25783585507 0 0 0
3232 1 12.100737849088475 9.959500707773957 91.65680762552492 0 0 0
3373 1 12.503734954768769 7.820877464250589 93.64388026321562 0 0 0
3231 1 14.134075567158476 7.8755960234936 91.39663535245417 0 0 0
3374 1 13.963075771368755 10.375959764223095 93.57302082941789 0 0 0
3377 1 16.00577475507356 8.093108953996326 93.71167831429555 0 0 0
3236 1 16.105519943756157 10.263305785809035 91.73622652873605 0 0 0
3235 1 18.11483575533972 7.872440394184071 91.86824827002324 0 0 0
3381 1 20.032560330285413 7.55354258136075 93.4953665681855 0 0 0
3240 1 20.68713871432231 10.042267659357815 91.8871553753245 0 0 0
3378 1 18.28561965921299 10.01674207741887 93.31969377191007 0 0 0
3361 1 24.17217201814105 8.30070726299876 93.79777953390503 -1 0 0
3239 1 22.473604421440797 7.782463866566675 91.84916868326349 0 0 0
3382 1 22.517326199408963 10.266077584477214 93.89568586371956 0 0 0
3243 1 1.8560822865178142 11.814912216393783 91.71017019619585 0 0 0
3385 1 0.005326387211844974 12.501642644963304 93.86060263456345 0 0 0
3247 1 5.841275539235763 11.88571285541028 91.6100645991343 0 0 0
3389 1 3.581836766980344 11.996447093617082 93.62489215491014 0 0 0
3251 1 10.055029790495526 12.207047965556637 91.59597796420108 0 0 0
3393 1 8.074439485808792 12.193127466846986 93.61896560968333 0 0 0
3252 1 8.120653598761322 13.884406415325502 91.66019827568748 0 0 0
3397 1 11.874835024535763 12.172295468697502 93.71707910054846 0 0 0
3255 1 14.022816537216507 12.233490019664016 91.70171247401338 0 0 0
3401 1 16.123122575593435 12.083534164611855 93.54676419399499 0 0 0
3259 1 18.120111351899084 11.998725399763895 91.75113915473361 0 0 0
3405 1 20.335922477187424 12.218362364529781 93.7089548682882 0 0 0
3263 1 22.510241846550727 12.149742942397864 91.87848439482599 0 0 0
3267 1 1.8848393571622726 16.46758491209613 91.70355794087598 0 0 0
3386 1 1.9810973988566944 14.229058323790118 93.81230347558463 0 0 0
3409 1 -0.036791207322732056 16.29268726761908 93.81586087935209 0 0 0
3413 1 3.901563013944135 16.367017756537415 93.83980832768245 0 0 0
3248 1 3.848137223684809 14.01096418323677 91.87887543393595 0 0 0
3271 1 6.044016686989008 16.099852743106815 91.71312913995983 0 0 0
3390 1 5.777426220229074 14.05784683566131 93.55041737230343 0 0 0
3417 1 7.930840973270312 16.231221181277334 93.61080126524652 0 0 0
3275 1 10.21998427085534 15.994287270051585 91.76088221946628 0 0 0
3394 1 10.28608842950284 14.217854331149478 93.65044226084326 0 0 0
3421 1 12.155479190123351 16.391614256732822 93.67710460640849 0 0 0
3256 1 12.097210957577163 14.218824645588507 91.6406154450298 0 0 0
3398 1 14.043172078961055 14.200601502814582 93.82500562265538 0 0 0
3425 1 16.243213586847517 16.13439964623214 93.82742932747068 0 0 0
3260 1 16.250190088583714 14.217010541906381 92.1585303788884 0 0 0
3279 1 14.023964770237075 16.121507937321624 91.7532068237537 0 0 0
3264 1 19.786331356538447 14.31612074452118 91.49274382217128 0 0 0
3429 1 20.219820454194526 16.258349378116833 93.61329183908681 0 0 0
3283 1 18.088292259123868 16.205374776966188 91.73444959421022 0 0 0
3402 1 18.49348621274114 14.20907399595647 93.94006751852909 0 0 0
3244 1 24.46798343069721 14.283598081417622 92.08097086167659 -1 0 0
3287 1 22.118218962136368 15.939207971398995 91.80439037780295 0 0 0
3406 1 22.256924444388012 14.1471500226125 94.10330862147705 0 0 0
3291 1 1.9082735889415554 20.834195454938943 92.00380148861767 0 0 0
3410 1 1.6862535655791753 18.232686272725978 93.46001272113564 0 0 0
3437 1 3.703675753616404 20.27927163395718 93.629950825005 0 0 0
3414 1 5.880967060438855 18.301130558819374 93.90432646969631 0 0 0
3272 1 3.9501871062444156 18.243709334763672 91.88316948155999 0 0 0
3295 1 6.050056200016359 20.112872254458317 91.75631365144812 0 0 0
3441 1 8.08369300218251 20.04588039532522 93.99595859340191 0 0 0
3418 1 10.13262059691324 18.362634144638797 93.74055212251378 0 0 0
3276 1 8.098105377582481 18.2164449417632 91.48219845746182 0 0 0
3299 1 10.052603695850065 20.225111883242555 91.75034785825916 0 0 0
3445 1 11.87707605752662 20.414077600883765 93.97708209404064 0 0 0
3280 1 12.156485122360541 18.318383403549262 91.61341585043328 0 0 0
3449 1 16.331931271154374 20.265431957921976 93.79721474371756 0 0 0
3422 1 14.090326215584787 18.348203623721588 93.89151207591918 0 0 0
3284 1 15.983737228773153 17.952847897635706 91.91225338415394 0 0 0
3303 1 14.254132632306115 20.14331517334977 91.98503876521961 0 0 0
3453 1 20.730297612373725 20.225278962558143 93.92106580473123 0 0 0
3426 1 18.35924691765897 18.12500751150106 94.03331187998704 0 0 0
3288 1 20.590560742388107 18.33325440826267 91.90497713455586 0 0 0
3307 1 18.301313633745032 20.531805895765125 91.9279871744481 0 0 0
3268 1 24.152165332517484 18.60661324259067 92.06214258767768 -1 0 0
3433 1 24.21689862819602 20.471753226435347 93.73275804313602 -1 0 0
3430 1 22.196107097515267 17.972827063644935 94.03145190769679 0 0 0
3311 1 22.677584269739583 20.93616958240134 91.51548866458877 0 0 0
3434 1 2.0081813418077665 23.13144091531141 94.05107560777303 0 0 0
3292 1 0.08405382560129854 22.496512709056894 91.81750910844217 0 0 0
3175 1 6.093012881657879 24.429250847437388 91.7118312410879 0 -1 0
3438 1 6.034422407517225 22.016713379562823 93.51396329754 0 0 0
3296 1 4.227566654994367 22.677755383243657 91.72253095767867 0 0 0
3442 1 9.806045613007042 22.432415975297907 93.59597865676567 0 0 0
3300 1 8.071325798727885 22.874227651282276 91.14383681666708 0 0 0
3179 1 10.405978427906932 24.17087241242048 91.45833364970309 0 -1 0
3325 1 12.385074544395323 23.997051626057768 93.64528548614875 0 -1 0
3304 1 12.465585379388369 22.17691641808488 91.6488096174073 0 0 0
3329 1 16.418118261075726 24.35162847412868 93.81720246081058 0 -1 0
3446 1 14.283174032889239 22.206531950944942 94.15080211522373 0 0 0
3183 1 14.274124813225356 24.250398607706927 91.70905815142771 0 -1 0
3308 1 16.070404546367868 22.25901337893201 91.75623118415402 0 0 0
3187 1 18.537177396606765 24.273729715274285 91.71750944824596 0 -1 0
3450 1 18.298452478937655 22.314092448100993 93.78344617086988 0 0 0
3312 1 20.713478415798576 22.504615136648262 91.79607286136142 0 0 0
3454 1 22.38808505598989 22.40321702049244 93.78197669286918 0 0 0
3315 1 2.047425230795003 0.042164975813830136 96.05206503954966 0 0 0
1 1 -0.08645617433427333 0.09871410509216394 97.78153449517622 0 0 -1
3320 1 4.039569703083649 1.8258600163047884 95.94926247991008 0 0 0
6 1 5.9813573315030215 1.933982834711355 97.56233752676334 0 0 -1
3324 1 8.298923413562196 1.891288750242977 95.7654095618663 0 0 0
10 1 10.017687728797112 1.9458512643487014 97.83221469120474 0 0 -1
9 1 7.945443636388008 -0.12721918295953002 97.76115703111415 0 0 -1
3328 1 12.096033865017528 1.8339498462254977 95.79822332042092 0 0 0
13 1 12.108966406090655 -0.12101633616731444 97.84067044119533 0 0 -1
3332 1 16.168160558293764 2.0142344572989517 95.72856935760596 0 0 0
17 1 16.160719430346184 0.10037826177280351 97.68155923943377 0 0 -1
14 1 14.450408866626793 1.903061443338287 97.80416566024797 0 0 -1
3336 1 20.58646120964567 1.7275374347358525 95.53028649592686 0 0 0
18 1 18.35682520449066 1.5026660170560693 97.7683268632444 0 0 -1
3335 1 22.60242339991042 -0.15704545234373768 95.7023457687572 0 0 0
3316 1 24.44004427305363 2.097783218757016 95.87633418965895 -1 0 0
3339 1 1.6295974553991108 3.850887250674635 95.8984620523992 0 0 0
26 1 1.7582363537825596 5.867750999414264 97.8124989279536 0 0 -1
3343 1 6.090499529779279 3.893068351397461 95.73099067317028 0 0 0
3344 1 3.8753942607316496 5.851143143793842 95.94175911494925 0 0 0
3348 1 7.92620743322772 6.038452686749444 96.38502708173445 0 0 0
3347 1 10.322412318143689 4.150606883315802 95.73123291462215 0 0 0
3352 1 12.107464621557892 6.1483346670413885 95.58845095391803 0 0 0
37 1 12.328392492233833 3.907126168710734 97.90656632804271 0 0 -1
3351 1 14.087501183577555 3.953052636433024 95.75670015897246 0 0 0
3356 1 16.22363154026496 5.6192477372763 95.6402122040303 0 0 0
38 1 14.372169073359789 5.900834992548268 97.82770428300074 0 0 -1
3355 1 18.40057271108411 3.7304777954391772 95.67368024595609 0 0 0
3360 1 19.94111179331891 6.028284875559646 95.78230538604089 0 0 0
42 1 18.281238436868648 5.79710249791387 97.87427753912169 0 0 -1
45 1 20.606926997814455 4.310391497324001 97.70531051503526 0 0 -1
3340 1 24.026940417624374 6.00985713229636 95.44463440234298 -1 0 0
3359 1 22.467948013810663 3.938989598153894 95.8497036500098 0 0 0
46 1 22.170352946521163 6.443696077388888 97.5666951113099 0 0 -1
3363 1 2.2386750004593914 8.01445090499842 96.09229590985302 0 0 0
3364 1 -0.06647155422075532 10.329991428361021 95.90067606018508 0 0 0
3367 1 6.214480293325937 7.8056548001198625 95.84887733380452 0 0 0
3368 1 3.784820824577862 10.191805668584964 96.1395780847095 0 0 0
53 1 4.218665866748278 7.995675883509996 97.7736923444651 0 0 -1
3371 1 9.984567948669117 7.880232402214046 95.91085593417336 0 0 0
3372 1 7.754618659168611 9.969712805583127 96.1696148954758 0 0 0
3376 1 11.921838849690875 10.058737868418884 95.82852255579664 0 0 0
61 1 12.184514639896904 7.979337013732788 97.7247525986634 0 0 -1
3375 1 14.05074933847943 8.01805858275656 95.85062021820022 0 0 0
3380 1 16.252751930261645 10.177630993865334 95.53127782824228 0 0 0
62 1 14.450864312076813 10.092755446620604 97.85877068627505 0 0 -1
65 1 16.38849616088089 7.912234865993975 97.79637533292552 0 0 -1
66 1 18.34979622658703 9.745011299341808 97.87640162039256 0 0 -1
3379 1 18.297839429231928 8.127787447999607 95.78635552828392 0 0 0
3384 1 20.149343780284198 10.179804652345375 95.69347125884114 0 0 0
69 1 20.31084873796798 8.059801537981746 97.84390984579245 0 0 -1
3383 1 22.17629503067029 8.245922880517275 95.50822924574763 0 0 0
49 1 24.16988992283202 8.101727532159275 97.51103069496928 -1 0 -1
70 1 22.274061741342443 10.090699456103565 97.73278044935084 0 0 -1
3387 1 2.0666279984795515 12.334301488598538 95.85431099513244 0 0 0
73 1 0.04909777752413902 11.992356525443034 97.90872653130758 0 0 -1
3391 1 5.926557057283127 12.140549697318463 95.89796660141242 0 0 0
3395 1 9.781794273253773 12.232268037378716 96.02309119789112 0 0 0
3404 1 16.45544549146635 13.898118973021894 96.02087085688733 0 0 0
3399 1 14.083053602516557 12.090268395668673 95.88549105283823 0 0 0
3408 1 20.130233536319736 13.760730989652863 96.0307700611226 0 0 0
3403 1 18.21117368530323 12.068309695688825 95.58454075384236 0 0 0
3407 1 22.371605288980334 12.03713559352497 96.13609726714631 0 0 0
3411 1 1.661630005708963 16.04125872666541 95.78934026438868 0 0 0
74 1 1.8555483999736504 14.047363524365691 97.78686006757246 0 0 -1
97 1 0.06155787938940449 16.351049071719594 97.75328206206164 0 0 -1
3392 1 3.993412546038604 14.289312760542057 95.79247030185014 0 0 0
3415 1 5.616370188855172 16.010730466887267 96.0158986943608 0 0 0
101 1 3.415971944402445 16.139175039548974 97.82216009499952 0 0 -1
3419 1 9.878088360128812 16.18601422222161 95.74794736594362 0 0 0
3396 1 7.831694622505804 14.232721719409211 95.51525600703359 0 0 0
105 1 7.944040431047554 16.296569215669564 97.80862707204395 0 0 -1
3400 1 11.833976658831455 14.216708689764273 95.89131753260618 0 0 0
109 1 12.281493179257849 16.29139835378151 97.8425931595147 0 0 -1
3423 1 14.082668714787056 16.046937801603157 95.66273055678987 0 0 0
86 1 14.232926755942731 14.04609815117179 97.76975094040813 0 0 -1
3427 1 18.217942007103737 16.09475894093837 95.9649904049795 0 0 0
117 1 20.57513992798701 16.28488221366431 97.88952078586692 0 0 -1
3431 1 22.457507096864717 16.123077714837272 95.93451907470049 0 0 0
3388 1 24.401800003944345 14.150699414655284 96.0448761227246 -1 0 0
3412 1 -0.13678216231255105 18.231936078086726 95.66681412854238 0 0 0
3435 1 1.911790257756678 20.544333358604526 95.50940666455197 0 0 0
98 1 1.6869626808213876 18.207839357808616 97.7763698014323 0 0 -1
3416 1 3.6042536433987937 18.446513028628473 95.81183907350413 0 0 0
3439 1 5.8071787383674005 20.143250936574958 95.70139591201423 0 0 0
3443 1 9.863451833916024 20.500711320744784 96.0045518573714 0 0 0
3420 1 7.8620472047724395 18.09625101374013 95.64619533310712 0 0 0
106 1 9.804974403736821 18.034708279241165 97.48523042643649 0 0 -1
3424 1 11.9685824364506 18.123538888781425 95.70974542037017 0 0 0
3428 1 16.073173380193566 18.246839715842647 96.0306878807682 0 0 0
3447 1 14.195439468085642 20.177087898749278 95.80215499938738 0 0 0
110 1 13.933849681211159 18.288884269778308 97.66317022165931 0 0 -1
137 1 16.313645598429623 20.489052208685266 97.87406615585664 0 0 -1
3451 1 18.516390078421246 20.493053516244117 95.83213893180198 0 0 0
3432 1 20.278439733766653 18.373266680014567 95.83702433227195 0 0 0
114 1 18.190473639490087 18.25905343692783 97.72510316624259 0 0 -1
3455 1 22.43016711588787 20.448569062980113 96.01199034058847 0 0 0
118 1 22.613185056586396 18.250795791185183 97.74934506633565 0 0 -1
122 1 1.7107096802747137 22.472001580191574 97.64910260509946 0 0 -1
3319 1 6.057501678172546 24.098104257865984 95.55624285063634 0 -1 0
3440 1 4.026714617544512 22.005026224848095 95.72359069246623 0 0 0
126 1 5.996584853188841 22.537563860224367 97.69646241505534 0 0 -1
5 1 3.8427901421675372 24.167119921348558 97.65533222795871 0 -1 -1
3444 1 8.011719242347079 22.414459620295275 95.80136796471382 0 0 0
3323 1 10.253944602865397 24.352558358448924 95.52714338635751 0 -1 0
130 1 10.16369909135351 22.579635628372486 97.460199260087 0 0 -1
3448 1 12.321215451999374 22.328459969760814 95.8908563187577 0 0 0
3452 1 16.64547550566995 22.614348754112306 96.01223086044058 0 0 0
3327 1 14.310538186934501 24.423537989957005 95.80065793100975 0 -1 0
3331 1 18.65055557892741 24.39094156867786 95.58132750708445 0 -1 0
3456 1 20.53459206273935 22.64101341669307 95.83211765659338 0 0 0
3436 1 24.4298101411294 22.629448210011766 95.75156930807469 -1 0 0

Velocities

2 -1.7055896781860684 2.735023530563242 6.612636520062182
8 -3.220079990392765 -0.8938188187724487 -0.22688696569721553
12 -11.255351484386209 -0.9638272101783373 5.28371908236315
11 -11.358333813226551 -4.0707886234440585 6.382613645370668
16 -7.649646056567105 -5.255169161396657 1.1812510633319468
20 -9.114214497376512 12.381117939309032 5.215178575189197
24 -1.497667959525345 1.9112332813962087 -3.9567099792715754
19 3.1261259187801564 3.8784494301492485 10.006638715712365
21 -9.00934690683551 1.0356736535505757 4.751798186985641
4 -1.1230418597094332 5.474294222739858 -6.778829651054112
22 -2.5392500889065874 2.0958185703551098 0.521452887653207
27 2.436641896142785 8.257710751509713 1.8520029571003906
31 2.1033394054952907 -5.08720141452951 -2.5278448530487316
32 -5.425483636199602 -4.619544901672539 2.5421698508792248
30 -0.047700263759908774 9.011945375129356 -6.370158806121667
29 3.121861435772802 -3.087294279758985 -1.5877653100361002
36 2.9131053978183803 -3.7992739434138465 2.534900721893111
35 1.9307913110857513 -2.5961568016871883 -4.437656296539789
33 0.27334495284843974 -7.571332271967427 -3.0596276136583973
40 0.345207162938529 -7.9178868563434674 0.7330217760449891
34 -6.403145709662222 -7.703961983428949 -10.517856822275132
39 -12.947975896573036 -0.4642944925430513 1.6426657991851763
44 -9.064146695611 -1.5326313333614625 -16.612136914343203
41 -5.335840927261046 -2.254653937834812 0.31839324964680243
43 -0.039086022138684805 2.4063951892424607 6.907560520744911
48 2.59083573401394 -5.705513429940402 -10.825427692124858
28 6.662604644163563 -7.506364923266391 2.793475480096806
25 -4.1392909791324595 5.654836838578772 0.10511913669960125
47 -1.3072806833382027 0.9929241015277585 9.607067447713277
51 -1.4547440103626423 -2.766840677459655 -7.66802930441118
50 -2.4511306961813375 -9.02472221387444 1.6692730380759104
54 -5.252424430326939 4.264907176913206 0.8398455418355559
55 -8.226764609796398 -7.050737909557545 2.1633503725312604
56 2.1776152049595963 -2.7554078431886886 -3.4922249409279855
60 2.249840980564834 -1.1334230878185323 -3.6686477114851823
59 2.6159612540043007 1.9572411031765142 5.387477933753428
58 2.5367856736723318 -0.5741153688995299 0.609935532072891
57 -10.70512973631266 3.254243810076528 -2.6478407220737883
64 -1.4845134329461842 -6.8315730028353645 -0.753832275739049
63 1.4720357822987196 7.06058272448685 5.857336371140726
68 -0.7879413350173521 -1.9962215258567313 0.87317721359808
67 10.689437905133724 0.5814877330374343 -3.836029801292213
72 -2.145038618238838 -3.9533735720704706 -9.433661643329721
52 8.098047349922723 -3.966370407563585 3.1565137748869807
71 -5.44319254876675 -1.2462163302570808 -2.5738706249037087
75 -1.1267827739896934 8.236477156046542 -1.249961725135642
76 -0.05194329275312682 -0.027414155926826913 3.6332675647826242
77 -0.22625667769868238 5.617430272232939 -1.4191478066823502
79 -4.913987610471426 0.6132072471951986 4.834177660180694
83 -0.3315881545088693 -3.14870235065681 5.696459602014718
81 3.476614793038701 1.9821655612659717 5.563966570995832
85 4.601056399705928 3.9973677087913146 1.989843343313459
87 -3.495031713699208 2.31119586354608 3.3648485788710265
89 -5.081186002056276 6.499651096687001 -2.5086215705678097
91 2.127540184109855 0.09231522085328074 4.434788577882748
93 2.1947463078822502 -2.070111193472123 3.6478821788452302
96 -2.6892155910429874 -2.9976785728120436 5.000765715822995
95 -3.4454242012305336 -0.9955977920409033 0.7539296872599214
99 2.3274606444433137 6.127281322664097 5.985492651722109
80 0.983905034354534 -4.817029236896866 6.668104750392241
103 4.9039793946961 8.416307935239718 2.412278732792519
78 4.268555092652653 5.11519465540373 -2.255392585609803
82 -5.17108173828748 5.4908817806009935 0.8507547067267501
84 10.483460058063452 0.10172904984173377 -7.145741721180591
107 0.6546818947248648 -0.5100635753631372 1.3906085052753336
88 5.95141420676706 -5.7734319507765655 4.939779476580082
92 3.9812636281762415 -5.924088075337284 1.003036303442594
111 8.639480802847222 -1.0949347686458022 -6.179266781814152
113 0.34812344512237803 4.45090015806143 10.935210292309767
90 2.584322324254273 0.41489218713094905 1.1301849991185873
115 -1.9091691356373914 -10.273280832391364 1.9966619820620153
119 -7.464582176073331 8.667478771454192 -1.9207793214143851
94 2.623661134979111 -3.7976942714336284 7.392318125418241
123 3.663091685354524 -9.73368297052045 2.361833682329927
104 -4.656086608164861 2.93200150267244 12.73034069853897
127 2.3081416576774143 0.9963428903275703 1.9467605031165518
102 4.05095389224881 8.140701265234977 1.878695008914091
125 -1.6197647221186782 -2.2518616524245028 1.4049188923608944
108 2.854861196556403 -2.344008583168485 -3.3382312531884306
131 0.8713107563831124 -6.063529955505433 -2.6706473266608417
129 0.6864290155815117 7.098335615801851 3.5582862242807294
112 -1.1194687156185585 4.241534478754825 4.143412069761246
133 -0.6231346854401784 6.838213975594533 0.44162581131907724
135 3.3994213292721067 2.4920182878248878 1.7360416777773366
116 2.252163201638278 -5.066423327456475 -4.873813573190236
120 1.7999820717338153 -1.477059721580762 -5.41597920096974
139 0.06401391476090612 4.536489803507774 6.180296893860708
141 3.111876711892098 -4.971757673876785 -3.0038253510979445
100 2.037133090700692 -8.77016224670638 5.981749236574241
143 3.689642988223177 3.3210018816760436 0.2373011594031699
121 -5.068773351245387 1.3816006291071043 3.877435739497857
3 -2.6828838884682464 -3.2772352301173258 -4.10292963780943
7 2.684850073341195 3.3271635194449654 0.9380833140888323
128 4.212961350426314 -2.7965122860047487 1.4540889895485898
132 1.976459211374211 0.8487028910096601 1.4005521519506858
136 7.765534581217922 -1.1898013400581187 -9.227157993859437
15 4.046434620090534 6.439658479127299 0.6799823189317817
134 2.645607939446037 4.677983908198133 -9.976416906251526
140 -6.262644879120932 10.319276455338933 -1.1136227022621634
144 3.48485702565681 -3.680210936633275 -5.667758531095717
138 4.054759528617552 -2.4809487369751224 0.5803214007967691
23 5.625443929962667 0.34938310671194 -0.5002754686362382
124 -5.816841677092866 2.78922881364218 -2.320928840328712
142 4.353355982052015 -2.7101400918798393 9.8943069639654
146 -7.738590939694849 1.7803749042796504 2.2504235716758583
147 5.160563055512274 -3.766039234824972 -1.580076870197998
150 8.569998648117556 2.827862258037238 -6.68617644708788
151 -4.475012073900658 3.7664335020993183 -4.635354429463496
152 2.5868317462118835 0.4396833462301517 -5.216355137478952
156 -1.0186356571396307 -2.6946507392530674 -10.883615322852483
154 3.8815096054336684 1.1816598085163164 -6.838305215977901
160 5.586649930589772 -1.618259578046699 2.845330263040559
157 4.142582005439855 6.49357135725048 -5.829013246378938
158 -2.912998361168381 -1.1260190767316296 -2.9714370981092273
164 4.347273886104891 6.688773810725963 -2.7735340894207368
159 3.4854916157271885 -6.079784813796666 4.696051509780495
162 4.055789319479861 -0.9375757415531382 -9.729410342009198
168 7.414146159231771 4.97918013756539 4.527123448410498
165 -4.603421943205507 2.968973392713169 -0.7598698921510747
163 -2.5253090240128584 -2.654374976911462 1.0777164802925587
148 2.015124951835578 -0.9172041741702535 -3.191100150387602
166 -0.24592800625646416 4.283741329427471 4.987547648740918
167 2.5883614000550756 6.8412893912840715 5.481852901557873
170 3.827319138672514 6.712466311509461 -4.36060165482325
171 2.3563242827426287 -5.631889164618918 -5.952766678035341
169 -0.8632715809952783 -5.381935878978421 5.448164128260768
173 -0.3083420652168839 -0.3978663555475738 2.572034654846558
174 -0.6941905125788029 -8.055318554932091 4.152799596075472
175 -5.460827706925234 -0.24929605512604686 -0.5846196640672345
176 -2.543043758211173 1.8044267485872014 -8.243611170442913
177 -1.9796583188396475 6.689527163142607 5.79914794142359
179 2.988141843974493 -5.476322154743784 -6.034162671645714
180 0.005040068478249084 2.76359742957426 -4.030714611484314
178 -0.9346550321414724 7.3695572330105446 -6.087752694820349
181 -10.995756714452435 1.870313979082032 2.125860320676149
184 5.491468644392519 5.68405876972254 -0.24939076452471973
183 -8.007135449777488 -3.216264193216765 2.1776171572567224
182 3.192124834957218 2.9088457290780827 2.699176260610674
185 0.9694952322543599 0.06758525968331407 -3.242245631692461
188 -8.959031297191816 1.3259360574345929 -4.740490114514348
186 8.146546515467593 -5.0332500466564705 -5.360668128616856
187 -2.8296036513529725 0.9912148783595476 -7.798509635484041
189 2.282907040538922 7.499282289951091 4.212578641961119
192 -4.671512160535372 -8.74338638100256 -4.73998610461935
172 -3.1608085161399027 0.8772337066974022 -9.918989552513313
190 5.856180764865913 -5.496023366439926 3.3215924161295747
191 -4.426860011713981 3.3386192492852 6.061379411916316
194 0.9039324293596513 1.0176117288668662 7.653489602172304
195 3.3892215481374866 -6.926796783206154 -0.8503380801249072
193 -4.463245754516656 2.6665207460297955 4.2097242248334625
196 -2.9198515522759383 5.6250326606864185 -4.01682244156515
197 -0.9748359929099375 -2.387614252830222 1.4306794734361235
198 -8.901356992660864 2.023889432857463 2.939943040022975
199 3.687358237115679 2.9033585009451164 -3.9396508462848514
201 -2.4347213305629465 2.3690773153569555 -8.172927763034028
202 4.234550242718242 10.869606327922774 -0.3318944731244196
203 -0.31943699181051527 -6.14292594065813 -0.6653247785804597
204 -1.2250042047079543 -0.25752613368593624 0.3504206499679887
205 -2.6903603271312235 -6.502949083756454 -0.6926209940958087
206 -4.5771273038569 8.70136824814576 -8.301599413080973
207 2.2229170596338346 -0.18205980316398868 -0.5636211737354949
209 0.07967205918472105 -3.5892153227410737 -13.536184056697902
212 6.490612220644675 -7.477999296983734 -0.8073960921147134
210 -3.2897193189736385 11.947932909115192 -10.003125798014663
211 -3.040052100303383 1.3623628495058753 0.5299481927466547
213 1.838718781295475 -1.1632198417264412 5.532427595220569
216 -0.09151648274194497 4.808393654342736 -2.92693176679063
214 -1.8413467552326916 5.331457526350579 -6.62731455322015
215 -3.216594335337066 -4.300398708066248 -7.698509674670447
219 -7.427053702884098 5.731384426741511 10.839881213174365
217 -5.463720528285068 2.245525343927852 -7.9567755786227226
200 -7.20683335142534 8.20405834507799 2.378584432403264
221 -2.73415519843022 5.339808916541815 6.972630450074683
223 -5.98649802119661 -3.858475169162851 -0.4504708001599541
225 -2.3411611966239243 4.016214119714009 -10.996198012873156
227 7.449122300073708 -4.401250927849982 9.037037530128151
208 -8.552321501020703 8.456447317191529 -2.415715005906659
229 -1.638456912032217 -0.9730669081820388 -8.499042330456785
231 11.411310771935787 -3.0474373960586574 1.6316890514682787
233 -4.366632849718293 10.275737395903725 4.841158960984568
235 1.5057211732413225 -2.7682129938655002 6.826874402375858
237 4.198527218315813 6.709239505516514 0.09594980975033122
239 -0.9437592516732578 -2.1300996347023737 1.4570716728888706
218 0.8158549335720543 -3.364083022368391 -3.3001553928578233
243 3.5575480399477737 -15.946308765278246 4.055959684995927
222 10.310664461461188 2.870474125737944 10.457302210873678
224 7.759684025679985 0.7558287278463405 -5.873741185872652
245 2.9511048391668497 11.64537261997836 0.24579791463553832
247 -5.07483931683026 1.7581845263172242 -0.2778991127411539
226 -0.4981001421462487 3.7074674339768303 5.112941752969794
228 -0.9554696764760366 9.27220324459274 0.7552193209862867
249 -4.14621916581435 2.9624363705045753 1.167554903651098
251 -9.510893418326761 7.403916369128575 -4.502059209107664
232 -2.243922547116597 5.720042268352291 4.158873577061819
253 -4.743050657867625 -3.527496391968977 -4.291814648934215
236 -4.805163480444312 2.594525961781323 14.660907652896485
230 3.979933704588579 -10.011967556928907 0.22477767056484063
255 -4.0002710926400455 -4.12109261420647 6.444083172044095
257 3.0629403396121733 2.1984394229690496 3.2657335605776723
234 -0.13509294064348673 -3.1893537492522066 -0.0022978744554815844
240 -12.024418721133763 0.6321909885235031 1.9995227892758018
259 -0.6559975066960453 10.568753380484333 -1.8338518569019502
261 6.484798776814382 -11.878873678245084 -2.7396057181284825
238 7.6984534387878805 3.695003646899308 2.709367011222339
220 4.698705828133008 3.924537256770585 0.8208809545397544
241 2.8100456791479345 -2.0805778088517832 -0.6090221467865257
263 8.562952740978613 3.163312575965373 4.470410996933711
242 -3.3636371219450742 3.97900212995531 2.0000137995857856
267 -4.74502942870775 -2.815358809498378 1.3484225624497903
244 1.2960125446235737 -7.715810483060249 4.883983071973665
246 -8.93361376502677 -0.6232170081001663 3.706078246682015
248 -8.158447163119964 8.076975112222867 -2.473112847402705
269 -3.248473210319099 -4.140480181475298 -0.44826911796722135
271 2.3781126271625173 -5.463594130309896 2.675710756732591
252 3.569489287301007 -2.4152347578297766 2.5894801303528503
273 -3.484643301739633 -2.2281263895967207 7.739308722324799
275 -0.6025109328252233 10.543901901342167 1.0642167826135105
250 -9.46906715259731 -3.8305959746871032 4.217829791355378
256 6.639282199570382 2.07083012845453 -1.7938561463035254
277 2.524889058846903 -9.62278792297547 -4.669922728065142
254 0.2290054195934165 1.8189326815638596 -0.6844861340957513
260 10.113235192524634 3.754632013398152 2.464444803197924
279 4.843013360347206 -17.82383193675197 0.5323519012984957
281 -0.8772615159705737 3.1532651773709586 -2.742004719300566
258 5.282255986957751 -9.520862148178399 0.9922042744648001
264 -11.168148580969183 -0.9895683660398777 -2.986321742116573
283 9.021850024171634 3.8806007862518856 0.6396530025268966
285 6.84928312241316 6.453776914913767 -2.742115888992957
265 -6.59717668444921 1.0938650968170018 1.565277089503031
262 4.766299405252958 4.177940188442188 -0.34173093281243594
287 -0.6934961068750783 -4.5276135316882185 8.187544400341723
266 -0.37804568057603594 -0.9246685003437249 3.0767312455972107
149 -7.512313142247432 2.3899283878774193 1.8159068870243935
270 1.9922425060910145 3.3229587569087893 -9.050741121120758
272 11.306295763333456 4.470535071197519 -7.1324596643145
153 0.711392944973203 1.7303476510466944 -8.241339727178854
274 7.165255775230227 0.1383684163936517 -5.003506885688687
276 14.586106732950896 -6.270462225166111 -5.438737506696845
155 6.209887517219854 -2.2691205595257795 3.685945646138928
280 2.469076386671131 4.22609533180382 0.08434878939773179
161 -5.729342544868908 -6.42912125798999 -6.014089026679696
278 2.7973392223848808 9.384029139564692 -3.2144695230673
284 -2.0577612538257797 6.232899065229453 6.925307661458776
282 -4.193975540802642 8.070801200960604 -2.4612391175530073
288 10.520317306788462 4.423343959146328 -3.3398722006965498
268 -8.401579945604343 2.726660779558881 -6.767035164175869
145 -0.9007094928628089 -2.6313583887480365 -2.282713971429857
286 -0.9511502360739688 -6.213293142915213 0.7926519541584457
290 2.065192253997308 -1.1741874460226616 -1.2066903868931456
291 -3.974636831731133 7.651022311453173 -10.292769558480499
294 -3.737518931452653 -9.029884018061903 12.064126818961928
296 0.3257284646686352 -6.7761328548430795 4.106820384824119
295 -9.991859896348336 2.2190638083958385 8.498877884685312
298 0.31005128120551817 -6.001059049860834 -9.895497331469441
300 3.5683917251311814 2.072793252428664 -1.5351889125249814
299 3.9146782040736823 -4.360409638645586 0.5354116200261276
297 -2.8303173280768137 -1.8090887417325188 -1.7982715061100678
301 -5.286514646698115 5.1946250438547406 5.728086191665762
302 4.651277344314053 -0.34314626368414075 -2.5562843673394235
308 -5.846665388771384 -6.090931289750112 3.163736916406206
303 -3.0769879415500814 -3.786816792420339 -7.851601501381207
305 -4.93548717729316 10.102241239037996 -4.194473107480546
306 -3.1414898263299142 -5.881460483996703 2.437123558127805
312 -4.547870768722325 -3.0500711999862897 4.646516132296018
307 4.805994754118995 11.25030269312491 0.7031312999814603
309 2.658416934790771 0.22350943578470492 -5.08969036913491
292 8.939481234869234 -10.353806778178514 -1.221817539431043
310 5.753360256852685 -8.377824072541626 -1.1697727184175355
289 2.5668223543211486 4.25883023543632 -4.810596875280898
314 6.891092791962644 -5.756657018961875 -0.7902679908150934
315 -4.3337061117054585 -7.111453077122219 -9.800289157193149
316 1.2926022474021195 -0.07404858247880368 -4.894339473852218
317 -1.8441363235727544 15.617497385058002 0.14518681640000264
318 8.105022243907934 -2.541153712301144 2.0823966157168687
319 -2.2703560163906595 3.8912154601366407 1.0729908082403712
320 1.8069199317599232 1.9905748257450917 -4.59344028224063
321 -6.843186480168881 3.4240838852309006 3.7339266211333624
322 2.3273385685632935 -7.534266884666967 3.042792947788485
323 1.7075958670910547 2.812732542617318 5.873561690917294
324 11.666553174974311 7.903310186418088 -6.012056563243227
325 3.073195864683713 8.532824275936017 -1.2944299467229223
328 10.656616712905446 -9.525298993498147 -0.3958159806227186
326 -0.21802435320748836 2.4502508790577604 7.5052755990111235
327 -8.308907150215887 -6.976702858971265 -10.635649591015568
329 8.030080192363444 -3.3486065064406305 14.513686959527853
332 2.051665028488383 -4.481138488824625 -7.8170021123279625
330 -3.248497286460706 1.5546853922582142 4.039505464733771
331 8.864935599417214 -3.8037005772549803 1.0053949749467592
333 -1.0032025195974033 3.0021098014113226 6.961387904559482
336 1.396051249888316 -2.6080787925298683 4.965523362622914
313 -6.923664314219486 1.0760747970558397 -7.8131184092854316
334 5.94748118239831 11.224606791331396 5.009975496599431
335 -4.443094473107351 -4.21730206166447 0.2313024160808347
338 3.33061264098196 -13.337181267394879 -1.854096994845917
339 0.8996504203781783 -4.071422433931138 -0.7820555967504764
341 -6.499073012110806 0.15756017459843896 -6.91776422959171
342 2.2727091597978237 9.177583366143496 -4.272883322758706
343 -3.411236834642763 -12.856478399278846 -3.0803255514620003
344 0.4102612346659858 -7.342723390982376 -6.3298571848685
345 -10.311533905006018 -3.3034434336940306 -6.836585919166143
347 -6.596679481115097 -4.566416914054996 -2.7523198702086624
348 2.527642573919613 -2.6553285982720705 -0.0841683796884175
349 -5.005769079108388 2.230527433504236 2.018528501925877
351 -1.8865381946446016 -2.3033934817546733 7.115355498216787
350 2.872791449058324 1.8446417177284797 -5.859426695833911
353 -3.504981102866664 -2.7958097956082693 -4.903624872030297
356 6.600096343415026 0.48672571687366395 6.969694188325622
354 -8.155262832013893 -2.757248093551997 -5.904377128411905
355 3.171886603760383 -8.406982132595248 -6.638541067975425
357 -1.8349174614533135 4.867359053496942 -9.267678333649235
360 -5.0022044564764325 -1.8455776626053824 3.578173876313487
340 1.275501989778039 6.918408171386302 -2.5987866807319895
337 3.2630234722210787 4.3624136200770955 5.770255668875958
359 -2.8005770722351855 5.2427530338935915 0.8687408442589779
358 2.640648607460518 -3.051896658165742 1.822616530067499
363 5.890583844943495 1.384111694014615 -0.504378135294694
361 2.7966669283608563 -3.897925151385788 -3.623187080528849
365 0.30181101483958733 -1.107795054298648 -11.47155191332698
346 -1.9247815305648017 0.8696786518903615 -1.404007197086863
369 -2.563158259553993 5.788686560889887 4.847725149875536
371 -1.4540630609258696 -7.403654058353567 2.4097959473092074
352 5.662583866986475 -0.9206824123498041 -2.9325823266702957
373 -2.2997663770025603 -2.749692614339203 0.5290692095051864
375 0.2831983835792861 -1.9350918691355161 -5.41363137527047
377 9.401628374890464 3.2016951929656337 3.9939063796293452
379 0.17366070579116824 -7.314534098371284 -3.598996985191923
381 13.86043497572557 2.861425147624783 -8.29284392616673
383 2.134359424728788 -1.400202684739115 -4.734813884416736
362 -5.850510482483723 -6.367253073577993 7.620097756467944
364 -1.5683581764005752 -4.093468192071057 4.07966210495556
387 4.020555919555478 7.79934325428313 -1.2325202791248986
366 -1.2752474850409081 5.577741676439043 -8.335208086116529
389 0.0529955595875517 9.780367446105764 2.3572977293986788
391 3.779605538115343 2.2385632538678113 -0.9275581594402876
372 -3.2682619844359158 0.9488140605918729 0.4430357426160857
393 -2.1127225701011816 10.099298638448207 -6.66262027897178
395 2.593205323239509 4.492112116405134 -1.5226159414907987
370 -2.06943733872321 -0.17412790632397965 0.5189144051408544
376 4.381796656662282 9.351023504303873 5.49326826119202
397 11.517188468110025 -0.33629850853413923 8.227114227045531
399 -4.382603079796492 -2.012984913011138 6.478018585993666
374 4.0325721667308745 10.549243666151707 8.452727726414276
401 -2.4338352801299443 -1.14188056629585 13.651630299194716
380 -1.3107538463212813 -4.7061780194634695 -5.368022468570643
378 -1.981346308557011 4.64929771987881 0.053764392641369535
384 -9.83461311132694 -6.0707994039275235 -5.768500115472496
405 -6.296755483486193 3.613625543864269 -7.691228598433816
403 -5.276531792055911 -2.8606510115885313 5.832264613966174
385 4.140828220776504 -6.888506810809227 -3.428721560742584
382 -6.881678205450323 -3.4213088058813117 -7.955079486440737
407 -0.785258273423797 5.428024459818856 3.7408760455893786
386 4.455466053893636 10.995193178465358 -3.349366707488752
411 10.364598697379963 5.272072659370473 -3.0349957477661533
390 -8.133050668951437 0.08030543488976348 -2.1581838324024214
413 -3.527320962840937 0.6348875369903149 -7.102115242025604
392 -2.6810221490729056 1.4528149450918182 -1.3199784573517752
415 -0.6834981746224044 -12.349420709191644 -2.716310739030423
417 -8.353909177656746 6.882359481065935 1.052340401067483
396 0.5094396828677126 2.4854890704221573 5.122896858121184
419 9.128466102423356 6.335756123909479 1.278962033543329
394 6.117909062648842 -1.808478522813526 -8.07230192335011
400 2.31501957414084 9.198031315478483 6.7503145256028745
421 -0.2871041244527471 0.5761845136396619 -0.5058114184242536
398 -7.2892594316441475 -2.4103012996465605 -6.447764032471247
423 5.389517972926566 11.723428745902545 -2.783255619412544
425 -0.463017980620637 9.786970092629106 9.262264531908455
404 -2.1621423744583663 1.2776417262667752 -4.328633827142747
402 -4.874056194305227 -12.746068721808307 7.061704294413673
408 2.6631813827931423 0.899714956674737 0.7796988983189782
427 2.3235284241385585 -0.4539711985033902 -10.823062141735946
429 -4.8726671302133076 2.6600413572679913 -2.909148735987907
409 -1.8675864050854132 -0.38563563425596475 -1.4682552388768282
388 -4.602501815078749 3.871389158358049 0.33690138994007623
406 0.011892232523084837 -6.056864657256724 -2.9554560236186185
431 1.7938357905760325 -4.430655822294897 -0.7765864617032237
410 -3.6371142372879413 13.304938627121366 0.21245530163399548
412 1.5335770658211663 -5.42066399642537 -7.143151285983317
293 -11.969440285016198 -9.4552824858382 -0.07311863762228149
414 9.02080872731354 -2.072814571084685 -1.5615445656281723
416 15.348755750580272 -3.0225853316898976 -0.9587577038603363
418 -1.8383168247237514 -0.8924208124820303 0.8727328609833027
420 -0.05444580661834141 -3.654440292976565 3.9475919824907537
424 0.6014814746183376 -9.376809234940444 -2.5880539338918953
422 3.3830411177954636 0.8423297493723422 9.303815217499873
428 1.727923912467172 -1.3912153588964218 -0.044113636621977786
426 0.01795867770861267 -3.8981882691991654 -7.234974944525838
432 4.869249963038933 -7.133271528492566 6.230135338981226
311 1.6065091428576284 1.8660049786179582 -1.9088879268060543
430 5.016780857296662 -4.841786477768585 0.33422831467981634
434 -0.6491669066739836 2.6427438856167087 -3.140173007007055
438 -6.906234780025867 -1.5562782606984256 5.9867052667543526
442 2.650436976883208 0.6165073386414457 0.8869913803870215
441 2.0103172864074303 -9.985947664082401 2.706437445505246
304 2.255718337443359 3.1185892815080067 -6.9492307751775195
445 -9.122826869616132 7.497983901388999 -7.29392909860138
446 3.051172689440332 -4.564068808247022 0.5429127901568482
449 -1.1040078714021688 -8.835475507668308 2.714936450416143
450 0.27246850137274575 4.479425821755329 10.680980874312608
453 -5.782492303141492 0.17511654935307583 -2.6966707345791088
454 -1.66513762251816 3.6402761215672808 -2.7921034228385975
458 0.8798020156136119 -1.4811003597772516 -6.645679184820122
457 -7.017943394202053 -1.334663935815828 1.6532009403135084
461 5.947643829666402 3.802064241162799 -2.6022681607457696
462 -0.40282615233045616 -1.5343517169561642 1.5214903245375533
465 -2.053829743389243 -7.427571723469399 10.006590219550265
466 -4.171424044457972 -5.23057525536315 4.404478665172956
467 -3.506682965748372 -1.9660577293646546 4.2280138429606735
469 5.579813577384085 -6.983539067213588 -9.239904971215902
472 -1.8370997539834262 -9.651394291001118 -4.139560698584229
470 -3.373141460125566 -0.2623395355044623 -0.9289621468346451
473 4.389509694007137 -3.6507886701568846 -4.183737795284776
474 -8.971100375763799 0.8255996037267064 -8.064594178775979
477 -0.21601156538275504 0.7173958599007451 4.249945270576581
478 3.8440156593223644 -5.2953589472903255 1.9344149016487724
482 6.13994181863835 0.5017551265220949 -3.6002905767548126
485 -5.32330835580955 11.197872847145229 -0.8739345493650414
489 9.656823375718018 -1.7152254432815623 -1.0334008999055286
490 0.40806760640819045 -1.0680987300579363 0.37526420427489365
493 -1.4660940334922812 -10.487799023217285 10.776207111897117
494 -4.418563288602343 1.5903816272237046 -6.558127213187457
497 -1.9501371518401958 -3.298743712577959 6.325073361602731
498 -0.14634225368338358 5.307986285919185 -3.392656446851678
501 -0.8863051268872042 3.640122835515606 10.105627370722804
481 0.17704224720978537 -1.0686136788069325 -2.5649651178589985
502 -2.8005612994492988 -5.7504143645541115 -5.1515785785416375
486 7.925688780576151 6.424338349520265 1.6031524336983405
367 -1.3885018485754677 0.5514433259228055 1.5142146772637062
509 -4.715323909879602 8.56117833692473 -1.390105494469265
513 6.5112104544916205 -5.693772774141886 7.7506101116916435
517 1.8119356116409406 6.004556520478107 0.2571181502183165
521 5.353614471343447 -5.798710193367857 6.230354933811195
525 -5.069860426599495 4.965070928655521 -6.7467910363969
505 6.932320450728483 1.0923226521126528 2.5114379449898165
506 -3.5647197029538296 3.8586773653211344 -2.8714120120255053
529 0.5612972145707484 9.455126642974431 0.08199074420029558
368 -7.326756826741777 -4.07723561215199 3.0470410024268966
510 -1.46117258682375 0.4910650113334681 -0.2142209283926248
533 2.8607313212933376 -8.109998212898166 0.1348391264114577
514 -4.0129930484761145 -1.3648308917365493 9.351456420882588
537 -3.322896098965065 -10.22583007975768 -7.649121776407894
541 -0.5086807896554945 2.593736392410913 4.1596273077373205
518 1.4210811375366548 4.791690425760668 3.486797404686706
545 4.826038795854951 8.673065749086309 -16.498706410112096
524 1.3412197110375685 3.077822805962538 -5.07883504915715
522 -1.521958434148309 13.696558298023476 -1.875409317902656
549 -2.2193703666281985 -8.182979914023061 -4.720499647231062
526 4.2686784819842885 1.9955792099162148 9.133262941005354
530 8.180552813303231 2.047634928356878 1.735685896652112
553 -2.6797268544925843 0.3732765755985714 -4.105257586602005
534 0.4711700263157831 -5.926980091867662 1.2966885796323968
557 4.0580462533970545 1.2902273344051278 7.8062121951201355
561 -1.1265533394105691 5.508036056504692 3.6996152380544425
538 7.3682345341159605 -1.9611829965068235 0.23849901140496518
565 -0.950350276952733 -0.770281070740879 -3.1222232858301306
542 -0.7543111484886836 -0.3402954984566853 0.5045877717239496
569 -5.858630334174855 -2.96097746149671 -1.743961771827037
567 3.2888410681070313 1.276606438575251 12.19900867033969
548 0.4729818193801 10.582606660035824 2.283819776625228
546 3.9620935763761524 4.062910178353846 9.064576879452158
573 1.12777430586934 7.206686421118941 0.555263408619368
550 9.208524799236907 -6.244798809954202 2.715040103837676
554 -2.437996775980778 2.8687484785034854 -11.203403457096858
433 8.939541047371222 -4.279030299873779 -0.9671835660401653
437 0.5800608336955072 0.5029102853925459 3.0671230527341953
558 15.57697637853445 -13.584816262887905 -0.8092648464241543
562 -2.816499248534115 -0.07298510534603288 -4.163187678624184
566 2.122531788126149 3.270590889733722 3.9744401329948684
572 -1.118959532127226 2.647080831236912 -1.1746322624345762
570 1.4437315664040271 5.146845279072611 -0.4374460052129563
574 2.0929879965726674 3.054445918338979 -0.7699428022688675
578 -1.610148966417689 -1.267326199931091 -0.1331768060735515
440 7.185575185905011 -4.957098771323284 4.5405322726325705
582 6.469898065829314 -8.115020168161418 7.56530936263458
439 4.119487409243723 -4.713935872891528 7.536018289035492
444 -6.442041099400095 -0.9259488477020206 -3.446935681616344
443 1.1248195737419326 2.914377409582032 -4.987475464946076
585 12.276501625179733 -4.215604399635017 1.138408987398278
586 1.476809999281003 -2.000657607074635 0.673824792592206
448 -8.110817570883876 -13.76964866569383 11.369766853098708
589 0.8856680935234144 0.974631759752042 1.0761239259992985
452 3.8484616502748232 -2.3289817868495546 1.089819450697411
590 -7.410019107006358 4.344982530239681 3.169240599809104
447 -0.11436606428655734 -8.847421189623674 -1.4930050291897758
456 -3.4231137658622117 -1.6138964907416975 -2.91177812770392
594 5.815127198367172 -3.21935779554518 6.039131973312745
451 10.750969330124473 -3.8775706659638756 0.32279090882815376
436 -3.4114644170063273 1.2301799874197736 -0.23736976920822273
598 -0.3467694699756842 -4.64557101322322 0.17902458762225304
577 4.959589538990319 -4.086502772867899 -0.2837364700655617
455 -5.3933245616155885 4.6584397465015925 -3.0531253372391416
459 6.963309109659416 -5.626498149009807 8.999282965619095
602 4.970465355052391 -3.4054562463453033 -4.26154535543305
601 -4.861192452651435 2.7417030492593977 -4.65306094821115
464 -8.330776256251431 -0.7831810092131652 0.40908425419069633
463 -4.668816250703718 3.765584681404059 -6.947075456115059
605 2.5004057165520974 -4.0693964795856745 1.0700697274051965
606 -0.2368609280249321 0.09425317779087164 0.10133736423362984
468 -11.122942547876397 -0.013335008373706783 -0.9645528438291069
609 6.560789175891861 -4.986055979536955 4.3196870512165955
610 -7.042701363723243 -2.7676843906962496 4.854922701117119
613 8.00536592880085 9.229190870924254 -2.0493089086731255
471 3.529214739983471 -7.84676914033515 -6.4037252897805885
476 -0.9127408367102124 4.838369110422826 1.8469606515692398
614 1.2120599253514548 3.194318817250343 0.886289307674942
617 2.861753975586468 3.1706636227331755 9.35022354427513
475 -8.866022848263961 2.462245608935819 -8.53669654562897
480 -2.174137361054231 -1.829423079688735 -1.6444142375230588
618 -2.3679794088768666 9.666191850223415 -4.296429408496662
621 -7.696404387940297 0.9344458009245346 -2.803929228472659
460 3.8519238745870004 -0.3164243455244281 8.838944437815147
479 1.1606476294435508 -4.219635473793264 -1.3623257410465097
622 0.7590392295833337 2.851345755051775 -1.0978887823766454
483 -0.5109156344487447 -0.8570663503608682 -2.95532573506802
626 -17.431625293411866 1.4553295870808531 -1.6112825242495203
625 -4.632365593510469 7.702843586143052 -4.803098842873183
488 0.2407540976299669 10.161737690691442 4.743515400230038
487 6.799637658238693 1.554729132587919 6.669741419430291
629 1.6223588197336587 9.542099576172346 -4.791056542469414
630 -0.2024695453836945 -8.863715159577852 1.8255311066201056
492 -4.171111057236147 -13.930825415466884 -5.999109665002918
633 -4.70303683579178 8.179874562056781 -5.441454777797121
491 5.002399249634817 -1.478824560424899 1.4785876263559952
496 -1.6672013549809674 8.399496785100123 0.3518603317075882
637 1.9222415519638598 -3.135610891317605 -1.751558887839651
500 4.375234848538219 -0.15424963484742935 0.6332814083380497
495 -3.7685315250415754 -4.849802850831963 -6.618955410669161
638 -5.063161221965608 0.417182184599439 10.986615955982922
641 -0.5768215879961397 4.003353159813505 -6.301660618556935
499 -6.074916721334208 5.057542035038377 5.082148270379586
642 -0.2734143286940374 -3.9762285374196296 -4.469000736244477
645 -4.657206565308731 -10.271603440800343 6.084203131898777
503 -4.8399005183235255 2.2833161721782513 6.679387875165862
484 -4.701262449192178 4.7342730787357254 -2.5876564349665965
646 -1.7746282588399416 -2.927185410041457 1.0914016347948463
507 10.326473965972585 -3.557489096159644 -1.2283508251668087
649 5.547524181842001 7.269460149291276 -3.1420512373941887
511 -2.8820071367526356 -1.7341117658616854 -13.052683219343539
653 5.67175862806225 -5.237456935045594 8.126315329075359
634 -3.6087750174419595 5.001872700367434 -5.832706867207916
515 0.781500778382314 2.2543445167144545 -2.3848039476824328
657 -3.4893909526251026 0.50962799320752 -0.8391432016645857
661 -3.6133580994361747 -3.4894001750079324 -2.42893740446641
519 4.19214434146905 -4.764173586734913 2.7969875899785803
665 -8.55892023781649 10.252997242112565 5.700540843280846
504 -4.404504724443409 8.875257098333764 10.267203538579782
523 3.3326207949364766 1.1460520396864047 13.780588032623262
669 0.47227613328231666 -9.22814189618985 -0.8566195399693893
527 -4.300694699838764 -2.41245300286393 -1.7720127198909492
531 -0.19405015500759562 8.437603028836644 6.442694567851135
650 7.433757080253428 5.4520819446471736 0.9585865620966261
512 6.110303144181421 5.644013583241537 -8.848158193795813
535 3.400067883614288 1.5839814508841208 9.521441606335037
654 -0.7758786514748386 7.4682293934548705 -3.0507433805538327
677 -4.321652310767627 -9.52524063568426 -3.163359273849594
516 7.820431618724936 -12.88999406388347 2.008092836590719
658 2.4898026090688847 -9.806919905051634 2.2336612699610816
681 -0.691442498419281 4.024832801521327 -7.320304782055749
539 -3.467351068395228 0.5611975676887356 8.808831313864067
520 12.789160692836541 -7.642592133795263 0.28384738030795875
685 1.8286267069380286 -0.3463160911040473 3.7822162337163507
662 7.1321388604966875 5.303193565454144 -6.359357051464585
543 -0.15988705707708153 13.077154403291033 1.33191945823587
689 -0.990855999946823 4.3366313779302645 -1.1539701302290473
666 -7.675444144683611 -4.000278457214243 0.9819754682332833
547 1.3209283453634748 -1.3696851143323912 7.056261187421132
528 11.241411000925908 6.33018880196705 3.246206605776004
693 -2.3524712911440924 5.3821490136299275 0.16780711385746105
508 -5.692021201838341 -7.48376326009352 -2.1966511239633233
673 -8.232092872265689 11.678644068433494 -9.398719385155013
551 8.627280913817456 2.9545741604198 8.62745983335218
670 11.44396904556546 -9.829323303480077 4.738186692216471
555 1.2196347366717555 4.407503623168248 1.8398489447819542
674 -2.5109798271878003 2.825908983122776 10.25815769278062
697 -0.8479734998682188 -7.084648418666806 3.0909257590527375
536 -0.2469164921838583 7.662746075974225 -4.39443691343358
559 -4.048628553298718 4.012132477521794 2.9713756646270726
678 2.1644820090787187 -1.0677285184961116 11.76385071026346
701 -0.18168436353115855 1.221551315733279 6.112137657470979
563 6.654676673491763 -0.9658651492471302 -7.049858976838547
540 -0.9446558591786713 -2.4977221296831114 0.36148262301992495
705 2.4154246024553903 2.6058519291969136 3.048685352448262
682 1.7623182007257496 1.3772010455716397 -3.0877484159901747
544 3.1225727985681146 6.212921986934257 3.904322692557051
709 -2.825768271772357 -9.75181224170731 1.3036956240717203
686 0.6273150110689717 -1.2654397248930231 5.9605182929447915
713 -2.347485486130381 -6.1336686744928 -4.36371279607608
552 -3.3248596591232933 -1.794135229945824 -8.07397810638031
571 8.086322680643153 -7.651894451919553 -10.172036819881995
690 0.7445241477768366 -1.0619277274204701 4.34494255024976
717 11.866450811179597 -5.598911319710235 1.4708180610897632
532 8.323967290771924 5.546885794408829 -1.3535586567497462
575 -10.829372248437974 0.4095908981839674 5.075752219269219
694 2.350230727818962 -10.732803319961672 3.626143900648324
435 6.841932596866194 1.9186515647042495 6.108169795344799
698 2.4034447324245627 0.09123318576819166 7.100812414869784
581 3.5774157224079004 0.1610544796927068 3.5708869311696723
560 3.519356011637849 -9.15646542691207 8.749381805666479
702 -8.665853400898124 -4.06181468927067 3.5462049504553033
564 -6.585993302966849 2.2313889416902644 2.3541187270445967
706 6.7979138368678615 2.2540552489654933 0.3568347270210771
568 2.3416871297478714 -2.2222430548365373 2.4957707282736323
710 -3.393339398853061 -5.582353733753733 9.809793516736109
593 2.6350498219483853 4.97499622491344 -3.1171501998440174
597 -2.979345413035967 -4.806424457610964 8.613301423259358
576 6.644263302751267 -7.643820095244195 2.7459150561345522
714 -10.081823574489341 -0.9682803439951582 -1.921314632831734
556 5.325190378720545 -0.7122480656289374 -9.066405777692687
718 5.469558410174924 1.3656988550472997 7.501134873592881
722 10.205309577664893 -1.664862881472843 0.0003605249625684823
579 -7.7471710138013465 1.1722592379888146 -7.839047770581409
580 10.883463798635795 -3.4543694575384207 3.9448826926811433
584 -8.824043466089055 8.631463564392693 1.9124556345874941
726 -7.547670599443772 -0.9576246817349175 1.961423909969366
725 -12.565027968264664 10.69294811350415 6.642949453267476
588 -1.916478643785067 4.54555286886157 4.0481221249151895
730 2.8039827933748267 -5.299602486575592 2.0571982241479163
587 -1.9648914725146607 6.565670418339736 1.3272597836060471
729 -6.03279968765682 0.5228466179885268 9.568429580217243
592 -4.008394889141498 -2.492840108367915 3.7349554131777603
733 -11.123331287853954 -7.016463207910272 -9.655076870563034
734 1.0803825348847145 1.6270482346273156 -2.1260716264606203
596 7.720480818864079 -7.559573592025523 -5.330233796276127
737 6.5316971166827535 1.430585166591587 4.998763811430172
591 -4.310764472812308 -2.3975349842044964 4.857713076167386
600 -0.2970920786262416 -9.289912857644019 1.1347336922667166
741 1.086706969979598 -4.335267810285208 0.4665457056025091
738 7.2796173777873365 4.410235224260422 4.641382355149712
742 5.743857760136986 0.3666687806938569 -4.797520999426358
721 -0.5933242120078979 2.7425968714855022 4.018713204562422
603 6.535693640742035 -3.178956841717903 -5.5053589196758
746 3.9589687384842827 5.441599812200539 -0.6203133465981686
745 -7.451762336789628 -1.4420839853186356 0.32810204609461535
604 1.6296464299409423 -9.474121961570892 -4.4384692211122125
607 0.3302222604129854 4.10744596080856 2.8132336913214386
608 7.11284729259429 2.4057443247589982 -3.5510671814635257
749 -1.6870910024555719 6.665792935976161 4.043604600071352
750 7.015773395383079 -2.205185696208993 -2.84523922375595
612 5.640201876603501 10.989167354350483 3.909581288268916
753 -0.3970624760346613 1.844611471529944 -0.4715974166500403
754 1.7271720725411088 -2.163659672292582 14.186553067373039
611 3.465006187911763 -4.7017317403782775 -1.109105861132222
616 6.030657716631417 0.05913630768969963 2.420198909487231
757 5.527698581651543 -13.371035535156771 -5.528183043947033
758 3.5228087541179653 9.9726103686684 -3.950627258860778
615 1.390837130685618 -1.4972297868145688 -8.437681324077055
620 -2.3786322716757207 -3.896022734210372 -2.0500581796506525
761 0.4628886670022837 -1.200336193403646 2.4219416114584353
619 -4.147499895237273 8.14493090227799 5.742916709158552
624 1.9537850601168656 -5.370442771324906 0.9527520552557477
762 1.016720038146425 6.685448222202967 -9.255681323756152
765 -7.364618540169212 -7.81325882770493 2.510242953929283
623 -0.9485811394909875 1.1861315631495832 3.7773580098992463
766 6.964992597971497 -4.408544828104853 -0.8408250227907927
627 -4.151139599027108 -0.6033791215325119 -0.7091197118241811
770 0.6329855679411446 -2.78298416597195 -2.601523262602336
631 -4.9912838862099065 2.5992702760070885 -1.6817174612422026
773 8.060665146980893 4.010382689290811 -3.3305628591395955
774 -8.188216056609331 -8.654322314788876 0.13560647703316908
632 4.124498730658759 -3.238838512699716 -1.2042995773087488
635 -2.6909512539297906 13.649712418189312 1.4837404823923046
636 -1.0892717905202896 -8.166418949712666 -4.113186119673694
777 -7.209634319633345 3.312649503933043 -6.290389556912752
778 5.793438945752999 0.6061844398170191 -0.6077298182481883
781 1.3259825111683858 6.609842294835517 2.0158302896289526
640 11.111152676247206 5.044587885172303 -8.773986247580142
639 -1.8960315606751428 0.4984060143121508 10.669800296914229
785 -6.118129592315346 -6.451634981079338 14.407690074544249
643 -0.6990661651258854 -3.920758274148308 4.977842480939991
648 -4.811181561882234 -4.025381592012136 5.872981692190256
786 -2.984934860740045 4.395643788830507 1.6331195608476516
789 -8.817751205532149 -0.5229181320345193 -3.5626416312132196
628 -1.9050263440206243 1.6853367889541857 -4.9525675795734
769 1.3754070193531203 -4.5364831767923555 0.8895986175697581
647 -4.30739575600879 -6.43883455408243 -1.058782405990214
790 -0.8984550020560943 10.8532715895221 6.579489405166286
651 -3.335785740634184 -9.104069462029791 8.127976335505847
655 1.869286796058088 -7.752364930548994 -9.126968254777129
797 2.106746695710302 -4.576888361012416 -12.551249921926829
659 4.923710087227561 -2.9685976382154635 -4.3857955038455385
801 -0.8783364093396987 2.7877957390023536 -5.842839363759667
805 7.7329340100426744 0.5075967772084483 1.9464842480018762
644 0.20035691623155494 -3.799185839233677 -1.4846675669990457
782 5.576488103414847 -0.4879271235794803 4.852851608282553
663 -6.155878762664079 -9.963814887408791 0.6226473038590103
809 -3.029857298299566 -6.423649966770991 -7.05742583771151
667 6.92223926090036 -1.997014245603848 2.9585499341048926
813 -4.49637162985047 2.656494482966839 -2.7014059494537883
793 -4.409832733459207 -5.211204574287556 -0.8331861747253709
671 2.26692519492967 -5.269990107301494 -5.661492562905845
675 -4.456085304182738 5.063247530078277 6.676674914433916
794 6.535338924158803 8.640831415045506 2.6035601940037774
656 0.3647258788017077 -6.696416646314866 -5.075886332291335
821 -6.408799540625068 -1.5553868923057554 3.8095077114861633
679 6.347286014255291 5.440130295418924 2.51192044808564
798 -5.015837836271143 -7.859211645365891 4.294996105348021
825 -7.745248602114662 4.364496595479885 7.406922947376876
660 -0.10595101086522898 -6.135379728642738 -3.8471106899451506
683 -4.123544788432566 -2.117800829589035 -7.797489488588474
802 3.5449712063340364 2.834127047140354 1.5728281492053942
829 -3.6159584207203834 -3.806516000534098 1.6740230446906414
664 -4.908247739466595 3.903182374901574 -3.8635056827508167
806 6.010507882231983 -5.400964911223954 5.041752335913825
833 -2.4192013687446203 3.385290342000586 -0.2136320660885142
668 9.712024117941173 1.3401977799114981 1.6258254455510375
687 -2.543240020800162 1.6565624126767446 -0.6777312794995318
810 4.819559837612343 1.4957102366641364 -6.895115854635455
837 2.9056535352357553 1.5614322035157406 3.713810004837312
672 -2.77397114163269 1.8097015379493808 0.5543745049605328
691 1.9100311572892779 5.055594079143519 7.789530375213381
652 8.932463352619207 -11.705658249400688 -0.10456325400202517
817 -8.83346534879146 4.300833649437605 -1.9780087211637323
695 -2.65081827427214 6.474128526653735 -9.509178593059081
814 -3.2351683338630006 1.7489399539440105 -1.029118104500531
818 -3.713435308967712 -4.13912013669019 -4.952109320509437
699 8.744162153793935 -2.738972886364272 -11.81332429664358
680 0.6919475983136228 -1.7910328057074691 1.3567001484702699
822 0.489516615034056 2.8928189550119683 -5.347385141242839
845 11.842371365284476 -7.401451398964174 -7.298800295713027
703 0.05679173350445315 -2.4279739216475518 -3.8704216056159657
849 -3.1704424106892235 5.984516057200007 -1.2044469872736405
684 -1.5984376276533314 1.60432433713416 -5.414747980833234
707 1.5369265926722133 5.892899946128119 -1.4187860565346821
826 -4.339840532910485 2.746209221518586 0.6675216082931106
853 -1.8851203368168006 0.024949406986839773 1.919175645603012
688 2.33962090888788 7.413871917768822 5.344153929082456
830 -8.86814282839219 -0.2439649105496112 -2.315697206220346
857 4.4856940622015795 1.7121005149482946 -8.079465392324405
692 7.11565622148335 -1.3295800534069415 9.53236861889988
711 3.576266542643705 4.548844499914143 1.79074795782727
861 -2.7997909299633457 4.770112221195298 -1.0158173865011377
834 -5.488327897593328 9.956055684089232 -4.181357163881753
696 7.746163881573778 -5.366418932193201 -8.767725687313746
715 -10.083091632846894 -4.889754803249377 4.354799047771968
676 -0.7358816423627998 7.7905226256735025 -2.3491612892757496
841 6.477374144165536 0.020153766172609736 -6.487746128458921
838 -9.612467009365034 -0.9835477084587054 4.822922333613481
719 1.7535244545829374 -4.599990041699602 2.5403761877621664
842 -4.488080951880828 0.6643049248526142 -7.708932390387954
846 -16.497011887112496 -0.8133985666795837 -6.522068961848555
583 -1.7692814636028704 10.993225997526668 -5.394041794858427
704 -4.6295001572426075 12.540124777581298 -9.411276512835647
850 -11.801087141689608 -6.179185116096849 0.22928653048885841
708 -7.345244655753762 1.9660299950492262 -3.3322032184224444
712 -2.8812059327978283 2.1213885710111358 -2.736731035852754
854 -4.403712845470209 -1.2735035260176735 0.18801028168406284
716 -1.897082973944343 -3.2714327955553086 -2.8408911201754847
595 10.368392143327549 -4.779402355696898 2.081957580331107
858 4.303603063776113 8.42430093422102 3.660207780505603
720 1.0707989702119007 -0.06424637696437117 5.159071227569329
599 -2.1340719103754235 3.171023730957524 4.831048176391456
700 3.9165275531415387 12.675991699271288 2.993058206430569
862 5.41550774231349 2.9656607410870204 1.1146716054126886
724 7.808444907723431 -6.21200840911472 1.0369298697818001
866 6.786402674481906 1.052862115853017 -3.2942287370014873
727 2.870057530796513 0.12184767693563696 2.378018258607073
728 5.0187715094515974 -0.23569607028183437 -0.23012314844833412
731 -3.1839288056257717 -9.338628245768572 -4.876612457050659
732 1.5033869574426735 3.126273425189499 4.702774589567271
736 2.2769538340127795 2.476604596346905 1.336780348555538
877 -0.3244096724786598 0.06174967460716106 3.001996134526184
735 0.7796629201127774 2.383609831619592 -0.3642425298756572
740 -2.567532273360444 6.721699049340204 0.8486762536141436
878 -2.8923439451512194 -2.80336894025357 -1.775679586500782
881 -5.497993295610457 -0.22228121737724785 6.129298773390355
739 -5.273926286507024 7.039546597263525 7.240579719943944
744 1.107926403955831 -5.029562176594007 -6.973824046840571
882 3.409418428726681 7.691331447328269 2.910545887513888
886 2.0537581612356055 0.8447786694259237 11.064305564798108
747 -1.1542485678743204 -4.322159753953197 -0.8787514340096599
748 -1.662336534836066 -11.99358207989513 -6.433638406825444
889 -1.5630141806128859 -0.6090956395399458 -5.600167267667231
751 3.292707628031352 6.279529899325853 -7.660426541270943
752 9.419600126855977 -1.4129438175370914 -7.5907819835026045
893 -1.2922114615648075 -1.2087533672000739 1.1012770785624466
756 3.8189286027667517 5.4354709014255915 -3.0721911222805924
897 -3.418304061008112 -5.4246984318460845 -4.905725702577195
901 -5.429618438424838 -2.1212206842610497 7.49341031678091
755 6.717118650330875 -0.12369979928284562 2.9002042757729987
760 -0.5675228258898847 1.6478861857898566 2.718731562963465
759 -5.701440830453771 -11.782565236720085 1.668013779388854
764 -5.844039956917711 5.184796752212239 9.074717150601085
902 -6.2103037962530365 7.845456139252105 1.425280965932021
763 1.2601465774674874 -13.101262696693913 2.3696631342247074
768 11.073021105393469 -10.40515918093129 -1.453489804952503
909 10.991589267410943 1.8569029710682847 3.709600776971573
906 0.41052333163835086 -0.8866385285381332 -0.8465113267019267
910 -4.266109195152169 -5.837941703989575 3.67285420401553
767 4.69083026690092 3.9197645112149773 4.636137683806417
771 -1.4829033449424953 -2.45465547897424 -9.6366383233347
775 0.041994692414747355 3.1570715706156873 -3.0434376969765187
776 3.8238154527809542 -2.863561615700877 -1.698265729745204
917 4.852463225241426 -14.154297675239443 -0.2464076642121756
779 3.9878044446922845 0.6583385848117883 -2.1289672725984463
780 6.444488351433538 0.13051487850616184 -4.370703537081944
922 2.102267248993018 2.5578936616727366 1.546126122675948
925 -3.376165053108527 1.1358797652023878 2.235138883842171
784 -1.7292324798116037 -3.9716146272358808 3.417425288713583
783 -9.86384177785995 0.9441644152940664 1.2463729703526003
788 -0.45619509283319576 -0.9777027978757596 -4.063809940795012
929 0.5366345019561709 -4.0589648752795835 -9.855502881507256
787 6.367970681399362 -11.337319920755704 12.49830482466083
792 3.8962827241517464 1.7247227908519192 -8.606528908764203
930 4.228148758300653 -1.0746779147507393 6.304559814452561
933 1.9981299543415583 -2.326447127533753 2.591656831424563
772 -7.360087193834091 -5.803723912873249 -8.948036246945508
791 4.288503601641565 3.012886000213581 16.848292285459653
934 12.305240001604496 -2.239071567311219 -0.6878219284582646
913 -3.659599770004482 -9.397260719447475 -9.926091871750952
795 -0.9301894954668211 1.8768731392722997 -4.619728146241555
799 0.15963726305955286 -6.035471614266494 0.690551239287582
800 3.4198478112078177 6.509292005731269 2.2636165023327086
941 1.5808387622315083 7.100339160712571 1.6814188345536523
803 11.70167685765825 7.058117194905527 -0.19314705483853434
807 -1.9969875456046078 -5.859241362651677 -12.06131512049507
953 -2.733754330463861 1.227956399187669 -3.5439325003801194
811 -5.356098569269287 -3.677611620952778 13.182618320787864
957 1.2435503176380194 5.4336551291297495 -5.809661005141567
815 -8.839356855137586 -2.4166276858423017 -4.773735795408052
937 -7.071816175784566 4.559675270303674 -2.487429497270307
819 -6.660306954358818 -4.184227938547242 1.3954394045850556
961 -0.7233973340870187 8.25241897334646 -7.393145119026611
965 -5.267300218271925 -3.2555570378291767 5.1817146634177425
823 0.6108413016543429 -3.491246240910305 2.9745065068500933
942 -9.934183935467667 8.660658482508168 -4.369057684512949
827 8.23644317285596 1.9271562051836562 -2.994134448622305
804 -5.181279694067354 -1.2776465899922589 0.7140227451100026
969 -1.2911674409853564 -2.590661833404518 -1.577001400048043
808 -2.132275300097635 2.0457742784587127 -3.780526241061061
812 -4.863227909804434 -1.6896557858233314 3.1801765516468294
831 4.8874296980763985 5.477852275892152 4.070778599386867
950 4.474920391908075 -2.3409555238548028 -0.945551470490157
816 -1.585195436177879 -12.095824042711255 6.177337787600424
835 10.50272172260373 -0.7871622634635352 2.068828159191136
981 -1.3872008766281845 10.79181438657949 6.059348804532946
839 -5.406228400919614 -4.878825036715163 3.3240367818849457
796 5.720908048966964 1.1115604640215406 -2.383503509206162
958 -0.6483246817841076 -1.3985665564122618 -3.6096740036805803
843 -6.659326103705555 1.3485008240438305 -1.7226233522276293
847 -1.2987730913235793 -1.4043375556562636 0.03812654713147841
824 3.6879913268580804 2.122433980885934 -3.142470332759747
966 -5.761809705181809 -6.618490386143277 -1.4112079957641817
989 -1.0039105710858571 4.151438505985922 -3.135307414084011
828 3.7864771313152863 1.729394058692897 6.669437174723491
851 3.588091757601173 5.308571279386659 1.5188138218044047
993 -1.9213798062638612 1.1150325829905678 -9.86202627801625
970 -2.456582163258844 -6.08017414410176 -7.179755295061271
832 2.4894103875871454 -10.580345562119518 -8.922742307926901
997 -6.947071029218137 -3.0891088160219633 -3.715630828639309
855 -11.013979711225444 8.483803559085938 0.7654604516393615
836 -5.812060756037209 -7.305485068609413 3.6882016812900704
974 1.378873677048117 -5.9927988777020635 -0.6065712070638982
840 -11.451818490862713 2.264064760831314 1.4091597881937283
859 -0.16551268080727724 -3.8632183856560394 1.898392083154056
1005 -1.5899745406114731 -0.9316073998341924 2.1661927688684717
863 4.052384745429536 9.358695114837777 11.89481292018528
820 6.879699897452853 -5.37878965095923 0.7559274512453115
985 9.664420687678817 7.136248876518356 4.163751955272112
982 -7.2726653681896005 -1.6220290506862842 -8.341329634514377
723 4.489759291309778 -2.279121668964921 -1.994901787364372
986 -8.395070650888872 -7.041183014372376 1.4822660195745205
848 -0.6714131116819649 -6.9524466783433025 1.0352707566323078
852 -2.7362348472065015 4.414470674754435 2.123255997233603
856 -5.041462511757001 4.659138248116123 3.146949586853165
860 5.871646256447999 -5.013588660009657 12.464948012365696
998 -6.287428746797552 -3.1039638990512244 -10.58992545111154
864 2.9806628859466615 5.921586562632535 4.086725929541211
743 1.0919787749496939 1.89520073941356 5.8290846500357265
844 -14.086816359437941 4.104993443573752 2.58731249742633
865 -3.4751413503230015 8.268344394883524 -1.7671708835782944
1006 0.3295103426417848 0.20423470759664597 -1.8158517251789172
868 -6.717604825457558 1.5440700279643238 1.4561499882239055
872 -8.740924921585295 9.155178098882477 -4.963697978368265
869 5.75381004551072 -3.3439943758808646 -4.54757816472971
870 -7.476783267114984 6.444724222249413 -4.637447354865889
871 -1.1028633969805197 -7.131923682062473 -2.5724860338288784
876 -3.976440110928534 -5.548571471755225 4.399740303575026
874 -2.9887288483358154 -1.0605721082310593 -5.007997798352881
875 -3.0640551743929048 -4.0649292998128015 5.62486153692933
880 -0.5653163711865489 -6.491717742262075 6.701799415438708
879 8.811986380678956 -3.3937632419330392 -5.850245856688689
884 4.835042405355658 -3.3447317360660693 0.8871894547205451
888 -3.681503619513553 1.1457265933617602 4.451498926633617
883 -4.483264767722145 -1.8133743550880477 4.827866895024826
887 0.3170806284432351 -5.68156469193635 -11.174887910391888
891 -4.470514881935712 2.316405565341428 1.5393199529826738
892 7.557255614221722 -7.433312968298535 -0.7080669907825414
890 7.172285581142509 -1.150912062048139 4.024733989904491
895 -6.562524713941134 -10.096049347887254 1.54777813721143
896 -7.617251571973822 1.0018336695690784 -6.423839709969515
894 0.7684305221538887 0.32912253167423317 -4.920652565044949
899 -1.0191264912018447 -1.6107216211344761 3.6255215653803616
900 -3.013068441135157 -1.8761046179613452 -3.979340119484213
898 -3.7309861942952427 5.9137463481179395 7.505941909860498
904 -12.581616535483134 -2.4715345768084234 -5.157623965762913
905 -6.37531304594881 -0.686266669945466 -3.8948913254165345
903 6.722402585696456 5.721121586083423 -0.2867929318628908
908 8.57762817521609 -5.242973572256553 -4.064058937301049
907 0.1728196766095773 8.023827377211202 5.462513542369454
912 1.3236610320648248 -3.4949008852579775 -11.35587537877801
911 -3.3784311985229145 3.1643644960242203 6.550641612191035
914 6.900580699234227 -0.7539674326825797 -1.703577792992556
915 14.359567294963268 -0.4209371358069408 4.805936412324564
916 -1.2160175873278904 -1.3759071468032378 6.7039486184560735
919 7.318941198034763 -2.7440142159710295 2.3778359962852518
920 14.252832647932024 -3.239280492544143 3.8061342312334183
918 -0.37404427230281945 0.09524150671420822 9.943031589605996
921 -2.0035592414077503 -0.5687650862700612 0.880583052037361
923 -3.0931682104510236 2.4468714043441047 -0.8149329027918872
924 7.341703316916977 -0.22726086087177153 -6.411304112334912
928 6.968642662967241 7.060739585534053 -6.996756651062408
927 1.6245513546035666 1.0367207450623694 -8.113640545008764
931 4.7934671272597535 2.26971177897036 -6.600699764445208
936 8.692279264617932 -4.554463074084907 -5.232892043612359
935 -10.399630884995167 6.396175174362706 -3.6113942554167724
939 9.928405424124172 7.563415668406453 11.219197378022503
943 1.5209284848411895 0.1215584818805548 -1.8208333266823522
945 -6.526348820091439 -7.7969700106520845 -7.070723609239451
947 1.0004053728178843 -9.161091533737405 -3.232634228750959
949 2.5966921684650677 -0.5561990429127153 -6.363227681586435
932 -0.6049553821024927 5.518735635234663 -3.753954740810798
951 -2.7956198550338613 2.5699727074192213 0.9997397674632801
926 -3.058428222214918 -1.3056911407319476 5.80540715666715
955 -6.422604390404483 2.7036550207275734 -4.896101328748967
959 0.5878894189628994 1.4101526552037198 -0.2747140135321962
963 -2.1969633134195625 0.6618047751649843 -3.7249679523706476
938 -2.5198476490498245 2.6391912182816966 5.762323746038486
944 8.756657069787096 -1.1523313866009168 8.358731324318487
967 2.5174922710583614 2.415135219807645 4.530653708030673
946 2.88811264073753 3.494295781716014 -4.245094834064309
948 5.8578657197467265 6.414924374897957 -8.638679410585324
971 5.396334405536612 2.2916815052737247 0.31452745525116255
952 -1.3920345891763262 3.5362906247746326 5.626600831578526
973 -0.04139042989682648 -5.826849668292225 1.0728070709720983
956 11.532394005989453 0.2570612005689561 -9.375496908099272
975 -6.26710789115941 8.73876798152886 -0.0983434553848492
977 -0.18595950017804772 -7.152454379544233 -3.2243885616896497
954 2.2207499160955235 0.03948169039126453 -3.3439485418780857
960 1.1276311000928603 1.5236659745788594 2.8777220787100943
979 -0.09989785737209345 -2.295740131091885 7.931224412200744
940 -5.062137128153213 3.638899274978238 6.242827241581718
983 -1.5541157526283291 -0.7407759491095961 -2.6551434967603313
962 -2.5178505946528724 5.8646826481157515 -3.279263871305736
987 -1.3562917070859524 -8.092793628495327 -4.014510365761219
968 -1.848099251789172 -5.286580202986456 -11.329564107873715
991 3.447922515739275 -2.2163472594147287 -1.31677380281183
972 5.64302260016314 -6.734518261631457 0.07374001789533369
995 -0.994553385456203 9.957369445500754 3.195204689564343
976 -6.849240493684347 3.6691549727539963 -0.9140292484208558
1001 0.44785449825197626 5.54206037166502 1.744039605741963
999 -8.39127387659498 9.613185779811184 -7.94401552283368
980 6.957145824052135 8.519783072921188 3.209184097357057
984 -0.1153791351594367 -6.888130396715261 4.864882611633414
1003 7.220139360091778 7.422386043164128 8.81221734265819
978 4.572819245485101 -2.733118276967361 9.159853767529759
964 -7.0594659095228565 2.641312780691601 1.8318093436164915
1007 10.436017970597375 -2.0232142371122968 6.473278880423119
867 0.1468127267097317 5.374769072448623 -5.406868233605227
988 -3.2123309211541384 8.87332652389458 7.337918473983376
990 4.110208328485497 6.686140085714953 -5.470850719166775
992 -6.954646177437417 5.155312558823657 4.427887210713754
994 1.4468058918677644 8.522738440763977 -5.77641487242617
996 -5.003773160798098 -7.975087072815201 -8.57751763079844
873 0.7001270926377736 -8.338420518812725 7.74174022145521
1000 -3.1842931641200862 0.024652498579555815 7.02283771099097
1004 2.055352367669847 5.09508347595951 7.906953020225323
1008 9.608012037940387 -3.303896926594672 2.189131107810571
885 1.7325980395453509 2.001589937954708 4.678431858483456
1002 -5.35300690199172 -4.968880143438623 -2.973206606685767
1010 -0.4194405634826324 -8.087992628851563 -5.5305110601000775
1012 7.576737800366183 6.118079753733962 -1.1450543135160618
1011 4.359760601615094 1.5268189747748777 -1.6770350717585463
1009 -8.947121555969506 -1.0509229586831679 -6.166649623058837
1014 2.038386882731358 -10.729862700563176 10.17528597929211
1016 -3.7493434138551662 3.171359614571076 -4.489881407793253
1015 -6.439357516915083 -3.706294487993758 6.9126446085011315
1018 3.9416813105194906 2.421616457422998 5.1357248407288925
1020 -0.18106581136992278 -2.620142777800992 -4.188442551262972
1019 3.9446117253796924 -2.825120260273921 2.4949205836266093
1024 7.5372920208358405 -1.6972824934072746 1.7089668940260903
1022 1.647304799954274 -5.485263483811338 -3.99342958619466
1028 -8.859009296774484 -1.9976918481305277 -4.590098354530379
1026 -2.482087321767835 3.726189104453412 -1.892227765235815
1032 3.0290561225285124 1.1734653486798041 -1.9248051165431328
1027 4.857348856443141 3.5109372712243783 -0.3165424359369016
1029 2.6902132476145413 -3.960726676584803 3.4939750574386768
1030 -4.548602756397335 -1.88105365229848 -12.540819844877431
1031 5.532440269352725 8.876138112693695 -2.9698758494836253
1034 5.278622848360175 8.897464496982034 -7.50129750925841
1035 -3.4230617637813823 -3.1820541192533955 -2.115272477546429
1037 0.45103370358197004 -1.7115488214771655 2.2706455988213166
1038 6.920534666710344 5.030148422895227 2.4096097749711562
1039 -0.05993459348088292 6.520842073231391 2.0957493890398946
1040 -1.849027704100116 -1.240032334600114 -2.6651566375043267
1041 10.504695308803868 -0.34134431368817236 -13.856743847078059
1042 -5.446832469284313 -4.683591652420258 -3.8066892177721443
1043 -6.806939222769922 -0.6235605736782237 4.265572503582773
1044 -9.240086926753717 7.06235837290069 -8.92990076848291
1045 3.5338884636735552 1.0455119310555658 2.5330216505233007
1048 -5.827914167392265 -2.325658522563474 -4.926916957459606
1047 7.762995408255149 2.6042468475080525 7.204103952036823
1046 2.972303576039734 1.790366286049424 3.5547334358777376
1049 -3.1887620873140263 -1.3593808600116515 -4.696882439480401
1052 1.9062706733219164 5.523992562063787 -6.794184845851008
1050 -1.6337404814724579 -4.673016009165026 1.2418241443210987
1051 3.6123400157769208 -9.428376748885599 2.0621935425512774
1053 -3.2103318042916635 -14.056441309739139 -13.4407366105529
1056 1.652504764181951 2.172106435333523 -0.28807288456276764
1036 3.8788357280914973 -1.352441952793895 7.509998820522192
1033 -4.906892390176655 8.088142115491104 -1.626875041118046
1054 -4.65384122393926 -0.40721519345028756 -2.2171707311871756
1055 -0.015691059930965423 -2.2198629233591416 6.636495024820793
1058 2.243669466782237 -2.007765104636288 -6.039592925025447
1059 0.2566863629834771 2.026591502247318 3.732758526045106
1061 6.120490828623784 -1.095396511014134 -2.737531808861664
1063 4.753278687578513 0.6395074866060093 1.7294192900697025
1062 3.338433247698637 -2.2875414815833106 -1.4902948474068254
1064 1.630901949933542 -5.790136363849691 0.8056378160618745
1065 -1.3743566868800614 7.984051205858303 0.9982869891206391
1066 -8.72461888852109 0.9553354227983466 0.15685652389292445
1067 -2.9378259875216974 -5.0185904859156825 -4.326438843843808
1068 4.7829698246323575 5.51199921778686 12.278242392504048
1069 2.136224680184708 -0.6351126628079244 -4.762149096817212
1072 0.5555297595672065 -3.7352015771393554 1.8351687655833084
1071 -6.059536954475553 -4.825384930078688 0.5307639415587525
1073 -5.564834232906753 1.0307427054626523 0.5896408237104674
1076 -4.362834790290045 -1.693921331008081 -2.456099460528686
1070 5.236890824044332 -11.161785232474825 -2.349090636080505
1074 -1.3220752375670166 -4.989540542639442 -1.8771155060328062
1075 -2.409508090235841 -14.54030836259438 -1.8804249005299225
1077 -4.126405422183358 -3.7994909098532874 10.412519688956927
1080 -6.531443407255598 -2.273401403440709 -9.25131753009995
1057 -4.443952179137791 4.961243313256953 -6.199276653283448
1078 -0.3599366137891276 0.3584526379730607 1.1936765251415304
1079 -7.957080795437069 -1.4444651514470572 -1.1017920423504715
1083 10.44826914029606 -4.71156620255885 3.6413584171779596
1085 -6.218559103328482 0.6175519235047016 -4.91971409974133
1087 3.4328986619109743 -1.4176444265130133 -15.76208763459012
1086 2.472726896555023 6.7577508297820295 0.8879860453773565
1089 -8.511565163970566 5.666809889597235 0.8430438189467663
1091 1.4395605598969274 0.13122194243787075 5.582951574842467
1093 -6.257123700983749 5.606723425208899 5.012361799750623
1095 0.44498636362059724 -0.6570986215792772 2.9945933333926273
1097 1.8703218410310454 -2.76044430813048 6.598042096902742
1099 0.7573908826276179 4.792208967950835 5.913062807329668
1101 -1.2547653508624768 4.1173117104121495 2.3572550169086233
1104 2.7648374139954917 6.224738401214777 3.9619207977769952
1060 -1.6045937078801353 14.842832161379768 -10.765141093119253
1081 -3.1948969685645583 -4.948840575167126 -3.380354093538403
1103 -0.7768459536017931 1.2724852882364546 -3.1964622260100763
1082 2.693979683199481 4.013553361556297 -0.25064787336618416
1107 6.2951505405871915 9.371000071304412 0.036956114424515796
1088 1.5259324149464528 2.0059165440045437 11.314570818293328
1109 3.546253858270163 -4.966853300548372 -0.6109835766154265
1111 3.1905170012801753 5.046867170580962 10.97325728405035
1090 -0.14233260493340733 -4.656585445841504 -3.6124440397132527
1092 -3.5177167653188275 -1.5816094076511606 1.4923001725011027
1113 5.764141261886221 -1.7198226495952034 7.267815277335034
1115 6.920160038619318 0.7625349720479756 -8.27334117363118
1096 5.8032396980533845 -9.076910861477787 -5.758926423739897
1117 2.814429938842243 14.514181762124851 9.046438312946185
1119 6.298429169532889 6.18278552363995 -4.903179502318882
1094 6.2153805117127 -8.372758099440597 2.7842379520444918
1100 1.1997093961289813 -2.2697674561456744 2.2913554972939245
1121 -2.001236880638832 5.627744589365074 -6.881883224140874
1098 1.5956134267913433 -0.9318567062923798 -4.075549068835464
1123 -0.7726165404493632 1.3070995955540017 -3.393889111813884
1125 3.677067448140675 -2.0755109036146977 -4.817182535030647
1102 -0.05966889858918345 -3.652495450952316 4.973259064848396
1084 -4.327467154212716 -1.8932872699583803 0.5414239495644506
1105 0.9706556750980153 8.222144121787704 11.589026240534913
1127 -9.53739671705503 -3.6933186728786964 -6.7281350734376035
1106 -10.46000040092209 -4.685532048206508 -11.850988073916147
1131 13.786329253133792 -6.639209785203203 5.733178694068561
1108 -3.400459729513172 -0.3723266030789407 3.5746804792768017
1110 -7.844324582906868 -4.7856784727216635 5.503517010770648
1112 2.6643992348905994 6.248611152781058 3.620236987851614
1133 -2.7642893040480847 4.11465535461194 -4.156431495972024
1135 -7.3701664741065 -0.3723034442490732 5.510642027255374
1116 -9.592604627618487 -5.716965203074043 -3.2803005496892075
1137 2.2607144508971975 -1.4903017824031872 6.988657439130982
1139 -3.4124561151329584 -17.849022128026494 -3.2048557450524178
1114 -11.08611730704501 0.7264083320392907 -5.5451716447949595
1120 -1.5004609239518647 -5.59238935335485 5.053440846322296
1141 1.9670438074507404 1.2803004790468877 -0.6143057750066074
1143 5.12539812408601 -5.8334960832709015 -6.679093589905009
1118 -9.490801333056963 0.11291444420288067 9.653415436092105
1124 3.435256153634004 6.240563794757229 0.6602149035031964
1145 -3.99616682055765 9.673737389110313 1.0141820781815194
1122 4.574839229836185 -12.931320782690207 -5.70549975383464
1128 -2.003225592670284 7.038076282498142 -2.7067348008471597
1147 5.401583118932087 16.739444759781875 1.7052920171430799
1149 3.770436448284213 0.28821954721217746 0.04319066900585833
1129 -6.335399027612894 1.8247395701574725 -1.7183994008842343
1126 -4.926471109869307 2.29585650945129 3.7303089965962246
1151 -0.24104757820104705 -1.287588897642838 -2.9510319890241106
1130 -3.987296529939527 -6.179821377696191 0.09990467880625954
1013 -13.542464388276777 2.2959470877249966 -3.0773201335808253
1134 -10.656178919283752 10.733425274333063 5.600216431597721
1136 -4.2025010468259065 -3.0220074490499047 0.5112574600188421
1017 -1.6910157483874797 -5.089185761877262 13.786637072559447
1138 -11.145100159222388 8.567937165999618 -0.1611457155868685
1140 -1.1975492286940095 6.981256488311225 2.4512906131541654
1021 5.858893151790766 2.3480989409761794 2.8226004104018023
1144 -2.9070938941087623 0.48361099956317216 -1.6605579619752475
1025 8.028384606587396 -1.6027192967324233 4.864520656205009
1023 3.902601810735388 -2.4094124969697637 4.779239685430869
1142 2.266693490494599 -3.0115912125766857 -0.7086283374474152
1148 -5.661574348911686 -5.854523464905086 -2.411391962370019
1146 1.3904901297646302 5.644146510629276 -2.3991879519326287
1152 -0.7758166052972731 -9.517197004026482 -1.8357884947482372
1132 -2.763699186066884 10.184261623282627 1.9143829107946673
1150 1.0572712774398358 0.25897469716718324 -2.8316163980141025
1154 5.270980831322426 -0.34269861424537323 0.46485927745815264
1156 5.191679471489592 8.210592860400908 -7.464765265824597
1158 2.1554341824576553 5.074399498539558 0.6270203929521049
1160 0.9333810750564202 8.209333912736428 -7.56825883229618
1162 -1.2819642568171428 3.20518101439905 2.1875522014999653
1164 4.494440631571132 6.8404422990457725 0.7863635736691634
1168 2.9849620032291626 7.879067109582848 -5.03539038960158
1165 -3.281845105163317 0.14130298612516876 -5.547896758788114
1166 -11.607458285906812 -6.456341244438115 -14.479725962993358
1172 8.195938047573064 -10.557332632401492 5.6470569657996155
1170 -3.430460045132398 -0.3765986026062193 -1.2369650032679662
1176 -2.341919338531031 6.89320801175526 5.314987622253687
1171 0.3465259130145114 -3.358990824143351 -8.091005610206848
1173 4.334430482276054 -8.535113984485807 0.3310370153603013
1174 8.81823740376932 -5.9256287905508405 1.4290225756764159
1175 -5.862004246945005 -10.32416950173726 -0.30193819927682397
1178 6.170722474557122 -1.647804665011322 7.271317484452891
1180 -0.33945064242889444 10.261314596759808 -5.3281460899031705
1179 -1.5175453460883255 -0.32148619045674187 -6.119596755756609
1181 -1.4142565293800127 5.23073776873851 -2.082175670462393
1182 4.419708813329131 -6.431658648735493 4.827975749017971
1183 -3.164354199394798 6.802594866187132 1.9540740251145088
1184 9.074631022240618 -0.35479357381083876 2.5194778573401764
1185 3.361511410185331 -0.9886961052728511 -4.514773360054171
1186 -1.452378920027632 -1.8112717874536695 2.3298021673511435
1188 -9.545403554578128 -0.9761216967135797 2.614166324162742
1187 -9.92111467258128 0.8519267589809859 -4.029996277507038
1189 -4.376678377607203 2.4620560266178195 -2.0896373761869174
1192 6.329955442993285 -0.8756457320782257 -3.176471523219497
1190 11.741163248854845 1.2312218131405204 8.393210374984156
1191 0.22863654157411994 4.877956566371763 -1.7519062382208754
1193 2.8159635300537706 4.598311857814748 -5.8816868660324655
1196 10.330810728075772 0.7069182837153734 -2.5164711370371156
1195 -2.293026934345623 6.1053508021924445 -6.647990372755936
1194 1.7702636887813685 -4.114447418968615 -0.001070444870894551
1197 10.33846095500072 -1.4000970006676539 -1.921919144620476
1177 -2.7290508872602635 -4.335747630511354 2.6204746926281888
1198 5.48154068167 2.8634828303910234 0.23485392989876752
1199 -3.1935177414845226 3.12732733500527 -0.22050762740943544
1203 0.4777346829348079 -2.842411177850109 0.22821393012726998
1202 5.325425148412558 2.802603474096946 2.8597512296513314
1205 3.5679484265216312 3.356667720960107 -6.168722152855473
1206 8.249893284875743 -5.243616461235337 -5.695706895076743
1207 1.6793390122508771 3.979661028669157 -6.467145599186033
1208 -9.553822886387279 8.693846875208754 1.5788620349980047
1209 5.569904388702249 -3.112831585518756 1.1045810436597534
1210 0.8232044673547447 -0.5001479481441563 -1.715050931331161
1211 -1.4109462100375512 -0.3256228607232675 2.2288068282285316
1212 1.6838058148388353 -9.837677899756665 0.5026651081415391
1213 -1.178958582419175 -3.2418494828483793 -4.923883898134911
1216 1.4992562001883885 2.2324575898235133 -0.010951493106182375
1214 5.062896165918328 -2.7576341762802548 1.404194625791104
1217 3.783728965045536 -4.583676279243393 8.73969789683625
1219 -0.15980221158603988 -4.99887781216635 6.220783285499601
1221 -5.837456541008774 -5.509125322309949 -3.0461805775795727
1224 -1.5578602715760597 3.9843874178274707 -2.399252031662085
1218 -2.3052026770130647 -0.49661851843528626 -5.235632234152778
1201 -0.587074360843746 3.1711253084332434 -0.7356943697837509
1222 -7.240583417101156 -0.6549900247144237 4.278340131978866
1227 -5.105421857318607 1.433647934568979 0.7136322418895066
1229 10.504483686374224 1.3552582961198023 -1.1547866311845862
1231 7.701069922555014 -10.774264512617016 -6.17798657440534
1232 -2.2315908985677333 -2.3306458951148845 4.981779001644571
1233 -4.189936370742838 3.291801902554475 -4.593304585533893
1235 8.69862553774573 6.422674851028386 -10.948269876560396
1237 0.23352731520951012 0.43808779139387527 2.2479676624042555
1220 -6.635419770771301 -1.2519953755317352 -6.584810510101014
1239 -0.4505944872106634 3.0544055284625693 -6.214811440055693
1241 -4.10928469623221 -0.4637416490707738 -2.902636615220482
1243 0.5656098849764722 -5.484670504790895 9.18479746648965
1245 4.878206621102729 -2.2796011087830643 4.975769605800534
1204 1.9759905926302603 6.05858301015642 -1.039681140472696
1225 9.277645403584874 -6.113847346525299 3.6587920713830724
1226 1.8996585570518556 -5.279561585710931 -7.430289260967488
1251 0.6643227485457591 -2.70484320018475 -3.0267678917496696
1228 4.526994791225129 7.3603977436141825 8.461586975202385
1230 -7.402426322172731 -2.712011904379096 -4.474859062643405
1253 -10.616499166061354 -3.6634031031819627 0.7698831901336919
1255 -1.739531898681029 -2.5189493875947706 4.628371764374049
1234 2.02679594516268 -1.7252105801516822 -4.383672261102686
1257 -4.475363327648136 -0.25197137206625114 3.08523490383981
1259 5.839691809776228 -0.15629718384584865 -2.455657321665181
1236 -2.292862651021136 -0.944639414318232 5.812347818463319
1240 7.469591631215313 7.033849715745872 -0.7172410980581153
1261 11.81354152946034 -1.8157935454616723 -1.2805399567930922
1263 15.895333984480725 -8.80453578978246 2.5497612250741946
1238 5.092519317083442 -0.5513598142252812 3.4020649378004086
1244 -2.487627893696155 7.411823526828491 -0.11604979076585499
1265 -3.5492209129728653 1.4950585572861754 2.192125783184944
1248 0.4481407046104435 -6.371810360073547 -6.780241545427431
1242 0.00011642935333036894 -4.521611948344831 2.4695740998753397
1267 6.917100713041647 11.636699567052636 -12.488894437309312
1269 0.6290130315690939 7.57448824035166 -3.0615616668097467
1249 0.320219184543406 -1.5757387519898165 -7.122994951261034
1246 11.992287226034799 5.054363940800794 -2.021960635652363
1271 0.4901257235005293 1.7619092631023354 1.3205320236200848
1250 8.651190421537422 -2.513769702558041 -1.2207188006969942
1275 7.580100300224674 0.18083288343947926 2.0734329915707708
1273 2.870852485245357 -2.4272622328880042 1.5453876988174615
1254 -8.968796785892598 7.54062642052059 -3.08271192209768
1256 2.490230395269493 -1.0928413499385192 -3.158147610879528
1277 -3.2952976367633844 0.09243999952477519 1.530076949608351
1279 -0.7337861637599158 -0.016774145166205776 5.321712677632803
1258 -2.0022641542143353 -4.707210600913922 -4.427494388265768
1260 6.903831179096759 -2.507888068001755 -7.976608663106413
1281 9.635793128522394 -9.175737692756199 -0.055204373315563854
1283 -5.8406424927297005 -4.532290414708998 8.162412778391165
1264 -7.0837751769989135 0.9987311925473819 -2.371820645050437
1285 -4.250148417756288 -5.576725169542116 -8.849926162688691
1262 1.858511914850047 -0.3680867219392528 2.7193384032548753
1268 2.027595740538007 -6.323903481063589 -6.228252002129007
1287 5.843339237542168 2.9114425193326023 -12.497067754632983
1289 2.9547923938604126 8.563768907741828 -11.705632492654436
1266 6.353371037685998 -10.395556380275893 5.805202764777808
1272 -3.809838452164846 0.6119661772008704 7.178277791252661
1293 -2.8626800611647876 -3.732297842822485 -6.262647205287442
1270 6.141363312664916 3.322269691064373 0.47399278783037646
1295 8.269350949169574 4.288235255929597 -4.455106683937297
1274 0.3979883941707317 -5.357776255208536 -6.414904874850836
1155 -0.8633865102117866 6.8246440182620836 -0.9672868059108963
1276 6.042300131608806 1.3183168925867907 3.4169022583826565
1157 -6.9811150780094655 1.328209864927713 2.4675495038304067
1278 -0.8029591813407942 -11.146344813305191 -3.5492567212937027
1159 5.586072709910061 -2.2824851552315093 -4.790093094769932
1280 -4.492507182902482 -2.1337577877723386 -4.2285281585085075
1161 7.623447596478234 2.5496034466965476 -3.6135013115074006
1163 7.208354129167976 -2.309898706554397 3.07527717814054
1282 -2.4357919471963694 -2.0682801670596733 2.0345477599072352
1284 -3.907738088696607 0.06373565888864306 -7.891057179223001
1288 2.9279581799693117 1.3591856811412195 1.9717505330890899
1167 2.859240098699371 -4.147954844604473 4.5466782512213895
1169 -5.145886646009367 -2.2503626095685414 -9.623396672539176
1286 -1.621635707013395 -5.934404328701078 0.27952665801047233
1292 9.833661419988218 4.886107619570957 -1.9720601001490572
1291 -10.60336130647981 -3.926487414418672 3.3607992480495286
1290 -7.420889808312877 -0.33258006515037863 -4.9121455884433995
1296 -3.004197233167719 -1.4192145461521404 9.448280246213612
1153 3.1277702396760727 4.4266923522964845 -3.9740431464852057
1294 7.613214504322726 0.584036782171067 -6.74579777298305
1298 -2.8403697317144525 -6.1414944944906935 0.41604463827671506
1297 -5.474280093344487 -0.6186183559645078 0.6486650023343201
1302 0.44059151349060854 -4.4780178023490596 7.738077271685598
1301 6.610608238410266 -5.389694021594551 -4.930566109858442
1306 -1.2761723571100263 0.1931036141974021 6.370510459629376
1308 5.32903996293506 1.9668604543623833 4.645391194816841
1310 2.212089126974651 -14.30426429813264 2.214422956759465
1313 7.137769103840574 -8.98536784602217 1.2485220030358632
1314 5.8430804205676505 8.194178574364175 -10.825626797754602
1317 -2.252093441240651 1.7193930518029192 -0.6007946852701431
1318 0.9084973661713054 1.755892087294585 -6.039739419173828
1300 0.6294082361332434 -1.9843833708684862 5.857644061646589
1322 -6.1028672630554945 -8.10815896350693 -6.274719667347472
1325 -9.465179856541859 6.436939936826846 2.8431867369211274
1326 0.8777036730487524 1.3790764831467393 -2.205405208503056
1329 -8.91692035340056 0.7997327969765112 1.8622697923413707
1330 0.31941595821552343 0.4081477224097769 7.310217308599325
1333 3.772232815782246 -4.168718174018326 -3.0238685394954414
1334 0.34542385285703847 9.67467926273136 3.8944080661998304
1337 -2.1620443366771327 -2.2311765148419176 5.992762586376042
1200 -0.20131708931323497 4.3106415818266015 -0.8150257706227682
1338 0.10158332198178206 -5.200537223325844 2.46488866920878
1341 -1.2016596625841043 -3.4812243465357424 -7.401899148334985
1321 6.610703168163309 5.759693916119371 5.3952625535669325
1342 -2.4823592252836124 3.048199059597921 9.385010799516266
1346 -9.96349772936733 -4.699321251803465 0.43901033906867204
1349 2.1671961917682507 0.059474471889490704 -8.637717980418262
1350 3.462169793714313 8.441024594213474 -10.79801701721448
1353 5.403217191482766 8.846454417551936 4.186743768514746
1354 3.350908165357785 -6.7976329696257975 3.543327179462672
1357 -0.7039065852643842 -2.84381036441047 2.6237226448076423
1215 -3.6191167433919347 6.378297114152761 14.010774594317978
1358 8.577160204395529 2.405555915170289 -9.338434321532752
1361 2.118397633500847 -4.794881347193391 3.632248542497647
1362 -6.37081885797978 -3.2096742444626907 0.2859360022555471
1365 -0.3163421741852638 -8.759780899124936 10.638263299913339
1345 1.1863621416531736 -0.9308147885831686 5.455513723809563
1223 -1.9559077276133183 8.866620465716842 1.1260895416863497
1366 6.11536979579939 -0.04083795854803352 1.9177376809288846
1373 -10.105054987522909 0.2052120547290481 1.0367818187183075
1377 5.05681189818748 -4.0352129315326115 2.3290517560385418
1381 4.758525683736559 -5.060570577935559 6.283893030356018
1385 -6.2155246950592025 -3.876728011301093 6.911208376923393
1389 4.049938594661037 -4.1125905953234865 3.8541998497462493
1247 6.76508774778023 -2.0281770753272674 0.820192960115325
1369 -6.956619850360446 12.692014471250191 9.075276954474045
1348 -3.082458590828567 -8.527719414409667 0.9937380581954858
1370 0.3203058631509384 0.29294846663308693 -1.316649275493768
1393 -0.5975077708975047 7.900201774089155 -7.627927484341964
1374 -5.440604169421491 4.110088022034605 3.422382270108812
1397 9.834379877697828 2.606017537069767 4.6459148669001715
1378 -6.8953742182378415 1.9054376610158648 4.23101610224685
1401 -4.036036816527189 -2.64084096605317 1.5994590116357854
1405 1.2698441661417899 -0.6206758854772431 -2.962450774812006
1382 -1.5934076701288624 -1.598004496081873 -0.173949612474134
1409 -2.0397832133797227 -5.19823467202022 6.903259252037126
1386 -12.346589839026358 -6.737043082436043 -7.202922298650398
1413 -2.8026943115548333 4.725630920966388 -2.456186033273729
1390 2.2030267455825077 -3.790092092211379 2.219640014627368
1252 -11.436489426494973 -4.443761523125103 -7.037243277548062
1394 -1.5389846054433103 3.416418688595293 1.6970177944035754
1417 10.463900367469606 3.8779741670567085 1.9715802327011152
1398 -1.6369992609168589 -3.181540939044542 -1.145536829386969
1421 -0.5102975861136353 -4.439334638302939 -3.344163567117659
1400 7.0410621505875595 8.80429828052796 4.10273340229752
1425 -6.774049882073223 4.173817901940838 6.735568510058409
1402 -7.480614733054468 -3.0366454897110366 -0.2013942400984283
1429 -5.950564873907112 -5.201952450915446 -14.32912092770222
1406 5.167300888397084 -4.722221600721992 3.72776362967633
1433 -2.6468935524882142 -0.23607317720960289 4.806800724686176
1412 2.4517380876832644 -1.0481877278631373 -0.025538256996755923
1410 -1.4816557650440525 -3.1295591540512495 5.844593533121299
1437 -0.4368081590911277 -11.587818177676057 -4.505092406591158
1414 3.581745158782424 -2.522812468770944 6.720125600011265
1418 -5.530723526499885 5.378125458100146 -1.118076380270059
1422 -3.434395081838884 1.2988270757937554 5.15179574207959
1305 4.889387155494358 6.424349418981655 11.977176992602782
1426 3.667936257139619 6.001026984118825 4.928593617145839
1309 13.399456238775697 -16.923234845253976 13.243824887428385
1430 5.520942626080844 -7.611484141709479 -4.891308010622151
1434 7.948549981138261 1.0910542714853138 3.4504143784966015
1438 4.185550222930851 1.2364830665629443 2.272746941732101
1442 -14.011060786571685 3.962453281373961 6.280513132115082
1304 -6.237029955714959 18.340734615339144 -0.8022197925967991
1446 -2.020650461016816 4.543303291058758 -5.369088087250078
1303 13.37566415036543 -0.9109249709863224 -3.6602603494204025
1450 6.655447740795774 4.189187510591307 -1.0571609184375943
1307 0.8010038062891888 -2.4877821489108425 -1.2373122242016321
1312 -2.403441296676383 2.677817520610866 -3.0871942708458167
1453 -2.731613914656317 -0.6273150862070384 3.5312082827473006
1316 -1.0647625818460078 0.03218560874284784 -11.708575655123564
1454 6.116117333719554 3.3793000898312413 -1.3315014144190394
1311 6.367189889871829 0.3118274491526939 1.2789011697333574
1457 -6.643776021466493 1.049780726765693 4.3238832318990275
1320 0.9827955263108036 -2.3559793420959503 0.19557415535381295
1458 0.025662194776004673 -2.0592362378331965 0.9010650395186859
1315 1.4789570522754427 0.5414972416004096 3.673716696018798
1461 -0.01104798512560789 -1.676264179146202 -1.7234468784216552
1462 6.589007833536332 3.625796329772941 -1.7425645247111599
1319 7.822975767181019 7.186448085569684 4.4849744079497045
1323 -3.275855179034605 4.400530674505393 3.2960748828908653
1466 8.397150399550112 5.6605966380234705 9.09087520481575
1327 0.8212265501756773 0.45376403575824137 -7.707563976927164
1328 4.214650306855427 -8.70597557535922 -2.3546848769475046
1469 -8.488469718158717 -0.9349283310671705 -2.591786187097481
1470 2.5397395721265443 2.0215769402542327 -1.72362977730615
1332 -0.512490985100955 -4.304221665502519 3.3389766149292073
1473 2.678554421740526 -1.8330290449120474 -3.8526403745024234
1474 -7.183480440747185 -6.73324890508435 -14.633906610575503
1331 4.508368965836704 3.8403248576720195 -0.7622201201090081
1336 8.875100707805084 6.0704647856801115 7.471230994161341
1477 -8.011074767108916 -2.9563221627646348 -0.8905283547755806
1335 -2.5538494004961847 4.627523377706448 2.853812556323982
1478 6.688567790765644 1.4776327462509986 -3.4308788589658237
1340 -4.666401935266086 1.1882200116682766 -4.160230596076097
1481 -2.9848611902621176 -3.04803060845514 -0.5140312082262942
1339 4.076995764018627 3.109052387556578 -5.689068898614975
1344 -4.569622681846793 -0.7841587003723314 1.251426768985249
1482 -3.8873167122605947 -5.711355190654753 -5.666797397161959
1485 -6.1811222893978925 -4.0024049535816815 -2.9662007101958334
1324 6.086728020521905 -8.165149428707354 -5.129519043351374
1465 -1.997596049234076 -4.350050506305313 3.517449230782558
1343 8.27386991868497 -3.1582116243579073 2.1774579848808746
1486 -1.3376622971822418 -2.968847328425842 -9.365493684592726
1347 -4.70712483781716 -0.3577303953203629 1.5410761031398101
1490 3.727342099598205 7.3967584783182385 -4.271125268771413
1489 -1.6147893267028588 7.142954302864321 -5.861118056950325
1351 -3.5278961310991295 0.7013720940130718 2.9495965911234543
1493 3.1683860181548655 3.8326637704591353 -5.4955939599588985
1494 4.789816495461003 1.2838475719032423 10.484713487868666
1352 2.4767926602210877 -4.393871134958315 0.30009611679813014
1355 6.836118716861558 0.03388275407813646 -3.2233455135013167
1356 1.4406406922407122 2.1933934772915618 0.9529863978483579
1497 -0.7347578380874135 -6.07162873738108 1.1905943024508727
1498 -3.815382982328146 2.955465665452644 1.7502939648100249
1360 -2.010718404223598 0.4517166939309469 -1.2167023998328923
1501 2.7684347084916343 0.4759480830663565 -4.504250204736082
1359 10.12599081138324 -4.4280506011885326 -2.4607961196726693
1364 -4.991895026959387 -3.3641041492390213 -8.923810310245104
1505 -4.203823307391875 -5.164840336511021 -0.5244108045841941
1502 -1.822264854902514 -3.9854535716602415 -5.65692032114654
1363 7.03839400618656 3.1963169584460998 4.905534147419146
1506 0.8359408041545953 -0.9216383735707648 -5.237462122088915
1509 3.9973784114331887 0.7453608149653567 -3.483181528416735
1367 -7.529628527315719 8.244893483533756 -1.7021683649810737
1371 -2.2527168235777877 4.6954150018246334 -2.072756437973824
1375 5.621657934789256 -2.008478071472843 -0.9410176988400514
1517 -6.440134398485257 -1.2338050268279166 2.3349773882371267
1379 -6.175586554727017 -1.396206775230284 4.22917630935601
1521 5.243110435068156 8.78278734230656 5.588972675258522
1525 14.1915774902834 5.381122967537765 -0.6552914924785066
1383 0.08908391102869082 2.2696687971480918 -2.594282132768621
1529 1.5115960367258119 6.090179394804893 -4.235610358444987
1368 6.907551722243222 -4.859646546869478 -4.441157351064032
1387 -10.946281083245267 -5.695915190752688 2.4179708706114544
1533 1.1713076413098509 5.45158572580479 -4.755740466378138
1510 2.6429117713573427 10.224923446721546 5.558480361621338
1513 -15.593622842336885 9.417472979912517 0.8146613914504458
1391 -8.580699461858115 -0.9705789827435527 -3.7539049620768257
1395 -4.222834572058632 -3.6629964127804575 -0.7122328091338359
1514 12.13049309485906 4.9973169345959 0.41190190753187034
1537 6.071592918456768 1.6452396181961753 -2.696934233605013
1376 8.441327811841738 2.670301788445194 8.070908302396356
1399 1.6105127416461729 0.2850501690657329 1.9758992610802852
1518 -2.8284675983367533 4.911692396967515 -0.8010267639235275
1541 0.8891306001472848 -0.9254670188550673 -0.5506593591985861
1380 0.858566268727127 -4.358082927236418 2.26295626366346
1403 2.982526045008336 -2.697588356984248 2.1673439674999546
1522 -5.452905417595432 -3.251556798710856 10.020816016557077
1545 7.411917950985248 10.261587647235801 -4.672780373329449
1384 -2.585125161229528 -5.5996903826595865 5.5332876671665385
1549 -6.837116182478399 -0.9659346659221062 1.0300672003538536
1407 7.163570510074372 4.214511490719838 1.5371755851753024
1388 -6.267545241288177 5.2400287672049695 -6.279328268162177
1526 7.5208490524957075 -3.784304257365334 -0.22911248171586976
1553 -8.207396902142353 6.365035174257369 -1.027696162823611
1392 -2.082225376390347 -1.550396861362058 -7.693678503246997
1411 1.2641601259044528 7.6194103233177115 -1.167270353284371
1530 0.26298072142507845 -5.3832229929474025 -7.635613292577198
1557 -2.3440746442916107 -2.337671124689787 8.321763698209772
1415 5.988487202097771 3.584869046587095 -8.04459896081636
1372 5.894443930365699 5.513351661312349 -1.187676444643952
1534 9.464806883343103 -10.83632827098483 -5.978628860006077
1419 -6.447437076351675 0.7271697275808087 -1.30517623313739
1538 -0.8460399590490899 3.4170340944557296 -2.27645359040667
1396 1.6031170991137211 2.3331466170499473 -1.3104500519217643
1561 3.510872469175165 -7.315156927408607 0.33300377235048084
1423 -1.38616331038487 1.5162999848690912 5.3044025184743795
1542 -2.939873369466287 -1.3113533782212137 9.332611144459959
1565 6.034717923158442 4.857112631221934 3.6216894883513207
1404 -1.3359832646790393 0.05530395810376393 4.529853208524359
1427 5.897872808485674 -1.5218726732028318 5.872973019035976
1546 -5.161609107824805 0.8787315952162214 5.906175795411715
1569 2.132548495556222 2.2964455099438714 -2.8978227537350763
1408 -4.661079992437045 -7.340407008484654 -11.277221285042412
1573 -6.581554253710387 -1.3078524134426208 4.967381512065966
1431 -6.217200551194138 0.3132018143358171 -1.6724519802581568
1550 3.08016339481327 3.5028286599067857 -11.609960842932589
1577 -3.6937216463854208 -8.682559500019345 1.4736965247636384
1435 3.758664480800421 2.8774254025836967 3.4633840917161987
1416 -2.3674627754389306 -7.090485168533148 -12.30988325315658
1554 5.73034184465068 -9.931385768407551 -0.7852383549940328
1581 9.166223470619212 -1.5005579097452542 5.693379919913097
1439 -4.195888341953063 11.305480752424891 -8.66059424837721
1558 -4.134056232609122 -1.8228358440695418 -3.547108401434181
1441 -7.099696249431614 1.871700415690821 5.195901586324482
1299 5.509472544257081 4.50405316941036 -0.3931467173750481
1562 5.907118418466823 -8.79511458484881 0.8150671911931189
1424 -5.978209404907779 2.8539950899944673 -7.405147854198888
1445 6.355916220078892 -3.9685709565341067 8.379235000090365
1566 -9.906503166826186 0.6051979286480212 -9.0617698235585
1449 9.236223043258684 4.761942232872418 1.5112097090863943
1428 -4.726621764612392 -2.675275960171748 8.306097984270046
1570 -13.20326603313085 -0.17670695477741286 -11.537824191911103
1432 0.7311420631896728 0.7716675726133074 1.105973285682566
1436 -3.028734766695937 -0.3767329926048612 1.506260539782257
1574 0.6325490416312124 -3.4154689992243363 -3.1002420233530517
1440 -3.0036826998273987 -9.518634770728758 9.049757587163528
1578 1.2676300722162983 7.845054949793918 -4.373747235135219
1420 -1.642952835636523 -0.8613091481847078 3.7145864516231413
1582 -8.211547425095533 -5.450957064450967 6.960558935528739
1586 -7.27984854007509 2.013388243290209 3.55356967942493
1443 3.194283758361828 1.1161182222804475 -5.295845452470054
1448 3.42438911874493 -6.6725951828103875 -0.7928057906277787
1590 5.431026059593875 -2.6520624094063687 5.721437374209563
1589 -4.072419066549181 8.28532730420491 4.017575253573979
1447 2.2197269282739702 2.6802842165031593 -0.5821701879037317
1452 -2.211069981992777 6.83477313101543 1.5845238362587335
1594 -1.5498810343954557 -9.008378157319985 -0.9698631358019225
1456 4.750513914104298 3.4448304074977028 8.108266681573255
1455 -6.677434935521196 3.497830922448138 -15.497167827633776
1460 11.436173264829083 -8.232923547022088 4.198685664761013
1598 6.080471536492947 -3.8832052329613758 0.24567346228227124
1464 8.253803975189903 0.391693508813287 13.37557335454816
1602 0.7968277543586046 -6.801606695539579 -0.5236618245464416
1459 -1.484868124251595 1.2244222718728337 -4.383714282305311
1605 2.1585646193692 -5.89787321847826 1.461207343424589
1444 6.736007573390297 -1.6328849926577345 3.186783343311365
1606 -4.608930331879318 -9.76024249512848 -2.4570546877629833
1463 -7.213439071941997 -8.91088899425175 -2.7339094367584593
1467 -5.996021943125424 4.843781675778163 3.2650242928901765
1468 -1.4267253237671607 -1.933937091329163 6.691919601055335
1610 3.601173028669038 9.174023728958986 -4.036683596792181
1609 -1.6487227602104304 -3.2172281120063393 -12.843864604387186
1471 -0.2288481595702947 -4.182784472838893 -4.908938054145895
1472 -8.298618692751946 -8.001322757824374 -1.4886318896314266
1613 -6.445528454099508 2.2151512761607632 -7.992405623650181
1614 -3.865090106580785 5.3479809901310675 6.446659025681591
1475 -2.874592631261745 1.9255542597265969 4.209344751437993
1476 -0.94776109455066 3.5928334122780425 -5.889842750715654
1617 -1.0772495730270284 1.3804543490165242 -7.26112515193896
1618 -4.016712074371048 -6.762341393816166 1.3170105786617712
1480 5.004207602241519 -2.562211488847562 -0.2545534517334466
1621 5.468738720458923 3.3406614593405113 5.6497302585267395
1479 -2.364603232492344 -5.84810140885401 3.2166015040724076
1484 6.08235541871657 -4.746647573011534 -1.682816470592236
1622 -0.2791741759746825 1.062106131762641 4.004489924336447
1625 7.376623306877819 -1.6698969068063536 12.081123973004294
1483 -2.306205243396045 7.141715402835438 5.674394134393315
1488 0.6013467135053487 0.5623430455425923 -4.2223353669865205
1626 4.008387054690695 -4.575130104022995 0.5457895111120612
1629 3.7214919790406156 -4.598126530223995 -5.52319133980406
1487 2.7619268691018233 1.1221957136914682 3.278351667116883
1630 1.5943820889298057 -8.528035680793806 7.559935194758492
1491 3.806011451420633 -6.977790998572856 2.211971001836778
1634 5.5995311569999675 0.4056825502584091 3.3320918319780577
1495 -1.2993021014256718 1.3075910259299195 -0.6868412228289158
1496 11.26146744209072 -4.646846656360078 -9.297938979630073
1637 -2.502019587326909 3.068150389375157 -6.706340807031475
1638 -0.9439702035694347 1.528738841909964 7.591911535428129
1641 -5.871885929611894 -2.440093504307687 -3.691155942783976
1642 0.5762964905960893 5.702466201798342 2.7591049416879114
1500 -0.0650063798892779 8.524490035122762 5.7393241576418035
1499 1.5848834531469977 -2.0713485518089056 0.8259117461857614
1504 2.607410703980026 -3.129728404572863 -10.222828168113866
1645 1.046376743990354 2.917273737607138 6.085460923370694
1503 -6.2444800771550675 -2.642558224623592 9.087501956081898
1649 3.856524977554949 5.418996893856842 -5.989649767382187
1507 -2.3940142619050473 -7.574295914821897 3.575820968733718
1650 -1.1248372615759064 2.9738495168986634 4.139033249200737
1653 2.03177692338015 -0.304314860058975 -11.429690772505802
1633 -1.7646105944108346 2.516212995518289 0.8846162464548204
1511 5.715639254371692 2.366648664278816 4.034235651968193
1654 4.796215345651035 -3.930866466617635 -6.1825105369391835
1515 -0.022977558648884792 -8.409005298424933 -0.7104051608713388
1657 0.351456046531391 8.502221225474583 6.989364727996844
1519 1.3679434040153686 4.23946340473198 4.472659466764316
1661 4.065184951555783 2.086430700926444 -4.260967476847282
1523 1.5115240409327466 3.623772212516758 -0.8401440757193197
1665 -1.5517482469074693 -2.3132035376046853 -3.5204558735577525
1669 2.4082903143637884 -0.9281129535749494 -1.0871785346600604
1646 -5.169634872044942 7.084482091850773 -2.7937431328375153
1508 -4.202753402814281 3.289003062154183 6.415221320536961
1527 5.744970769546488 -1.507525035847965 1.717047175937191
1673 -4.395375272792235 5.011062799106657 5.364851333951609
1512 -0.5596247173551137 2.5437044046181736 1.9465621585336021
1677 10.487054504482211 2.9757010685282888 2.227461694206217
1531 -0.57880699517274 0.748759178198555 -3.3247743783384363
1492 -1.4028345571610024 1.767459300040922 -2.4981566137118616
1535 -4.245782863545672 -4.254659453493391 -5.304561631671993
1658 1.3307712895515045 4.0695860251082046 -3.352167669336981
1539 -0.3521141570546071 -1.3513961812326423 -9.232099931437215
1516 1.463405282961198 -0.8123323622462257 5.176501369770035
1685 -3.086524597056953 -2.7883090542041087 4.2090662545484125
1520 -3.2255925229850524 -4.179427225942936 -3.334696047638221
1543 0.5900399924248828 4.206251710334484 4.685882362944493
1662 -8.250234483616431 5.281032835523832 0.35464101244892404
1666 2.5689592357436615 -1.933110319925065 -2.0805516521751164
1689 5.805571378764377 9.417355687496343 -1.4735097547622358
1524 -2.1619881768421743 -3.4173572825298293 -13.09270648306132
1547 -1.8504083769919861 0.9065351239492527 -1.0122321481345515
1693 3.831032874292134 5.74439761995034 1.1924789344458986
1528 -1.3814780707475445 -8.319127118009485 -6.379148843965888
1697 11.504874404884513 5.3231598570023255 -3.5012745027511323
1532 -3.1943831079505305 -3.076531685267389 -0.06685393496494671
1551 -1.6899761704896863 -2.6958911993218644 3.269771092098817
1670 7.098036380263517 6.604505996668331 -2.3343078382699187
1674 -8.36239008017101 0.6686672529964349 -0.47825352169273655
1701 -6.3301383963241555 4.817590758072732 6.108058365351597
1536 0.6262791597360599 0.8762053296745322 -4.7972633209443325
1555 -5.994618307626077 2.5345477717583367 -0.7060740448402759
1681 -1.4152003141873708 -5.585357845722809 -4.02329615044259
1678 -3.7680455931069563 0.239776580767552 4.643053611800999
1559 4.70917641747404 0.49854850458494043 1.608157718688443
1682 1.564584359835592 -3.802582969600945 -3.974372764238514
1563 -6.5264649439181515 -3.770433022121363 -0.4125137115682326
1705 1.7205039671500924 1.7744879899017003 0.18942115668225554
1540 -3.5494547859438037 -3.854914876235674 -3.4224253289972073
1709 5.7080789306290285 8.978902705068299 3.1136043804090137
1686 -7.286940206253573 2.1793216691884885 0.5420804758911109
1544 -2.1025797081252433 -2.503982016365383 3.3040523017083436
1567 -0.20274103383983066 -6.47039781704221 6.197223031407355
1713 0.2227087574449148 -9.325624871135124 11.275005892830302
1690 4.46173298707176 6.555301865874473 11.214028864136303
1548 5.476300668653349 -2.6835393935655425 8.75520985278721
1571 1.6392233533818026 -7.290497037607171 -5.423141667947023
1552 -2.7778477258958008 4.7520725814185925 -8.094683360474981
1717 -7.412364306941932 0.25342094524186476 -11.271343622129557
1721 -13.321407792342837 1.9131820692427395 -7.686209748384106
1694 -1.77788100228029 -3.6796986864330115 0.6536703426317088
1556 1.8666657605568093 -6.584344525214589 -0.08083909191373873
1575 3.94045341065283 -5.087353797093686 -0.049816930033457815
1725 6.942002092842064 -1.5868057135766476 -7.153588964460783
1698 0.8671824481093393 -5.980270660270477 -7.739500451824898
1560 1.9231276122940542 -7.409917533499254 0.9521590042887405
1579 8.050459600764464 3.1524023117800586 -4.113218702687613
1702 2.352104787194384 -9.099552252448435 5.27128378066712
1583 -0.2813687353014216 11.878021150347983 7.918202429851974
1706 1.479083529180919 -3.6803959524921845 -3.377138210326782
1710 -1.2262997067706032 9.442967032955677 2.3461100465670603
1568 -0.07922944807847489 3.975720805672548 -10.705665444366572
1593 7.5694650960253265 -12.077441401341037 -3.0131515263186137
1451 -4.162708966482907 -3.3129755361977313 1.4835649031393208
1714 0.3201100849158543 0.5687316866332774 -7.584361189038546
1572 2.740157056701892 2.5956193228727518 -2.7323346799049677
1597 -6.29535273087525 1.9645209376717228 -5.638747686654223
1576 -2.6433841139390535 -4.630254101995738 -7.045644132206202
1601 1.2521281832557227 3.348152905472801 3.813891447115817
1718 -0.24322645887902825 2.932636741532243 2.810454823409831
1580 -4.968405701659556 -8.235680503630315 2.1734225419988404
1722 4.009892743296746 -4.119590949672496 -0.26819069449440935
1584 1.815958297510698 10.91069028171286 2.2139265808998596
1585 2.4397034730200375 5.74131906946207 6.891821597907507
1564 -1.6492586642209905 0.20826152137460202 -6.498268237447649
1726 -5.520822599535474 7.982743697193962 -0.6579548822940818
1587 -5.563693596355831 -1.1499643875918721 2.398492449433196
1591 -8.224005257955401 -6.799574816978928 0.6108286759375577
1733 5.076239796916149 2.4044109340966693 9.684894751645608
1592 1.1952043451681265 -2.5431942452069025 12.141522006099418
1734 -2.566216888711649 4.308806114108854 -2.3128972679068225
1737 0.69596339604279 -3.1186142417006115 8.375376429517962
1595 2.662301489626522 -2.450376159068303 -4.2421002427454555
1596 -5.547564833483685 -3.2653188601682617 -1.5449521288705452
1600 9.869627358328737 4.106277943386488 1.6273949023920213
1599 6.493364532020237 -2.98870797920809 -8.196758435544087
1604 -2.4969473177493238 -3.13462408118921 11.357561375963327
1608 1.2811930313325077 2.784248159345619 3.610034609337517
1588 -0.6159819466724351 -9.670362287058467 1.1363663939684965
1754 8.748796098074429 -7.737806012729148 4.529627588177241
1611 0.440418169468894 5.739094894069932 6.647198892132618
1757 -5.363542003431727 4.776626312077059 0.9464707521758056
1615 -2.944494084624834 -2.472811675024197 1.1485860604343345
1616 11.599859235679359 2.5887136325453612 0.3432388048090697
1758 5.851060903356593 -6.6981788556523565 1.0761628541737305
1619 -4.9592107012245465 -3.1270045789484997 -4.273559421915434
1620 0.01257166448434431 7.107989099944882 6.331081822599288
1762 2.859563036421155 -0.3365008912076834 -6.0065103383446194
1761 0.9657435075506594 -3.757569349275892 -8.46628624318372
1624 -5.689970491045747 0.4999562401792319 -9.193151295825364
1623 -4.4857828010426966 1.8305639360560069 -2.8969506400283884
1628 -0.5143404749168393 -8.793917150715899 -0.24539163759753485
1627 0.7410535625913153 0.7218344414389566 3.4746310248117864
1632 -1.2714261311524924 -0.05164782930401326 7.286686680589457
1612 2.571230207164354 4.469248932836583 16.369171555123337
1631 2.911052529786061 5.797640563945424 -4.9668047800296105
1753 -0.90601981836189 -0.789728388909063 2.7113167441804813
1635 6.065914324606739 6.788600604779877 6.088737529438694
1778 -3.9816421909408795 5.332382520555546 -7.507892949918017
1781 -4.615028544629742 -2.888042025823702 5.044449552875139
1782 -4.919992070692254 5.20118533563841 -1.4423618050239828
1639 -1.2272436212557736 -4.978091888903106 -2.852408215722854
1640 0.19724261967511048 2.3147752579703855 -0.05142121659394784
1643 -1.0182074176097766 -4.28827233916988 -8.18291325464477
1644 -1.2332648570392333 0.25589777711541906 -2.1348288599285543
1786 1.7290861366444894 -3.731351717387888 9.944122946757908
1785 1.003738986566832 -0.49921904076310214 0.037344249163115024
1789 2.2767882026186164 5.773930956597528 6.0614209534352534
1648 6.662417073740056 -3.274490727168102 -1.7187563418845364
1647 1.705485098595764 -6.784791171623099 -5.472534510100837
1652 0.30107861459404206 3.058993473207308 11.002272650833627
1651 1.3358908298800174 -7.19744856256291 -4.3936650791705025
1656 3.6674606210893987 0.7029203086370156 -4.763819997105961
1636 6.849944867442177 -4.995965938944074 -4.608813520671127
1655 -5.598256367536714 -8.098353727135216 -0.9704495646613465
1659 12.595588396629104 -1.3717212836674872 0.6498706286368812
1663 1.309694595656824 -2.2924199680681117 2.397114901728628
1667 -1.279680917616975 1.5293395672241905 10.994333064291293
1671 -0.4218768066551429 -9.484875598662112 0.7775673252632987
1675 3.41285679240728 3.0931616956217396 -7.2854555556942415
1679 -0.5903562172615491 -4.0896447525868975 -4.2017823122514
1660 -0.0829784010296095 -3.4003703799611955 5.997090252859909
1683 3.145057351985935 2.7720163665991437 4.756485300303916
1829 -7.1278190576269305 1.089975053777284 1.8956768739159566
1687 4.008896615455011 0.7466349471837066 -1.2958440519881822
1664 -16.135567179746737 5.546057741872601 6.442798324596775
1668 -8.064321633687356 4.061866650037587 -7.130558081336712
1691 6.600351805945769 0.712958710268928 -12.862651399686122
1672 -3.948759279432894 -6.449360127677844 6.799809576765439
1837 6.26204641276623 2.942880847888425 -6.1049738290603965
1695 5.6351860844393755 1.2617069572694533 0.23451262555512478
1676 -8.499643338984216 -3.284822897502869 -1.3375192071288973
1841 7.8557124941810095 7.70273710087929 -3.2324782052384604
1699 0.4639450888294385 -2.5041143028787056 -1.0779638706677734
1680 -6.350218195127906 -2.3346183293205653 2.022956490331558
1825 0.7919130821603485 6.255818495575402 2.4794461280471696
1703 -7.0191787755763 4.76000857503644 10.108888750002922
1826 -1.2049047551436038 6.185478539786537 -0.0025985942101802253
1684 7.0608393397267575 3.6516714310640603 9.961676817215812
1707 4.8947058236417265 2.1070448681832663 8.615747937789273
1853 -6.779089280040749 -2.700911191014385 -0.042631947108182536
1688 0.07673045803776533 -0.30622516441393305 7.07318570814696
1711 8.484887772201533 -7.683416876365217 -3.197733516695071
1830 -2.722961700971212 1.8920926780472296 0.7013388653697209
1692 -2.6289796312449814 5.167785484413511 4.3166667804663685
1715 -5.174691571404727 13.866007502284283 4.303097795020014
1696 4.238851389136444 10.80515043686582 5.670556493903169
1834 2.604124841785158 2.6333953322453683 -5.499977177773542
1719 9.398950867727939 -9.11409511920827 4.186407750368839
1700 -6.001746178621247 -8.19068255101112 -0.6352380774897827
1723 -11.882088242114826 2.085054626255936 0.04883149333451325
1704 8.019228441909773 -1.208624829295646 -3.671395933586606
1846 0.7533213438785973 -14.591359094932972 4.464966741760971
1727 -7.064665022637955 -0.9679475065776418 -0.08911937365259123
1729 -3.446972614667188 -6.991955844571635 -2.91737215538721
1712 5.186554170145672 -1.8983644814744705 -1.1923342521498792
1716 10.132428536668314 1.4736296672460951 -5.635206665315546
1858 1.1720602677065488 5.45893498566937 0.04933580841810397
1720 9.705590670023689 -1.9280277918410145 -3.0572307974312234
1741 -2.2660409757255873 -2.9247151581153084 -4.681641173218442
1724 13.065473278297025 0.6713785470868145 2.0643011889496186
1862 -6.083694321675725 -0.49122342258637064 1.9906731527242707
1728 -3.9112086914813737 -6.175507075508015 -4.675905283627428
1603 -3.869787550234913 -6.720829607963019 0.7763012371449738
1607 1.7477259929253595 -1.0176322890424891 -0.8922643748287854
1708 -0.78763048893556 4.065953334185338 -2.58745170901105
1870 2.335289975196421 -2.331639428778575 -11.423113070812377
1731 -4.039393438899261 0.40834198597778054 -1.7537800921959208
1732 5.371316389420269 7.003235940123963 2.3126790556514107
1730 -1.1221930769167519 -3.641062892577596 -3.838084769453933
1736 -3.279716379053047 -0.8881398526313207 2.97488634199422
1735 2.8679725498495223 -4.281311653579274 1.818765314790411
1740 -5.852995718088339 4.757317231870065 -1.2542175090868635
1738 5.321756499308303 -1.5424912535851483 -7.368097287269885
1744 -8.723660948314476 5.938346570788157 2.1198759291559237
1748 0.2320862249700943 -5.8629205118260135 0.06401529562368019
1743 -3.4829910564110818 11.32384189503235 -2.1305911036322005
1769 -5.994936912031628 2.059592121318615 -5.675820969868721
1745 -0.8815023669791641 -5.833158417759232 -1.7666784721721962
1742 -1.1539286201823482 -6.493638572665113 8.60063187571631
1752 3.6910045902298068 -8.065139644538817 -2.739775486468552
1746 -4.19900404805583 0.18924738264596358 -3.692816917308054
1751 9.453465385446675 3.3345240598727357 -8.990397422374338
1750 7.63145892998252 -1.677650101868405 -7.782811631853239
1755 0.1854227681943011 6.5826704943304195 1.7741881340151533
1759 9.29758061035492 2.922375860636251 4.76520195994754
1760 0.851244253641098 4.218088305112096 -1.2920794147381998
1764 -3.3390643130714035 3.0335297991470354 1.6520629266501665
1763 -0.12008980279834482 -3.3498871882711345 -7.331158306143194
1768 5.354761260544108 6.456716506462541 2.999266263662245
1765 -2.931312992087764 -4.295056058771036 -9.15401983207789
1767 -3.517121435914381 -6.109881003783446 -2.2804462440655624
1772 -4.68252118567092 -2.610822965304092 2.221871167032507
1766 -3.2656730998010457 -3.3829210069339446 4.068875372854859
1771 7.481098871604037 -1.438933915117856 1.3139282598023105
1776 0.7043909071312109 2.902164914774994 -8.197915460277127
1773 -3.378597877455023 2.93900767908369 2.879198714434152
1770 8.764687379522147 -0.35578728112470126 3.1233441177952144
1774 0.7977228384481546 1.7443483534408482 2.9537353991418
1756 0.68903369147027 7.501576823618554 -2.3965016865696334
1775 9.314802483406941 3.9237724774404583 -9.111202259349172
1779 2.0720605587618093 -1.373791668344115 0.8651191040013784
1780 -3.9052866775099546 -7.883340456554072 -0.03837673945213984
1783 -12.088402348400365 1.8709507358255426 1.5933816783108714
1784 -3.984952861172879 -9.206361013780494 -9.263395442228942
1788 8.588363880022992 -1.1146571580981397 2.1766997764027
1787 0.138125981118804 -1.733122254119847 6.706853308611036
1792 2.8804277570092034 5.889581844997162 2.721264217522969
1790 13.495707349210292 -7.925786357307171 -0.7823864315834158
1791 -3.2945835638091583 1.2366963247014835 6.4774356514106595
1796 -7.361956114058373 -10.794632906006054 3.8701595903849126
1793 0.07196546421324362 13.26999746289617 2.579110107206641
1795 10.386133080762502 9.997270861014508 4.350914222288001
1800 8.26280685955554 -5.588009477691404 -5.499282057472447
1794 -1.6591105427467963 -4.641389521608224 -3.112128309224737
1797 -5.738666911616534 4.610893958247227 -1.1702416237669824
1799 4.512495083354339 5.606067370033084 -10.49008668196533
1798 6.990278978531335 -2.330820253532391 9.6648485195646
1777 1.672655188218034 9.09020297525215 6.572059960664813
1803 1.7543322410514233 1.7356572555142646 0.958140583333878
1807 -4.311154852060396 0.12771805819191787 3.0863687232412786
1805 -1.9039161585193294 0.41484808127243217 -1.4069096489743331
1811 0.12177757321773625 -3.679029643511089 7.365913112116249
1809 -4.993436102248994 6.884303325205057 6.9627901767621
1813 -1.8554623946624385 -0.4938028868927678 4.1770012319351615
1815 -1.4827329017388784 -9.37372546314709 1.3936431574382326
1817 -0.7130853152735417 6.005956567411294 0.6768425187302898
1821 -3.32084856846152 -0.3912888873445849 -0.053417412579810766
1819 14.668146837904716 -8.100610858886064 -2.6208421652891287
1823 -4.129759629438257 1.0630793680285955 3.1841772894971463
1801 2.0547488923984205 -0.8971319225035083 -4.821084439193017
1827 -1.8755409762567172 5.580578452970119 0.3457135369056039
1804 -9.895771492058278 -4.297266808515317 -4.442513755649776
1802 7.438477526537347 -3.2216540502585507 0.17089949393431297
1808 -3.285193734984566 -4.119912785796561 -1.5660858465921592
1831 -6.205708293232612 -4.965193120433229 -5.011327083373112
1806 -3.3755767386926174 -10.483165383873022 -3.6486635064243975
1812 1.614391195091262 -5.573969425753539 4.166266300885304
1835 -0.9447343919359377 1.2928752467873459 -4.636155216299235
1833 -2.7741754904181133 -7.719791350173672 0.8854950548627547
1810 1.1679400711065908 -3.6061400239119092 5.756707346273153
1816 -8.79414042409859 1.7054771785321932 4.6150773723718475
1820 6.860693115742835 -2.5262965774305406 -3.575238753428217
1839 -1.5405767417354528 -2.2508132994738257 -3.7269243617617214
1814 2.315277783969651 -1.1785945475388548 3.5295278447070104
1824 1.3268125487376001 -7.556756191100457 -3.9709891307417715
1843 2.181398003434881 -9.037158823589186 -4.467464903143624
1818 2.1679856998319544 8.749422846420305 -0.2396848497920536
1845 -5.440482174080588 6.771569863027034 2.7310423143792906
1847 -1.180505139390782 -1.3442768350490046 1.72282838159744
1822 3.5853504035036536 2.69666680503252 -3.948875861953789
1851 -3.8366094979922227 -8.072472117982082 -3.383451352997273
1832 -4.265543642949002 6.743461805501545 -2.3946242164622857
1855 -2.3840416671193245 0.8172791713541824 -0.11640264088145409
1836 2.5652308274628832 -5.335921469258807 -1.0749373237533209
1857 -2.2905687876593257 -1.7897611406160245 3.9399097681085933
1859 -13.369356035028023 -6.152601833176556 -1.6437301970573812
1840 6.040291926191211 7.747532837032352 -9.544777584605638
1861 1.1055562020579663 -4.4798234441597 0.8266407513447618
1865 3.7346124535648735 -5.765411694675842 -0.06910239085196217
1838 4.274852977236464 -6.078023608470246 2.335771192637432
1863 -0.6504843617507075 -5.131919893772186 -4.545600948761632
1844 -1.2875654612894363 -4.4786157090097545 1.7169126269847768
1842 -2.941911001721839 -6.534695763748347 -0.6950875683242855
1848 1.523535511655094 6.256530439366179 -1.4634025136365043
1867 -7.434090381515069 2.268986627306441 -0.9561458893448167
1869 4.501182549904118 5.433061071682113 -4.545113775235838
1849 -1.7084612769463952 9.38813851719334 -5.827821442815951
1828 -4.992697455833363 3.923179053291824 -2.398615696004819
1871 -5.566235862852461 -0.5574530731720518 -5.950197809458143
1850 -6.816589439631342 3.7613952097399816 -5.4606965001104495
1852 4.606417369651913 -0.8148350818857691 -0.9219190809219964
1856 4.675773224228222 -2.5828748140515643 4.1324992866549355
1854 4.596661016310149 -0.9845907414196468 6.709151990804028
1739 2.706925173348581 2.887245432845368 -4.389426139658847
1860 3.636580642069889 2.9926635042174623 0.43642677168470884
1864 0.21456094186972552 6.964952985775133 -3.25449267667357
1868 -14.706478497520958 -7.079450534125765 4.178319386728992
1747 -6.0737975396109025 4.359124494460274 -3.1552167864871308
1749 4.131640429959787 11.77328660489887 2.363295287257075
1872 2.2690070850118147 -12.000172170192554 -11.486946684565309
1866 3.3880338408217865 3.8950496877999012 -1.0366630659329716
1874 4.093140404491479 -4.353280128729711 1.5418152843361022
1876 3.3094087954147393 -2.0159397809616246 -6.161151787583985
1878 -3.963836323922136 -1.3049521345927761 -5.252381917672675
1880 8.296338542645664 -3.38817554029752 -11.241217875060446
1877 -3.934342593392738 11.671574055908211 -0.38404833319376325
1884 -8.279315017683096 1.5739288010658894 -7.0628172842258
1882 11.299486630001645 8.22847454526149 0.710790683309943
1888 -7.0253348568727265 5.237796242260606 -3.216132718184853
1886 -1.1121177297336637 3.7044149668995408 2.7580566566997797
1892 1.3035089146815133 -9.864085672370406 -0.4867013478371132
1887 -0.1868844357904455 4.188717790422261 -3.2989496792097137
1890 -6.199014066798385 0.5936392843211948 -5.040296288380615
1896 -16.433325200263237 -4.359829785133202 -3.7985924639712563
1893 -5.233375014674882 2.6926471292183423 -1.6249961074058734
1891 10.839232303823382 6.4173117682758845 -5.823898080866112
1894 5.48827925439472 3.1726292085838272 5.950851426559245
1895 -1.2017536672569231 -3.594483684595482 -8.35522602784796
1898 -3.3341825978974864 7.794206694897399 1.486669361774789
1899 4.183958570525518 6.958174331332406 5.29668478441729
1900 -0.0740074737158207 6.614356139095181 6.484863712542073
1897 1.672633495787122 -14.345688969947494 4.719780896658298
1901 2.778435874683004 6.695619941887338 -4.655070051127235
1902 -5.745345624181954 -3.127335262250983 -0.19043794510729448
1903 3.122543049044516 -0.4546789080756201 3.6139174553425604
1904 -8.9499308903601 8.495877921559444 -2.2469543447433624
1905 -2.1646029716704076 -6.213705211244607 8.152900692777397
1906 -3.932712280900018 2.5295665131943745 -3.2507843457307777
1907 2.915290861554678 -4.683136135952942 6.021658517566526
1908 2.909603013818305 -1.85418060218334 -2.1412325441602675
1909 10.218646257527523 -9.643424873631442 2.0898426106340566
1912 -6.834243499556754 0.6439773894844639 0.9048721633946042
1910 -0.9167915941459356 -1.7179514378157024 -4.064991289703436
1911 -2.811894573205272 -2.920836718909515 -8.052324185805416
1913 0.12208167404316399 -2.762851999623782 2.2770822083140465
1916 -1.5510745113536206 -4.214216774713819 -6.668687681471733
1914 -1.6037029288858184 -0.5166440018892203 7.51325051521583
1915 1.321532191016953 5.317470325104438 -5.717110696574394
1917 0.7799773653305837 -1.9087111343732215 -1.0620997407883208
1920 9.70882404386253 9.029157935447211 3.1415984482899106
1918 2.8971103519540637 -5.0478676025140325 6.505889130111541
1919 -4.150305557931545 -6.924528162118934 1.6644385671655302
1923 0.563248515601257 0.023129113334568963 -0.05496773650284405
1922 -2.20296800539838 -3.8498968794225585 -5.7932908404304815
1925 2.503331834488096 6.550176603925413 -7.086694621477123
1927 0.07073413761242844 -2.5421456425853255 -11.78844295771139
1928 1.4767474308704742 -0.7882966842308653 0.06217120216682995
1926 -4.486251805700796 10.812906566774021 -1.6523414702855248
1929 -5.67004711350974 -1.2435187228159295 0.8709442330607742
1931 -8.27727267357824 -13.265150238041658 0.07692992304555007
1930 -1.2571639693061654 2.621318096690334 3.7337183231668347
1932 3.4742387473452556 12.17192864766064 9.717211516960752
1933 6.28092782422611 1.0392237737144885 8.558089767607868
1936 12.738752026016043 2.524165544623512 2.415734243453121
1934 -13.095456198123772 3.587996902358094 1.4771701330359186
1935 1.9650750697338615 2.6206322643300863 -3.843799954456227
1937 7.8013190395071685 -1.9793614006050806 -5.632056340930489
1940 1.865057115615098 10.437501403383909 -8.698536837287334
1938 -11.311396116761625 1.953176241177185 0.8172876459545891
1939 -1.910854019135437 1.4854822812930344 1.1892780986426588
1941 0.44857590175354484 -6.430288429916482 -2.740871366363824
1944 -7.006039902497478 5.74627791788894 14.601840238664083
1924 0.832215223816799 -0.8053104948129071 -5.6715892149501625
1921 8.014742580803732 1.1572848438784906 9.954571481826198
1942 -3.971280304255033 5.0824525730046615 -1.368518325309844
1943 7.92024354686639 1.3754227806907682 -4.505898687550946
1947 0.04507873690433325 -4.162047474925648 2.05958744994531
1949 3.887823279486434 5.5403466088109 4.43576865586699
1951 6.567438793978313 -6.87051686929276 -3.4943031345820907
1950 -1.3802582051947432 5.752914675172795 -2.1980816636919798
1953 -2.972010393283437 -0.35788806858424654 -3.8516171775330896
1955 8.558237879815874 -0.6531246282225669 -1.0844706334563223
1957 4.953046437615931 -2.1039805330862977 7.921697686440525
1960 -5.077944311027988 4.315238041049378 13.09928707296998
1959 -0.04926564538492197 -10.73023371719206 3.433288522618251
1961 3.3906342250933075 10.371032636507028 -2.015589787443622
1958 4.060458238475913 1.0086227704015545 -5.399317884962187
1963 12.008375017880917 -0.6949702210631538 -8.022406493540588
1965 -2.7002236947950324 4.436453440791571 -5.916553963684204
1945 -7.835323666555947 -2.458317422707735 -6.667306948400669
1967 -1.6632832713027912 9.104801815905239 -2.0666813047109183
1946 -6.328576049958386 2.4707569877801077 -0.32444688477568967
1971 -2.881467675765913 5.315734036574752 -1.613182736220975
1969 4.703309906665535 2.351891792820021 14.750978919206966
1948 5.979495722499497 1.1073069314398154 -9.833254195104848
1952 -2.441583414678567 5.298682919877308 2.100832549467433
1973 6.925658172807101 -2.1071381582269413 3.1638298478632225
1975 -3.2516911859114224 9.737743172613289 -4.763368085088718
1956 4.566797162994653 -3.2270929513816915 1.1870393795764567
1977 -1.9076986693598448 1.5000681287705864 2.2241189288283696
1979 -8.43670946673055 2.188805867830788 -1.4513109274033082
1954 -7.387726639788904 2.330500114212075 3.65552329108595
1981 4.821287832899589 5.304187227795793 2.446367088944629
1964 1.676791913604601 -4.320521100013605 -2.513860148330523
1983 5.022405219144929 1.8104577177471373 -3.5280452636866197
1985 1.2960203265474057 10.193733917127972 1.2471750931667749
1968 -4.858753303520179 -1.9793254221626597 11.327185413666315
1962 0.7633626432378516 6.546892142853282 7.247515041990073
1987 7.198546007699005 -1.6259778996346197 -0.44137824382377217
1989 0.9613163733952392 -7.0803495389220075 1.0733538889405807
1966 3.669421320363975 7.77239925928239 -0.023849026282718486
1991 -8.522480355073037 -6.5651905550590115 1.6984744363086055
1970 8.746132294565168 9.698520890039967 2.3015647660978
1995 2.355646613717255 -3.1640074506606926 1.7491723414781866
1972 0.628305864025451 5.023926479359533 5.428142736236676
1974 -0.9757144244947054 -5.212355958679177 0.5236785965119533
1976 3.331759796888416 -0.9989279833895259 2.0749025238326135
1997 -1.7859422866045849 5.325198661734952 3.1001283901775336
1999 -1.6339277710175888 1.1349543339528343 0.10761146704804676
1980 -2.175883063917703 2.5991190844661616 1.1912644780615869
2001 -1.7344822638088677 3.792500636074955 8.069542387716911
2003 5.294693128157979 2.1393493983472336 6.2647371949670765
1978 -0.7770734283731966 0.4226665267157443 2.8280130813245163
1984 5.021113884866882 3.646131703578174 4.355134109390631
2005 -1.586599974963694 4.026611389754605 2.617648985814627
1982 0.07781870593292388 1.8865492318376933 -3.794671699849153
1988 12.451516997026882 2.8997806399318815 -0.3464890710983687
2007 -3.3178936001322024 -5.031316504702937 -1.3438765856855044
2009 5.241538460508023 0.5976656828413653 6.057991332304667
1986 -4.461545932816055 -3.0153311119770407 0.607079312329957
1992 -0.40379457564382853 8.529826099449416 2.6317625866278185
2011 4.842876635049658 -2.3318590631332787 -4.5412728616411515
2013 2.800708727338245 2.829776632926905 -1.8926127828152404
1993 -5.475717969021705 5.003269490329543 6.56812186847653
1990 6.257986504594387 5.957035803099622 -13.202228631679047
2015 1.681522684266677 1.7833465534606223 -1.0737088608812184
1875 -4.693052203429584 13.642814147721687 -1.2082677024126072
1994 -8.56137092199142 4.581300484824916 7.352627070022787
1879 3.8712796891131065 -6.372306921639493 -0.03613513856879305
1998 -1.1531593674185625 -2.802380483533366 5.338427475651615
2000 -4.972691871509376 -0.305060575333987 2.6418225779258586
1881 -7.551989198913306 -4.011391461562881 4.533517683678591
1883 2.5266469188152065 4.9005565708079475 1.7425033165473085
2004 1.61515419079777 -1.020503123199011 3.0059536723167004
1885 1.16687255336931 -2.8541597590687684 -2.4923402146857794
2002 -3.3187299181211127 -4.48888334219837 10.444606386238226
2008 1.7167891706585074 -5.017053558208175 -3.7540322023358494
1889 -0.8037953027382695 -6.9443388550232426 11.594131549817687
2006 1.4327299089623762 -0.9467149556191472 -0.9368821524229383
2012 -5.486356609898597 -6.286039018736193 3.476360848152873
2010 -0.13841297958519913 3.8833906877611213 -9.077271050726738
2016 -0.7237574168476426 3.2057393150759546 -3.4526482342271834
1873 10.957753167645565 0.6442416395245688 9.106846837013226
1996 -2.5050554282399964 -1.7374722735991412 -2.653520487400967
2014 -6.082441788235744 4.7700843154071375 -3.2759126666988334
2018 -0.7851070101348234 14.495835579742929 -0.2668102179935461
2020 2.26571005171989 -6.736229139955382 -6.217865294615905
2019 -1.4200324355461476 2.7609598498350683 1.2231899288651107
2022 2.148729015605564 -4.42419649417873 1.159128898775609
2023 5.509601747267968 -2.806275078149913 1.1222370167884832
2024 8.060198984089498 3.9879477299799886 -0.497580586304081
2026 -3.403842333256673 7.763648064209421 5.396695657524341
2028 2.931304460014895 -3.1889923547853236 2.5040799773303184
2032 -1.7468476461703513 4.67894818700375 0.0325033245070099
2030 -3.85509781889483 -0.2647082315540324 1.3953532425196618
2036 0.5445982644439 6.054161563048698 -6.978605103093845
2031 1.6782306731723664 3.902203490698888 5.621056315654045
2034 10.519397046850681 0.20980255863312003 0.5597785491140032
2037 -1.346156712247029 1.6998768991884323 -1.389576863051011
2038 -9.844896734747135 -1.1714367113402477 -2.1995821192945977
2017 7.671796595244399 8.40201211014777 -2.1482875144891977
2042 -10.597070951077345 2.8463849424089878 -0.018900932713580117
2043 -2.5822972587624347 4.426756449223382 -4.257275842953145
2041 10.842672723568224 -3.120773847702258 -10.706434824147081
2045 3.3093958780679653 5.869663323761511 -5.866686083807624
2046 -10.018296712487762 -4.775970728500203 -0.717657206287775
2047 1.1540060714394507 5.852510619087742 -10.249345819554302
2048 -1.784494037165466 -3.2253933415446556 -7.852571373098522
2049 -1.1971382925238068 1.5012250620417318 -6.521564372003128
2050 -6.47038203805502 6.930091782908846 1.51651982828155
2051 1.0907357285550925 2.017776112452505 -1.8088688170267
2052 -3.8793376398914003 7.616821516000336 -0.26360706968861897
2053 -5.575915363957385 1.451533443125971 -6.266502965211999
2056 3.255033378172884 10.840073162679154 12.48662867745745
2054 4.603738608676203 -2.8822301230045264 -3.0364832313971286
2055 -3.354985925372451 -9.41511097369109 4.070842831478876
2057 -10.977841412671586 -6.623493856292878 0.3925485840968429
2060 -2.0962040314747394 1.382358866344069 1.6705780423891745
2058 -0.8456221469784945 5.197904251371831 -0.10391886334526895
2059 0.9978572183101102 -5.357762209115486 3.478023272721414
2061 9.862928851170379 0.9362280236200493 2.4472040201970624
2064 -1.5478049547111667 -1.6053881924320335 -2.054415423426751
2044 8.013696380477413 7.347223636053171 3.027870052078802
2062 -8.325658290434871 -8.820792571013513 7.75394545038905
2063 -5.300846883870663 4.663627668263288 5.533906838233894
2066 -9.888339138300902 -6.2347955167463365 1.5447704252012948
2067 -6.9580251895085015 4.47180635142382 -4.554486698168347
2068 2.0460648150035516 0.8298925466033236 2.3190531034815858
2069 -1.9192829216494278 5.315131000805358 0.49198031985867163
2070 4.854665165067211 -2.9904358480543256 3.535916730720014
2072 7.396560550201533 -0.17719859238804342 -5.44781382131861
2071 1.320039496782674 9.019430705236779 -2.4492629961985126
2073 -0.2957593971045127 1.621202924298318 8.260645911352258
2074 -3.6569893171921386 10.83678203458108 -3.7596505684611725
2075 -4.686508444367622 -0.11573729826851356 -2.8700033513074015
2076 -6.302735617412924 -6.0190731312845 -1.8646737793490809
2077 -0.7492555263680724 -2.039906714034612 3.432562224877316
2080 2.928708249486085 -4.26589760254767 3.639215127045242
2081 3.9703739820178536 8.776229443903917 12.885702826949503
2084 2.6768864872779212 0.24062550963794616 -2.47842681913007
2078 -9.565996572883583 -8.134632773007944 5.617352147588259
2082 11.547710124716511 -1.6190403831801203 -5.208970396646666
2085 -0.8061132175936099 -9.800456538434164 2.221245980111707
2088 4.1230899449279566 -6.116215298880426 -4.545678593936202
2083 -2.4405008584465695 -2.3082318426738815 12.777150099825947
2065 -7.128390078560393 -5.635253251890009 -1.529302328306228
2086 -16.89331063043873 -7.675012306902571 -4.819800030512868
2087 -8.041402559275715 -1.8093362874130179 3.6908952673290627
2091 1.2803232691095647 -2.048205102874652 9.143437355949661
2089 4.886615435442554 8.877491962985808 13.241781625668308
2092 3.023375436609311 -0.7546614270837678 2.7669370984059216
2093 2.8934148070575296 -7.19796237456525 0.5661756777257885
2095 -4.084317980770085 -0.47724782124436116 2.0975764998929316
2097 0.061015846031210706 10.307403087198551 5.703870584112587
2099 -8.65954011162798 -13.117867567491485 -3.384324091980747
2101 6.599889011935726 3.327007489213201 -13.387062258598784
2104 11.926218074061904 10.27571263890087 -10.808926028617138
2105 -1.1998965281143226 4.820886558159324 1.925346261985533
2107 1.0091987431129843 -1.9259745041764718 -0.9209784398781294
2109 -0.1420567367292626 -2.1332177709022475 -3.1336690459919305
2111 -9.54566306282675 -0.15427418979081783 -1.589380685314432
2090 -0.8758431976409086 3.2773485244139877 -4.389217018243076
2113 -4.0180153343775125 8.217409149077202 7.880624357563733
2115 -3.504268432906759 0.9253092772668432 -5.906891857741628
2096 5.0817716725123585 -0.7496722911706304 -2.405459331198549
2094 -2.355894174889324 -8.18414537355616 1.0392937914160973
2117 -5.282487275045377 2.773551213614134 -0.6647737511098105
2119 10.002157649070822 -1.9829101334025427 -4.4441294581416635
2098 7.692222750257673 -5.867494260539577 3.1312784270689336
2100 -0.4731018636559274 -10.928281855104187 -3.027805239960426
2121 -4.206589255456763 4.902105773302982 -0.8391890659804959
2123 -3.543364595046567 4.006508907065714 11.116498544169186
2125 -8.751391505898622 1.3234959700037736 0.034758374807084616
2102 2.3045261567612507 -4.855452868251967 7.25462841554519
2108 -3.8692508898582747 9.731286469470033 1.7376561836646323
2127 5.112298028686969 7.4886874946692785 5.6955275401531384
2129 -2.1845752468569457 3.561912804690872 11.485333937020721
2106 11.518657109384256 3.154452740847187 -0.7349637500087556
2131 4.459322767757594 2.099712522058013 -7.64498097834148
2133 1.0728241835371697 -4.122124767622893 3.317200523663562
2112 0.35429586478681874 0.8603696249877706 0.7877434417572964
2110 5.6450940472080395 0.10399442549926587 0.4981607035551675
2135 -3.7601431808307417 6.610379672048825 5.536409163438915
2114 -4.565727388612306 4.3113557863337535 -14.355315942290996
2137 3.353779293405455 6.703776753832924 7.7082681726877125
2139 7.226907217223474 -13.161898709007172 3.438397565255653
2116 -14.172231582401984 -1.003729874463511 -7.332482456899808
2118 -3.277888333285725 1.9700223137952766 -1.8689384784730352
2120 1.280000445994055 0.4109683365661008 -4.1280490749903915
2141 3.488620790415315 7.384299515006296 -4.166794823082071
2143 -1.1642611557701361 -1.355678047072089 0.2813583735905214
2122 -0.11874292224456504 4.532915168241673 2.2350326527689344
2124 1.8384052508079047 9.693042709338593 16.17695743891181
2145 -2.8394370646831097 -0.07082955719840586 -8.37193778170528
2147 -2.2326451159127743 -0.39734767981616637 6.056674225239725
2128 -0.9563452979082485 -6.304383525540473 5.334995045712929
2149 2.8350484274151486 -2.691537223940554 -3.645816404001075
2126 -2.340418078486033 -5.959242305661771 -8.387197607795512
2132 -1.950448775601048 -3.5928242512163795 -0.1261295399166815
2151 -14.047865851768568 0.49042471005325367 -7.085489181456335
2153 4.426361045686291 5.895819335179855 0.2725686562335515
2130 -6.965200333727237 -2.5386982605890958 8.878128007158601
2136 8.81882477760857 -1.394551611972134 -0.7371188272186487
2155 10.347598837675637 -4.546741180316395 3.7370653383890904
2157 -6.889520774170991 2.1829854770663544 0.6427410924136058
2134 12.706512688060538 -5.581987660863896 8.856994830700016
2159 -6.563110929654726 4.167130366333067 5.095524922374372
2138 0.09330197510651214 4.226351371803888 5.490427634541527
2021 -6.399054548936864 2.1529296658217807 5.955616597691931
2142 -0.07358435292776841 -5.3663774289786135 4.410801742909785
2144 -1.6209281956587187 -0.9004435415373232 1.614476149966212
2025 5.876930557452776 -9.616091646171574 -5.617319484414717
2027 1.802935671907561 2.2863296194139098 -2.3947805796861754
2146 -6.743963270149418 3.9303371725497183 -0.8779243031442413
2148 -1.243011241488854 -3.7896794614716156 8.239884437647136
2029 -2.0657751770512642 1.8156485525463524 4.265139883599328
2152 -5.2122290510242335 -5.465514378573031 1.07490404635061
2033 -5.477215507267639 8.336414759645509 0.4233290956210187
2150 -9.706192167932048 -8.818677894799395 11.537580366892378
2156 -1.0373994211844846 -4.1439881501132145 -1.254507098422979
2154 9.705488407945468 -9.652019027446233 -4.747135974288242
2160 -2.4545105310422692 1.3510638458823878 -1.7303087258650636
2039 0.4746169929952073 10.38875801727975 -2.7651052506135994
2140 -7.546158484677878 3.9057995905380904 -5.2211845417080545
2158 4.896722061344616 -2.4075190291234665 -1.323149081795024
2162 1.6070896618691788 -2.8055494340995035 1.902635368104841
2166 -1.0384815394082076 0.4431442416828914 -6.86560432023477
2165 9.537906436245176 8.183964595660052 -6.440170072532212
2168 2.0230743126858264 -2.2983985649606335 -7.531538596282038
2170 3.11651870204712 1.308137795993022 -2.531906296140528
2174 1.7607227075891476 0.2111749630489752 5.3795481258266
2040 -12.800312906564516 -2.0233688087379105 10.090929962843227
2178 -1.4045692503770433 -6.621372788227958 -5.321273546690174
2182 4.820183629784066 4.7666726228400025 5.580785076824532
2161 -1.2160035632432342 7.416891455499683 -7.816164176017966
2186 -3.260272279322439 8.292313431885217 2.478220815718654
2185 -1.3958893345335526 -1.6703644934161817 8.06787223465601
2189 -2.7763932906070607 -1.6132230536571222 -5.353643757564621
2190 -1.4889617723256197 -1.7397473864225683 2.897002846642681
2193 0.9484590072145356 -4.10438584011471 -0.8401253559985058
2194 -1.783749959451479 0.598590198348908 -1.1063446558883019
2197 9.97046593937484 -1.5939764773865066 2.190361530599846
2198 0.23563290016656258 4.653643750187807 4.99015394929907
2201 2.989865591984469 3.5328705517718966 -2.6553177965480397
2202 0.634450697934918 -1.6978192522786686 -1.5111558205228133
2205 4.234703642156333 -4.001106591997085 -9.558424362754945
2206 -0.5895192565973726 2.2790721729954937 -2.4032684552449823
2209 5.700387818236658 -0.5407293486239453 8.027786870986434
2210 2.821704753992019 -0.9347193377736154 -4.457792681747465
2213 4.119566129888871 -3.708516559957568 1.2321889070474803
2214 -4.266375841319954 2.4440819353791876 4.195839783279579
2217 0.020728253420354056 2.4653466129357477 1.2772243490198514
2218 5.087160162675137 -1.4921985374022737 2.6774615373478494
2221 -9.392251853766215 -7.794895361745558 -2.1583336076795425
2079 6.619116070308868 2.1063547812439753 -0.8499278120367444
2225 -8.41704104530985 5.615188812562108 -0.10586590151624012
2222 -5.671473815189017 0.24726764680547964 -6.91759645128458
2229 -4.771505032727858 -1.6877528324663031 1.8331865604124569
2226 -9.909429562217877 5.937267605929557 -6.463391908195943
2230 -2.5984247472476576 -7.390833571144304 -7.252419953211116
2233 -2.8024889400169366 5.607769900039608 2.9235184596219774
2237 -1.2189454802937607 12.490477203706327 7.232434668586887
2241 -9.242697864559826 -1.2234085785978945 2.366421502466238
2245 8.652986825279504 3.120319820892002 -3.68164621738313
2103 -7.221698155699531 5.278419425500532 0.9326151299905673
2249 -2.1684050916432454 -3.62818410586948 -9.014540791461284
2253 1.8274221709373688 0.6010584008970328 4.430928253099921
2234 -4.918907079430346 2.645225224698179 1.775205790901547
2257 2.5057270303731793 -9.494001682798737 10.250179180735822
2238 2.119692969041002 -0.6419894023134289 1.8740868634209176
2261 -0.7487922258776779 -3.5427295722921874 3.624782527035298
2242 -0.2890191946981286 -5.675940399189702 -3.110155234195806
2265 -1.0632703264849659 -8.476145294553382 -7.785712044840241
2269 0.7567800436883826 4.8990847282497025 8.466443413676256
2246 -2.4786911044854274 -11.719511716068423 -6.527566513495095
2273 -13.472137804896969 3.215402413687946 -7.275807853044006
2250 -3.1891226534932455 -3.007274193584558 2.1707227683505925
2277 1.987922174068278 -7.97436434398746 -1.0589406233089482
2254 7.798338416304576 0.9321126685784483 -6.342684500369657
2258 -3.2732061011946127 2.5977631158130716 -0.5335354230521435
2262 -0.2346142713437457 4.446471502914291 5.046041332146137
2285 3.426026248137522 -2.0839065809205906 2.237926055317273
2287 -1.8277286690320385 4.512935226929272 -4.2975748005650285
2266 -2.6155523665688194 -2.8949206110263828 6.940489570829576
2289 5.679042914584702 0.45615498298762525 2.716536688862467
2291 1.6204201564192577 -9.225681321196658 -0.6941423152528408
2293 7.344157741042788 -1.68317388381061 -0.2702391133711799
2270 -3.5324850315424126 -3.4038895137867873 -0.6408903574508983
2297 -0.8145446562141995 -3.2224246000191665 2.394001022794652
2295 4.692472214865411 -5.391529511529432 -0.42504582857313206
2274 -0.4849196522157164 -11.266484575524405 5.5405041541174995
2301 0.282331533833497 -1.6283841609944683 -10.098386955622837
2281 -0.08721128254266533 1.810523230493455 4.5308112770937505
2278 -10.25583439697997 -8.117759693148251 5.542926273494712
2282 -1.2579318297861588 0.5150123043990529 -3.791429416819874
2286 2.086694685069199 2.2847863077896564 6.596594914278549
2169 -0.6320763659879199 7.0622956940604125 6.824438349110719
2290 -4.781338997590447 -7.718301926945949 -7.825657790868779
2173 2.224325093623084 4.474568273729659 -1.7935938657230812
2296 -0.7534191627088436 4.097168892776478 6.3100756057877945
2177 -0.7765989274619979 6.476085749375715 6.113619290922045
2294 -1.7300724870151276 3.6935805935271127 7.716929539605041
2035 8.419594905749562 7.433227115582289 2.426540657211469
2181 2.9916485602394007 -10.537075564666479 13.433935686310905
2298 2.8612227305739992 -5.569437302269612 5.258659805687284
2302 -4.030411681435132 -10.991741223061563 -2.7347611659174347
2306 0.5643212080272756 0.506645592777682 12.769909080901309
2163 5.288270843293895 4.630640079470103 3.6425661865432404
2310 -1.5737322860106417 1.0161932462269556 -2.198172289094351
2309 -1.3575837789206073 -2.753907047034366 -3.075823797544884
2172 1.5175208905045532 5.044057272659936 -2.925129946033713
2314 3.014125833632179 -5.617559517733164 7.583176992794553
2176 3.2807390402255314 -1.62638564895467 7.803412214640022
2180 -3.9429004750204797 4.225817979897447 5.063028007484891
2318 10.426287489936035 6.527288501457525 -2.8085054177183078
2184 -4.764544165208782 1.5225216263686898 4.646076643493733
2322 -0.07542299506003268 -8.996046159429499 2.9244874378757317
2164 -2.159999271393353 -12.01894594451321 5.08439487315818
2326 5.668134599028901 6.396162402281014 -3.440875203284347
2187 -2.4094168210774827 7.964517193412224 -0.5224122186093173
2330 1.699260560663713 -3.203425252672319 0.36039496682369077
2192 -2.4343568383292324 1.0966353838117358 -2.467921601564389
2191 -2.790207691622681 3.64398994178803 -1.2522096698988348
2333 -1.7245627032878192 -6.911100278737539 -0.6561811599604521
2334 3.055880111234968 -2.6432375788444644 7.546581270472156
2196 -9.950254371549322 -0.3689077766551188 0.8169886263384339
2195 5.770325076967294 -4.890232669331229 1.8463902472567713
2337 5.43855937613684 5.908614240740013 4.820991157215862
2338 1.925867952777218 -1.317162288078202 -0.7030390272844641
2200 2.748816814714825 0.7899396357878363 -7.121623443798012
2341 -5.645125159496973 9.38289416335445 11.070406392460294
2199 -5.174449626323623 -2.4948399302068176 -8.093266248254318
2204 0.37764177846388175 1.3557432044199305 -0.333789673949733
2342 2.9852858182952255 0.5386324507637509 -1.342616391341868
2345 14.85491081709548 9.736044142605925 10.294700812853911
2203 -2.446683438053874 7.206832969091967 6.377131789177274
2208 -4.750903031131636 1.6371238291593 -1.128684952395829
2346 -3.7415038536772403 8.078055642150971 2.172526590828262
2349 -6.611815701202477 -2.901848529008581 0.8864233486300519
2329 -5.599480417742206 -2.3886201539974254 3.6657622534333543
2188 -9.252908868603676 1.5890673788904675 5.504407990215982
2207 4.526135854808821 -5.372173986856032 4.295508140198606
2350 6.520817513407294 -4.488393738921283 1.3828954634994106
2211 -1.7152575156987366 4.14223344220442 -4.816683116068199
2354 -5.178170116545225 0.5173991693105554 -0.19645079903353496
2212 5.9754847030472655 -6.9752163937620875 -3.320093854345549
2215 -0.9074567704970967 5.9811383949118495 1.1422029136826541
2357 -5.0830541470871315 0.6360127488031789 -7.938103344064552
2358 -1.0765311935459823 -4.684705125519452 3.804282520976441
2219 12.316376675817251 -10.868582101651434 -7.5263742547429535
2361 -5.258078530883618 6.170547649918682 0.6016355313118484
2220 0.22663841007437752 0.9893168437193874 6.229337934961091
2362 -4.3934406672055255 -1.239538913735265 5.513711393699715
2224 6.519807059214011 3.207864060198447 3.6104249498721637
2365 5.034108251131013 3.328214866746388 -10.199536244054647
2223 -1.2838386193364433 9.599000881627004 -4.17306755853053
2228 4.109830119097313 16.500308160934544 9.726165697449707
2369 1.1062772685069595 11.129216485666772 2.1556614805031553
2366 -4.33347142075544 -8.070864089874911 -5.267158127135304
2227 11.617842904001575 -3.867882133339967 -5.116384458976676
2232 -4.900596473111971 5.5672079853222245 -2.188524705639421
2370 8.466387253778082 -2.441192352894614 -13.018237675923311
2373 -5.648419319120575 0.134227169932432 -11.54110684927815
2353 6.022698212732782 1.1535563863042366 7.4689764412737
2231 1.1957538163435337 0.10838143570358438 4.141773555949432
2374 -11.742556955016486 -6.734613232401605 1.3761739020936676
2235 -5.760388079580854 -0.8898834523849001 1.459015042364931
2377 7.487238988739533 3.159234620036742 -5.957679259279179
2216 -3.5932827936065306 -7.310055997376954 -1.2536618442656475
2239 -4.069147407956515 -4.612394671200289 3.3052792208062516
2381 -5.146003614979334 -0.7011636280765169 -5.1422335440481985
2243 -1.0798713338727912 -3.8124338874782926 6.2333885858891565
2385 1.9161642233338074 9.24285796582996 2.304019485939623
2389 0.575645257554539 5.011974047065879 7.722570865885878
2248 0.7198711856534729 -0.07333774948558971 -7.909381113999674
2247 -1.4875932337337818 1.4016689451389446 8.030615900498388
2393 -3.6043769202552243 -1.0677026895610617 1.8719010867540495
2251 2.9265033908870537 -1.8869071667617168 -3.620035988213351
2397 0.20107580722857887 -1.4057650781887279 2.7019013961876253
2255 -3.232420455770952 -4.893668914931471 0.6896608917238183
2259 -7.849522278641717 7.294871287840954 -6.075266650344611
2378 -3.1898728932377023 -2.0980339322732093 8.300520023987213
2401 -2.3277152826595486 -3.868584806789456 0.4618127832258353
2240 -3.146270311416539 4.340350264318113 1.9377935357497007
2263 -0.5959543031195877 5.502757128070966 11.59550737249999
2382 12.731852811417003 -8.703150629521092 2.870673785136029
2405 -0.6307678546143101 0.536918976494961 -0.9401332652956546
2244 -1.0562937243784645 5.932400293379792 -6.73670004453699
2267 1.313523007251793 9.01972756463134 -9.574478721315318
2386 9.340047042778801 4.528932481740889 -4.58663523404208
2409 2.877864953441252 -9.485159179159398 -5.959136351875926
2413 -1.60662847773429 -3.258263440895005 -0.1260476785710311
2390 -0.6141912783234464 13.023861851893509 -6.892226072041919
2271 -7.689530217890764 2.9195141453692126 3.391601083462758
2252 -1.5189140757394433 -10.418482488606275 -13.572544893200714
2417 -3.9803352314167237 -1.5434399625173223 -4.941200721870967
2275 -0.7911665023410209 3.276445107830323 3.399510696123902
2394 0.2992613264777666 4.602826145373397 -7.510858934475106
2256 -3.1280916636662273 4.103961134169428 1.3290567505003157
2421 -5.966201788448011 -2.5265133412703453 -3.5714343599402962
2236 0.8009171129677053 -3.3650337471999427 -1.538229626321901
2398 3.356538920212758 -3.9176601905092214 0.216129118329878
2279 -7.519458736686208 4.621262149851138 9.015948648421974
2283 -6.277455420800852 -3.847738386552253 0.2432480498132418
2260 2.7338748235480312 7.437068435688607 6.252665092471224
2402 -9.314653337359543 5.497810720130187 -10.352229060898434
2264 -5.251376302013745 3.7104076144511415 3.9212829751249014
2406 10.797808383952239 -2.5341259517178276 -1.1253866344383396
2429 -1.8421721135260885 1.782087843505433 -7.6813145140082275
2268 5.993602452832187 0.140833224815776 -1.3016642914420244
2410 2.683810228911534 -0.1024458462022063 0.23135566769330332
2433 3.2353249534714044 3.1171120127184886 -11.003385833238875
2272 -0.5904432939320546 -2.7344364681549798 0.9644716878657456
2437 8.340719393943335 -4.553596522045176 18.639616632783056
2414 8.256723470712503 -4.520145335643533 6.582095077980234
2276 2.7766946043456335 0.03345337423294076 -4.293539597803936
2441 8.789642905849648 1.3864270609990188 -5.364583661510466
2299 -12.77838099549601 4.245949987151306 -2.2529500127487814
2280 -0.6139488213878006 3.022364956224805 0.4878201742851416
2418 -0.39508430336361594 0.842203604661864 6.473358607072691
2445 2.8773468913757023 0.22524495979415685 -8.92250886931214
2303 -8.362936427038038 -4.752596329486119 5.978319898075984
2425 -2.822021855898748 8.791051856870315 -6.4421066366764705
2422 0.16380977062274368 5.20191196468607 6.964545907228891
2305 2.407879764553258 -2.3622836126025915 -4.860017675310618
2426 -1.1315671435582988 3.4056257980861466 4.898178404298699
2284 4.875584497868085 6.763447049536768 -10.30613944177921
2167 -0.8553487822390045 -2.2648181694944944 6.803258332070379
2288 -7.591577438849989 7.593914429677035 0.857744410712862
2430 -1.0683221111643728 8.773100737134927 -2.7492826108124686
2313 -1.7521697715296125 -3.790621555506312 -0.10570855198609734
2171 1.1998866662158039 -6.638471020180085 -7.711426535054457
2292 18.50589427538285 -1.984797394432137 6.946702690027013
2434 -2.783740287499546 -0.37881716238223934 -0.4170102433047591
2317 -0.7572882755763527 -0.7381149324992086 1.3853877501543443
2175 0.2908756171459014 -2.314625220793603 9.404962638196986
2321 -1.36351010661161 -2.643981443935885 4.299897890111907
2300 -0.34307243573090973 1.3687753162076104 2.013042935014157
2438 -7.916664072861166 -5.669285025405472 2.5578043491846816
2179 2.981756867957266 5.825094035859841 -2.708272081353232
2325 -1.111144242700113 5.603344225791029 -4.374527592215226
2304 -5.004407059826975 -2.5745424009762323 -0.23277349780681486
2442 5.024037673880743 2.593949471334833 0.9190318581640909
2183 0.9628333276751612 -9.316329461673336 -7.10551669198437
2446 1.2196963789062147 8.665810600957203 5.982845397397614
2450 -1.1355860325848373 0.5120670592352304 3.6651599707907683
2308 2.5270520257130804 4.836618090771657 7.634228146365344
2312 15.086827134421066 -0.7103862541527542 -2.069502012979602
2454 0.4720044993648162 -7.605090867394993 -5.903761230282081
2316 -0.6785384401111463 1.3943797006448733 3.644004730875187
2458 1.7970658077211725 -2.0355761658925746 4.23749180558071
2457 0.5526011860047892 -3.396430587967109 0.376137660152751
2320 -4.8528904958843135 -3.1999574697468622 -2.4711088527185754
2324 0.615992781736349 -3.2752668153222086 7.459711852556322
2462 6.055680810955668 -1.1912150551234888 -0.10879153652812458
2328 1.9209724415182756 0.7976932401829046 -5.0085701392032576
2466 -4.272119953117204 11.063290690863843 -2.604061213778633
2470 0.7356140133307061 -1.5964155547918442 -3.632927762380925
2331 -8.976912727190152 -3.589841028101477 -7.934906578330753
2474 -2.983733507399517 0.7308014812147333 -9.321942170653237
2335 -0.3216985596574068 5.230690640037649 -7.137718798979316
2336 -3.56628053392114 2.166816557712784 -3.027468549975032
2477 3.763627786242503 0.9617474621308981 -1.243903544849033
2478 -9.515615389511057 -2.521906922236599 3.1723611186617697
2340 -0.022032950189094336 4.78230345102679 -0.48705232299640355
2481 6.902387233031187 0.5549849608860977 5.697820789196762
2482 -1.6985601767405303 7.83412367768269 7.582416932835544
2339 -4.019184464561427 8.145406422229293 3.1693427148470987
2344 1.714658668255641 -2.310449560837728 10.545648562374407
2485 -7.18482993322813 -1.9527032029542915 0.20093427809412293
2486 -2.734261900303633 2.063479470144263 2.694352079731526
2343 -0.6331561157635922 3.826311356434195 2.7737096627002047
2348 -2.326589114944827 -5.839935721204834 -4.252863779537158
2489 -10.00310829230233 2.136850744072434 -0.8294094647667061
2347 -1.3322822374530863 -0.4857677827789431 5.310660309378449
2352 0.5591446513888481 0.950115183918654 1.8251616535179611
2490 0.8831918511029581 -1.2082878703348983 -7.018212131223367
2493 6.737941314041479 6.61987465954415 4.015040892714973
2473 -1.012415057699526 -5.848393649123446 6.04180558476693
2332 0.04344231439397986 0.8760213386662851 -4.966252522907559
2351 12.805027540158928 9.278800608610593 6.960505465105783
2494 1.3547096150614133 -1.0083638488307827 0.797094935977834
2355 2.785235180057711 4.267715022668713 6.420462067005869
2498 -0.9385400989073859 7.594958529478306 4.644680557441065
2359 4.134520528756988 5.855450335494405 4.637379102657256
2360 -8.740996040063735 10.484482721106891 0.4051118219687258
2501 2.545876467624409 2.855898518576686 -11.087465621282728
2502 5.369072588819321 -5.364736311344171 -2.1693693552915834
2363 4.446657447996576 -3.0838921498329226 -10.487018595110564
2364 2.5121374083142483 1.936888388509854 -5.443246362709795
2505 -8.0808194074356 0.27019908616676036 8.620752212084847
2506 -5.014665393011506 -2.0934481773754663 2.891938973410973
2368 3.6634626069294782 7.577427312269906 3.6406076217447088
2509 -1.3058827803641928 -7.959103719176926 6.703797835974369
2367 -0.3842441571758575 -3.7679525206994504 -4.065186068448844
2372 -10.084597419441215 -4.046782279246788 -2.8888138472735996
2513 -4.3046048044785135 -7.228407781475856 1.807912334495311
2510 -7.537742481619685 3.3798269417714506 2.79127775444516
2371 -2.3240949655735137 7.035509370358257 -4.88199842885492
2514 1.5388446923091104 -1.3726589575207944 -6.975144442942754
2517 3.500968874604238 4.707120010899162 1.9031104590643626
2356 4.800442315654112 0.9250776536606614 -1.4302756515466692
2497 -2.654671545010049 -7.702447794729578 -5.121788180946051
2375 -0.09947892162638182 -1.671758534366679 -2.2602370657569053
2518 5.397834646611149 -0.5093576773537899 4.291831825403231
2379 -9.444768248019958 2.510314652401429 3.9536303553238388
2383 -9.633827729401874 -0.5248646310911186 -2.7318761407444474
2525 -5.95438224556299 6.008335119766832 4.575559856649706
2387 -2.425850493080282 7.55536135388206 -0.7781805680023334
2529 3.5683637187137807 8.170046326448778 6.149475757380217
2533 0.900165909883315 -3.206681232324446 -5.724151179748235
2391 1.9741274903617556 14.507870789338336 -2.1308280614941784
2537 -4.445400871480465 -0.2799066643967541 -6.351237232546469
2534 0.0945625231687434 3.5871903163678756 -6.121924797398163
2376 -17.000526888188702 -1.4717407832954026 6.512556167396484
2541 0.06181722753309402 0.7994547672188936 -3.5975401538216776
2395 0.6526871954899333 -2.0224412473621167 -3.5421002612092756
2538 13.736725737658547 -4.376332714782981 6.68472405302864
2521 13.405183191309785 -0.9964675069474374 1.3791936335207258
2399 -1.566014997739475 4.27784021031451 3.0423870653047733
2403 2.0020784280074726 -5.1399034104223205 -0.800207992661723
2522 -0.8944168046359715 1.8492097095391569 -8.332458947768513
2545 -0.4192753747512109 -6.266210214182794 0.8046968496620213
2549 -1.5011963296546318 -7.506307524531872 1.8966886578034057
2384 1.2317686394624225 -1.1672109936733202 -1.9022985528216303
2407 -4.40518528608543 -0.9168806559687454 4.180137486690553
2526 -0.2272197941333379 1.005679666603038 -3.5836104126002373
2530 -2.851784330308236 3.4111345062997955 2.845522588363053
2553 -4.637789608901939 3.35061292086725 -4.220270204325284
2388 9.681640294710663 -9.293407508561911 0.8244074327877386
2411 8.461422449564129 1.7422842468087247 11.638173768144936
2557 -3.814013305304107 -2.0888303897431575 -3.812578002433266
2392 -3.911444846240454 -5.6704841195858755 0.6896894677987171
2396 2.70039872645664 0.6693959783290409 1.9808571962732757
2561 2.084712740958738 5.816710615634804 7.079861752823408
2415 2.278223333275595 -6.802009222004596 -2.9243666780943913
2565 1.2630411632963554 4.482564764070377 1.2418536201740034
2400 -6.143782932234471 -5.706206249965181 -6.290741649601951
2419 -0.15690051370528746 0.2895958479546075 5.84646911319313
2542 11.215141852862644 -3.372336152234527 0.44652011394879976
2380 2.990857424502389 -3.2341683735235516 -2.6217468454712645
2423 3.0615103694714185 -2.248093123841443 2.534265759924303
2546 4.672838438742851 -1.8658984647806331 -1.3278464315271032
2427 -0.20267131932316865 8.644876180809108 -3.2621439251775377
2404 6.9003656436950855 -1.438950038212869 4.437034655632888
2569 -3.9309564273150444 -2.355655945746272 5.430875390684138
2573 -8.76975071544997 -0.2026363771743695 -3.884378688928608
2550 -1.2669043407454141 6.031120268569543 -1.6686743172239762
2408 6.65019924730181 0.7091791681838913 -2.0243780657745503
2431 -5.225687087277831 -6.870151065057565 -2.7009529663022938
2577 6.484585725199889 -0.4314459808865497 0.8058846804184733
2554 3.449661528160946 0.16503470057915254 2.726734452404759
2412 1.0366137417937111 -3.1482637252274555 4.347425894166155
2435 -1.0289642794651528 -7.755131381544903 7.7729386261265505
2581 -1.503978716450238 2.7163630577166247 7.490293258844022
2416 -4.423938288942789 3.784378563599632 7.1073942454013785
2585 -1.1192083298919857 -2.8461825526237354 -0.5035974571020806
2558 11.694246342068281 12.919635814349967 -2.6891565254556378
2420 7.200975697963789 8.765026693669183 6.392447839012077
2439 2.0343048317511228 -4.506853404727096 5.736024724301077
2589 0.4295697205763266 -1.154072053186595 12.191290233528132
2562 -13.239207282571678 -5.5962058743350145 3.296512686177816
2424 5.5685735378841645 -8.091174488375179 7.800721452281675
2443 -2.150702908760583 -10.224949020722514 5.095302022489103
2566 -10.360448700865842 -5.610340665069702 -6.527255795968055
2447 -0.7280401727033149 -8.665665476377175 0.3976755550265419
2307 -6.079187787248959 2.579723301081298 1.370031632877549
2449 -4.961167984292043 1.106868163789109 -2.12751976297561
2570 6.632143154305012 6.306183747896448 -0.6059990272901803
2428 -6.625376074669296 3.9993378141478173 -9.032034964200859
2311 -5.688153174273164 1.438204118840807 -13.825444387653398
2453 -7.310954013494814 -3.8411650577931744 -2.8462059613144626
2574 1.785402160369566 -2.4695181319478348 4.1600296983574045
2432 6.974204588342306 3.051695464541276 0.8694392771758404
2315 -0.5798267768170396 -9.407482976384387 -4.523406898526698
2578 -4.972752508311416 -3.299198803858413 -3.663366743206046
2436 2.8797029300880292 -1.366524205792371 7.95143886754301
2461 12.446868280418284 2.3692587742317315 -0.2259148219677629
2440 2.5093272316352184 -1.5006855504094472 5.96012021245085
2319 -0.7131146596885239 3.079274325390743 -5.819997735431091
2465 -1.2104880076886655 9.371095128527637 -3.0886995907453514
2582 -0.18126251178989797 1.4688977212666607 -4.241373056776376
2444 2.4002850626510814 -0.2809607743836526 -3.992658342191169
2469 -5.8220306431496915 -3.770476406796008 -5.682521038745402
2323 -0.03663560508790843 -8.338529922962106 1.9304055998962664
2586 -1.6250609890740029 -8.764488078203545 -5.103174105189913
2448 -1.650404189864932 11.897369182368053 -0.45892133480742997
2327 -5.516761778357026 -6.331223031969502 -1.2841753988951636
2590 0.6802383006497618 -5.210044731305619 -5.809385032014902
2451 0.3303965508560383 -3.831962140380576 7.882773720212318
2456 2.896709674438818 -5.522337299427049 -5.789264087069606
2460 0.1202360747792138 8.80877160409033 -5.845859025351691
2464 -1.5463224924703634 0.2373211948126434 1.2706498400502544
2463 -5.222180520041464 -2.6553145900461343 -3.9469689980936935
2468 10.194820949023974 -1.8741666967047785 -1.132034784253818
2472 -2.603451096953795 10.349599040897697 2.2278020883779264
2610 6.476103752190693 3.2616061004738843 -2.0966901236196493
2452 -2.913538632101483 -15.226375602362696 -2.0141408228228466
2614 -0.14481350362632445 3.974104359160498 7.697125598848053
2475 13.03472123943115 -12.292477641522753 -0.42196220033738513
2618 2.1325354121671896 -3.211561985658556 3.8106283021111906
2479 2.1082116252325265 7.536297286251964 -1.2304385469968129
2480 3.5678581952737813 -10.9676154183303 -4.65182904049061
2621 3.1132861199981816 -8.077493223293192 -4.8100648186951975
2483 -6.978569865116866 -2.5271546506763736 -1.5619577615285056
2484 7.213871947058189 -1.8348488467365722 -6.251657818093482
2625 -0.0978868599337965 6.568330581212061 -2.2294211425124635
2488 -5.395256759689946 5.689848729083124 4.18282180003631
2629 -0.8454771899822956 -0.6476097497932664 1.5993726267944768
2487 0.47408800436558585 5.458546266204938 -0.6531503338890957
2492 6.71744215884563 0.7356367301152567 5.397292312278276
2491 1.1798109722597332 9.372594761482112 -2.3200076335470983
2496 -3.319243965965546 2.300965192715115 0.0631273300687471
2634 -5.759397783778194 -12.157434430162747 -2.324249812550694
2637 -3.931450573040495 -0.13158444829454574 -10.88575743958541
2476 -0.573816978888377 -11.151397584855797 9.756607067376418
2495 -1.7787719371304647 0.0608289499850115 1.2296201910052038
2617 3.8506585003948652 -2.20194984892765 7.338176364372072
2499 -1.4084630465824002 -7.350173558556568 2.486942929322667
2500 -7.194949525332897 0.47047301121153356 -7.72218544328722
2503 -13.778337815523964 -1.3316653325894814 -5.237934694514795
2504 4.790946727723659 -2.497089541962641 -6.971905004138247
2645 9.026417386203912 -2.926028441490133 5.73877296869188
2507 -0.18123862657362239 12.237715166876374 5.83161027694799
2508 3.1055390601713007 -10.408127493891046 1.2310549352767062
2649 5.262048772764889 -3.046462963138784 -3.682182922303468
2512 -8.326504848915903 -2.3929184475182828 2.087992178628823
2511 1.3373411137685225 0.7737099576023905 12.811608524162388
2516 -5.277996191145531 -0.4004333324945135 2.0626431695360883
2657 6.280224018868036 2.295601976359067 0.9868574907241788
2515 -1.211170749632028 5.430464892258777 1.6945179829220989
2520 5.844312386193145 1.3884682558368262 -1.6139771959469307
2519 8.877972644110285 -6.185569871300129 -1.4702327888926785
2662 2.585997449979146 6.450206591957449 -5.926444279553969
2523 8.274823663880465 6.263452960203789 -2.7127967229450767
2527 8.32836411046332 5.791434675999225 7.816445423917085
2669 3.579848938242031 4.966390194560809 -6.102452577294847
2531 -1.1371091550896424 7.338395921034808 2.4681365962199346
2673 -8.72945321263573 4.538795240662471 2.0460457337869484
2677 3.4124913060785795 4.542052139504924 11.183821634570359
2540 4.09110412937185 -4.471173912518299 -7.319640033888451
2535 5.691318683162735 -9.002791730737304 -2.67492890969447
2539 -4.072579918912061 6.82488841998675 2.8647339337222237
2543 -2.3952069862319076 1.6327966033835566 -1.1982723039365655
2547 0.6031728375503881 -0.11777856582885463 3.5996897996562267
2524 -3.6094204100467517 -3.4632137646852073 -1.1648387316824167
2666 0.44705875102100856 -1.3379014853647804 -1.1207028987239915
2528 -9.417986928553653 2.747431407252917 1.4539718391387668
2551 -10.586589724996427 -7.425889629159276 7.144386030468937
2555 -3.8286568450106295 1.812606040150217 -5.072454934479249
2532 9.390452773885412 1.9649321258557937 14.012038669053545
2697 4.68887163113803 -0.5838473601636914 1.1348677154910196
2674 3.5278417528172064 9.084970930969021 -11.632388716123208
2536 4.4954364399126066 7.34960781405905 -3.423711911566154
2559 1.354994457284701 -0.27187706704718956 -2.390375844531423
2709 2.7467006537229866 9.182913151689988 1.7647630398313403
2544 4.080904881291069 12.28698455142538 4.543092180560488
2563 -0.09585549818632527 -2.3337541229541805 2.7278449352765173
2567 -0.7449465595728982 -8.87755416061988 13.527844029625788
2571 -6.729080797405331 -6.163461574115264 -3.9669941003873435
2552 8.241097353428284 0.9406502191717135 4.598102485127247
2575 0.5748830865421519 -8.741810875497322 -4.782780427263898
2579 3.2649606106025457 -3.5868598745919367 -2.3903063886298788
2556 -6.037090053350886 5.552942045716928 -2.243940076888895
2698 13.072172254807851 3.0542515913254804 2.232445675658489
2560 7.3396389232511865 -10.57821095233855 2.3764973175369732
2725 6.210143524158895 0.427216517619691 -5.749359532872862
2564 -6.926058648370168 -17.93922722784589 0.601717679569746
2583 6.405017873014473 -5.1335058199090815 7.40843346579437
2702 -0.32003801146643074 -0.9849309377142335 4.832759582613276
2729 3.9891058950463503 7.661000200456545 2.3240397418320784
2587 6.145194291114118 -3.7370277625636423 9.026836062404902
2568 15.19849289959421 11.545401146514239 -1.5605324772881461
2706 -3.720030914072632 0.17328148220946954 -0.44593314426852076
2591 -0.623276118290384 -4.264947817338515 10.068592373865888
2548 -1.1941768061136093 -4.0328385742744395 -12.825060377999238
2572 7.298123785686004 -3.845257368780943 4.626542941556006
2576 2.019045729907058 -5.140458696035832 3.895368039085442
2455 -5.72041026366215 0.765383295553434 5.010158916867932
2459 4.749240636183986 2.1106467409665686 1.7899009001275656
2580 -9.999023940730893 -3.2897635894652204 -17.667814237312484
2601 -5.423469254872159 7.2681970426385725 -0.5905293473996717
2584 1.9247192704528298 -5.601318465944929 -9.18670559229159
2605 -2.3130549209631157 -7.141182107271422 8.641982855716993
2588 2.972025510645474 7.328791711689852 -2.3830755065626024
2726 -7.803513867834574 3.3470307465124356 8.336029692723871
2609 0.8265594777530813 -4.518095906403458 -1.7029501704668242
2592 6.426227449596001 5.686308276225808 -6.423372924041022
2467 7.661263456527298 2.9363071634538422 16.885047042877712
2613 -0.058246520274123324 -0.420034008724039 -0.5809171216171825
2593 -4.33482613822046 -7.950659268119295 -4.387325344061874
2471 -5.318019210333955 2.2798093984428696 -2.272173341660768
2594 -1.4065217530509415 7.313570747089494 11.93942688212674
2600 8.662530735130051 -2.4571612683230764 -0.07544102232731312
2598 1.5426546264098975 6.561017179895557 8.388423447086307
2604 -2.5173700953145333 -5.896358430149372 -4.687946215556976
2602 10.896259932194615 -8.220924300906157 -0.6339147727810704
2608 0.7828385908143509 2.3430678173363284 -1.6602838126863448
2612 4.0045946152667655 2.5613476891787554 0.5302892634441476
2606 0.5614860793313193 2.180587137636254 -6.053762463533409
2616 -19.091912818348003 6.850430209281204 -1.9047898174965767
2596 -0.17309855740609514 0.0505493923919921 -0.3319148887068444
2615 -3.125196370520433 -5.3702900403047265 7.559054963485361
2619 4.455084653871347 -1.0061014250364675 2.1939063344748555
2623 0.3920798229574946 3.240154886059036 -12.08291679728214
2624 4.815632969344835 -0.22246147368378677 -1.4468734573937243
2622 -1.8519443309350268 -2.3135199201273795 4.487404021802692
2627 -4.085900931451504 0.7349436052413162 -4.088205099807786
2628 1.341884297806455 2.9879547426139283 -8.91970106068405
2626 4.12268447719534 7.302325757777889 7.810768488818947
2632 -4.429686721958097 -10.245801928286689 -3.2881188689772562
2631 -5.942835562434673 0.542383516962081 1.654954637722521
2636 -5.50706359807079 1.1764335258546295 3.826027100874207
2633 7.154532180295298 -2.039081122613683 6.838120333066343
2630 10.216122599361444 -7.591465771686591 2.9353502372667526
2635 1.360036339163472 6.8850219155469485 -2.57497058958354
2640 0.7841282920176592 -2.4137190863959046 4.258226231838771
2620 -3.38703929298802 -1.9052761231217508 -2.5574446573060703
2639 -11.082366006652268 8.954908047610356 0.5089101900357926
2638 6.714494091862366 2.7958713014245458 -2.2610766382790417
2642 0.23444203158507312 -2.831853507964599 -1.4902504695118532
2643 -4.331875569203044 4.723181249249885 2.402680194848175
2647 4.381688039564171 -8.340986251163283 -3.5928706103035606
2648 -0.231667453392106 0.11238484798534805 -8.415874921957174
2646 1.1186933731457118 -5.116855424376672 -8.321985278541487
2650 3.880052093676667 -15.375144266548082 -3.7932020557803514
2651 -0.8223761472031512 1.5883531263408324 4.991700441730938
2656 -11.974624435946016 -1.6368953103599753 5.60858874820617
2653 -1.3575471163389181 6.555702925129003 1.8285857616945627
2655 11.06968983790008 -2.9337145103438016 -8.811815374943714
2660 1.7649451510514789 9.744134108214958 -1.029111305198939
2654 0.18327730869264028 -3.2357313426685788 8.454101265831621
2659 -11.956398582380496 -0.8164226900920543 -12.039456976075272
2664 -2.8172124213685206 6.671375751992148 1.5166875033355984
2658 5.2446164620923215 -1.0798038131692143 -5.792091725749786
2661 -1.5767459184709611 -1.3918234767863962 -9.153161057010982
2644 1.5532921967657534 3.878522047793753 -6.698733549138562
2663 1.3854836856760726 5.486468289768999 -6.715706260247384
2641 3.5556914678834777 -3.043650087209497 -2.7708173297015657
2667 -2.1512914732548416 -1.5837683350148049 4.326588624001332
2665 -0.4787263526831304 -10.669374973424736 7.435061612294084
2671 8.716685104456857 11.362583147023075 2.4092760753660727
2652 6.511589303549552 11.588225265160862 3.952133332802542
2675 2.5935215014147723 -5.388225142841707 -8.58578717106311
2679 0.5539831669205004 -8.55497285417566 -3.3993750739997695
2681 -3.03380070660826 -3.78808427382741 -2.9987690556663917
2682 -1.1862541555738175 3.163806808572615 0.17732024368243549
2683 -8.962156878157407 -0.4011594939313352 -5.147008304390947
2685 -2.613067577181246 -1.2132305512699257 6.47348103382603
2687 8.264489602672676 -1.2924572558953775 3.359825756648615
2691 -6.665053705105909 0.7849158933273874 6.3209434445395045
2668 2.0531857465453456 2.477323404972556 0.3585833648891834
2689 -11.888505473417043 -2.4567060579665663 -6.88301407074737
2672 2.764577043293046 -2.222261863711476 3.842727156973726
2695 3.947046685030367 -2.3394467632216727 5.621783520817913
2670 -10.300567554166227 -1.0730429919269113 -3.986285227304697
2693 4.177953833046466 -0.31713936603061016 12.00957668612365
2676 3.9461505748508956 9.750120339606768 5.893697059438665
2699 2.771173799125155 -7.881996992281709 8.161881932798789
2680 -1.8029698549911182 -4.326281598867878 2.6715297559356848
2701 0.4821932969220615 -1.1348410168583454 -5.913326420776775
2684 -0.016356059956090685 1.9905774556182956 -0.5447051664181431
2703 1.8787156537350387 -1.6170375384346332 8.120240544382241
2678 -4.9216024764945585 4.004464370309937 -3.6463501477919578
2705 -6.338258834005514 8.565449393610555 -1.9349912952280641
2688 -1.1052668505162004 -4.762502089543894 -5.787667074572675
2707 3.1573228260242336 5.161683241553354 -2.313990862176556
2711 7.621697507534797 6.388368551251014 -1.5294553701339637
2686 -8.161314768773638 -9.000070882014759 4.219733889357612
2690 7.097819697548021 -1.1308125301403986 -2.8763224492073167
2715 3.0700783231739086 -0.4417404217453106 -3.2574380422265197
2692 -4.394357034679217 -4.168001427684054 0.8870681891740203
2696 -6.448469502064185 0.8769778317415569 -10.338748094910715
2719 1.659915597787199 -9.787582866364055 3.604772978642353
2717 -2.2669692018434633 -2.74684636918709 -5.2282770251953945
2694 0.19032652389451274 -2.2365698364359554 14.677909832483586
2700 -11.83729803293748 -6.56784162462529 0.8503100384987158
2723 1.473434396553354 -16.42859233852342 -7.67557504115005
2721 -1.0373248857529747 -5.914334224625654 1.8526252511072796
2704 4.792785866470744 8.981265521298143 -2.561380588116827
2727 4.732403684187067 4.631182124487677 4.1583093987446365
2708 1.7120678227426762 1.0544849537434415 1.0847544535280311
2712 -0.7215489263295385 9.624457445222353 1.7297890139185317
2731 -0.7124038460555602 2.4543229246693805 -0.5328531513158482
2733 -2.2489947171966014 3.1180726414083426 -2.881130113694173
2713 6.199137215533621 6.502042650170875 -2.722238646655177
2735 6.2375839578133 2.172556138004286 -2.627535293671708
2710 6.945599779478414 -8.009339775560163 0.3960663259472373
2595 -1.514386681897591 -16.019302905558867 -0.30611496021014295
2714 -6.7334852668369605 -0.48048894459447367 7.017253380560435
2597 9.442985205636859 -5.348307690002786 -9.985741146432291
2599 -0.0016502710661524386 -5.870062658053482 10.990700879015733
2720 -0.18023160239362027 6.529858769850433 -1.7834271503663617
2718 1.2535175280852546 -1.6464240064979583 -0.4488785778082659
2722 -6.810439272074801 0.8824633078320543 -1.0492275630161698
2603 5.209007615741582 2.2395938326164258 2.3470557132364536
2724 -9.325222659729205 2.268790778600313 -10.662044749079287
2728 -9.116610067675774 -2.2012426406094288 -7.726772832912463
2607 -6.422566565564108 4.1098140357141215 2.3326026621081706
2732 -6.9969412409193295 0.4890000227115334 -2.180286339980183
2611 2.29770964986236 1.341031866066326 1.010930904780824
2736 -2.7756794981911654 0.24116255462865469 -11.331643057719342
2730 -4.953185247810185 1.2030388079181937 2.2004260457821228
2716 -6.161147508561397 5.059077279601656 8.357548157535604
2734 2.007485172474254 0.8698119172591817 -5.195170855274737
2738 -9.512988424217983 0.49352775899035634 -4.81588817318743
2739 0.15336134792421524 1.323656103638462 4.890824734157636
2742 -0.4915822449342116 1.2754432527603479 3.3124522584919043
2744 9.248160930010332 5.177031705548188 -11.400183705331916
2746 5.994170956274984 -14.671984580336876 -3.547001835258219
2748 -2.1526396975560615 -7.285422724617801 7.025509520861085
2752 -1.531612700983897 -3.0137495076492637 2.603610791589131
2750 1.9480829754853766 0.3653748944362209 2.806127666862293
2756 -4.418088567116602 9.456445446443302 9.046239876302767
2754 3.727895348876548 4.996336535748033 -3.0448117084580884
2760 -6.164043156117892 4.454673480639901 4.649167999527307
2740 0.5476924000747919 6.5099261120269585 4.248735089905813
2758 6.115430307505313 -12.039330042493111 -0.9839927830932234
2737 -3.723915468833027 4.069798547290218 8.797746519431188
2762 2.3966134452780707 -10.27742008041861 -2.8233591846722264
2763 -13.506462292211317 -1.0060209154218147 12.150232466664429
2765 -1.57570492900501 -4.331035611100753 -4.435975881577744
2766 -5.818115260791359 -4.021379742665131 12.366203133777043
2767 6.367017524841989 -2.297533164706018 0.9026647389192274
2768 -4.659806618903832 -6.771943424502666 2.7623002408889525
2769 1.1072775295657438 -3.4320027244149944 6.824916994320579
2771 11.131301134203664 3.475191422977958 -11.142490494710998
2772 -0.936006349180157 -3.8723337040929047 -2.375919697758784
2770 10.418144118476022 -1.9781472720024094 5.630179205675035
2773 0.5817801465500981 1.4440413266019427 8.628367339921052
2776 4.161349156941683 3.661945333776634 4.745214137051007
2774 1.2422644763556372 3.1306139385934455 -4.475567273994488
2775 -0.42935433748901286 6.047698450088521 9.499441331766292
2777 2.3389485894780933 -4.5964976080459685 -12.002160087945946
2780 3.2216516555393104 9.75121936186678 2.84569631094687
2778 -3.336793497638355 -7.563156534371783 -0.3014029913084396
2779 -0.8307245915238001 0.5814225131659276 -7.132757273772208
2781 -6.620343580929087 -4.601590843743113 -3.229925362546255
2784 -7.590111702786936 7.448721320990273 -7.110167690499388
2761 3.2183694362557373 13.36744446052326 -2.238963917902012
2764 2.9596172234705005 -4.306378354396684 -1.011020058221064
2782 6.695588403835174 4.057884308564038 -1.7192999543711351
2783 -4.764265176825152 -2.585175695169909 8.047741244256915
2786 3.236596560402164 -1.4106200339803707 0.37118252794866824
2787 -7.568483118652476 2.746592994747192 -0.64400228087985
2785 7.329340953750598 7.621321079872037 -7.604327016313995
2788 -11.473480898973103 -3.5899020379361692 2.143637075627732
2789 6.1993733282058825 1.8747156338153916 0.9149298974834469
2790 -9.263004624593906 2.1528572689108527 -0.5248814615211054
2791 -4.923737632232738 1.2942153094503108 -3.112952412659447
2792 4.6433783528155645 -3.059980676479531 4.711045794035644
2793 -3.307041573634902 -11.914692765272287 -3.0268692594129054
2795 -0.06294866533786735 3.2714318420120176 6.374980035337834
2794 5.302950859484464 10.825589701926146 4.959897884107349
2796 8.317667583768728 -3.85336861642114 -1.3398843593853176
2797 8.268004029060444 -0.6165580458602107 2.644698033637377
2799 5.729716718028417 1.4189321152532066 0.09093646698214967
2800 10.177140558730088 -1.7371169131641317 -2.359871212136116
2798 -0.9189022302587337 4.588365196309454 5.2931622688122255
2801 -4.961389297710931 0.0891730311523979 3.324329257163104
2804 8.627648581586172 3.3642568862980466 -6.900771772625833
2802 8.213395825886268 -6.830899723911454 -6.929866176221462
2803 -4.7119934539194315 7.296957122464592 -1.4771138531648311
2805 7.843390790121255 7.168581267632835 6.889567325818072
2808 0.969337904134018 -2.2900869642222985 5.025016511303847
2806 -3.6026485887161956 -3.3893694118418947 -0.018773933660031744
2807 -5.864104754475609 0.8319052037430973 9.448725666679216
2811 -1.2189107995814834 -0.28778405127584195 -4.375135160624897
2813 4.262846756106491 4.92254268192872 0.6421079046034441
2815 6.994440047997716 1.8965892405228315 1.794885205238956
2817 10.287093669692826 10.096280869268197 -1.601767148103619
2819 3.328573876840067 3.0988433855194093 -2.394027268780441
2821 4.088704575415202 7.4281391662815714 -0.013197463360725439
2823 -0.3127152861156038 -1.2749018001273917 -0.858757397095609
2825 -1.0250918559756774 5.815166753071954 0.4131831216734599
2827 1.0001252893973647 8.372892933727782 1.7109994792895
2829 -12.285508578069752 3.1686205606918296 -1.3852452485806488
2809 -7.777122428619051 -0.43491276983860383 -1.4269780579952278
2831 -4.5693207109593885 1.515068812705277 3.425682673796337
2810 4.364561544644565 -2.8813634492100677 -7.898210580560473
2835 1.4838485408936104 2.4050403291166336 -0.9128028729628163
2814 -1.7551285519902609 -0.5456657972969632 -4.081618620057333
2816 -3.967911894286936 -7.411643837673911 6.934121073106187
2837 1.397767735150753 -2.585375935652785 -1.7064158365327224
2839 3.7591109201977058 -9.215798477101869 8.185851805157768
2818 -6.447738143123374 -2.317812944138461 5.927858183110955
2820 2.434147545653587 -0.4578313351872722 -9.13507167164068
2841 4.179874652434075 9.039437891359919 4.528341362736762
2843 -6.524387185523188 -1.6830782547856482 14.424569786490016
2824 3.0679756795596456 -2.249471751923007 6.903654628716968
2845 -2.417573966209076 -4.4814939552914295 -3.552381775724774
2822 -0.7704626373914202 -1.193041374257955 -9.13584420834347
2828 -0.9543837632952186 3.314227041574374 0.48443739907189354
2847 -1.558303630085492 4.758909331340986 0.40832554991348813
2849 -2.9897569729381015 -7.549115514960054 0.36087173241233134
2826 -8.201747106046371 -5.560649405255242 -0.32832862733640283
2832 -3.636938388372499 -2.0685021029274315 3.6610023221420764
2851 5.840485529270895 -5.590235676988417 5.628500958521734
2853 2.811776145182282 4.1029034427621 -2.4588803092454854
2833 -2.547114427043471 -0.5318563506933803 -6.468258019083299
2812 3.415696211466449 -0.536151639173308 -12.107704109171705
2830 -2.35893487147123 -4.674161610533841 -3.0243786975604743
2855 -5.99050355264927 2.163037605010324 -3.7686820605399225
2834 -5.680727839909033 -6.549192525242452 0.9673031712167213
2859 8.761021463341203 -6.613444501745759 5.058512931978391
2857 -4.2552797569963525 -6.395693471569729 7.809660409894173
2838 8.830393037052024 6.271402111012666 -4.008937112653181
2840 15.844449458301106 -2.3516265918016006 -1.915681643028428
2861 10.495164757245824 -0.9084495713479138 6.1231898451146884
2863 -2.07076401300448 5.643859617472011 3.1901060794453064
2842 7.051226250328624 -0.884639015912893 0.6492133388964756
2844 -6.321547966922606 1.1474762698616026 -8.734222190817881
2865 6.825945523490231 0.09974302389321468 -3.3786189842346643
2867 13.001028802245841 1.8849238981522878 -9.190340772930773
2848 1.9057784622987632 5.5997769963407045 -1.363173998102483
2869 2.437953557770417 -1.5266217215410205 6.579932615325799
2846 -1.2409919306536383 -2.8142866214168043 2.347670793173398
2852 -3.570394441241828 5.4450614507511546 -5.71767497274127
2871 2.644391034864002 7.5295117412603165 0.04246847997595143
2873 -2.4426833777850208 -8.738480574297748 11.560264697801074
2850 -5.3790227445668 -0.43026003522574324 -7.578586134344592
2856 4.219874729983383 1.4033439044134655 4.549746419064033
2875 -11.304386096691918 11.573890269718587 8.36318524648184
2877 -0.486964652119052 4.4285303072764926 0.6479142574381747
2836 0.3503492590171488 -7.183982857171792 -13.382656764159691
2854 -4.4435825221405665 5.091980108904639 5.882479408289522
2879 -9.621474730289695 3.2401450941265697 -0.24309621549425892
2858 7.397445815922948 -7.43101114572615 2.0646633508280323
2743 -4.723681307051291 0.28490691590087247 -0.6772434005159572
2741 -0.22610957199169768 4.113980843612331 4.154294061147415
2862 2.5498304178385407 -0.7026415430100823 2.8638231429290117
2864 -1.3329066445906774 2.6517014658536704 4.24968534958172
2745 7.212358816361673 -7.684604393270131 1.5522513582217874
2747 5.636812455905717 -2.113297409824632 2.87845077230971
2866 -1.54208404804563 -2.919281401274512 3.0603372022290785
2868 4.939389582459925 10.809962562115718 -8.059058178716938
2749 -11.049520404651794 4.1710087945631695 4.755218927490452
2872 0.3447237898220665 -0.4702521782116903 6.051306131592387
2751 6.607993492372152 -4.10139907663086 5.801296655486717
2753 2.588180189290401 -1.3594780532279802 0.9226149008652117
2870 -9.408903871833042 1.2630686083372789 2.3870650083130815
2876 1.740868480139608 7.975436412352771 -0.34662618098503595
2757 7.681861496640344 3.1251996297729625 8.589950071201349
2755 -1.8035487391220857 2.067905353590251 -3.1006909244071044
2874 8.347387586743936 -0.3231312733352548 0.21678003762679415
2880 6.709469627604886 8.93557657788601 0.0958924505029366
2860 -16.716161510985394 0.4053481765165098 4.2066458666243784
2759 1.573528311108507 -6.626734355803998 2.053904810087072
2878 -1.8497728063232097 -3.837878107794647 -3.2225028601690395
2882 -3.1876908623817424 9.609972907424012 7.010359489082601
2886 -8.85232597770303 -7.364442657881207 -0.13660675947430187
2888 -5.351203296490398 4.416409729360372 13.354696650001662
2885 -1.712341403802254 -5.535163880388294 3.2593941976824783
2887 -9.175269579632301 -0.8377209444243091 -2.7392828839460974
2892 -1.4291064271118585 -4.281087606246285 0.9599608253238456
2890 -0.5526755662618195 3.5988017040178324 11.58899543184764
2894 1.5365844945784208 -5.5762413490590275 0.4063304140590891
2900 7.395500983199852 -14.455270951212947 -0.6395370821244114
2898 -4.564124594485119 6.568887739760196 -4.793464260967202
2904 -1.8818016487835785 13.158199424941499 -9.441547929020224
2884 4.7853608713280416 -0.3580037447607718 -3.547676984259718
2902 -3.2628590087779084 -1.6155121728198587 -6.085501554112172
2903 3.8266356977697877 0.37391237230607605 -0.8448264417499834
2881 -2.5913721893445443 8.204736266273041 0.6787672441018793
2906 7.225961662913949 -1.5796763409368746 3.678325498023719
2907 2.39109439542803 7.802364532983832 3.1493754660730366
2909 -0.9040644689895625 1.9362982429323834 1.437498522985109
2910 0.009378646166992348 -0.41413826014515626 1.3568997219606875
2912 6.328548607977066 0.4556579259032967 -5.733372467480772
2911 -10.477095525999179 5.350009025632088 -8.159538178649761
2913 7.22160914585311 -4.129360671100958 -6.407172090120549
2914 -4.375545256002839 -5.162140464583764 5.626079291846181
2915 6.875003588715373 -5.90529705377943 -4.250845583782542
2916 -3.255105235975033 -9.071868442859916 2.2993458112224054
2917 6.320083137705528 -2.386050394902533 5.265646003974499
2920 -0.06542231292635195 4.374002987963095 1.6239196868398054
2918 5.9865210347734426 3.634976208705053 -6.921809152577659
2919 -0.3327680028553902 2.141392367659835 -1.7211473295802922
2921 -0.3290874401662448 -2.3718455342103546 -1.6026623777152103
2924 -4.83105659873256 -16.541375803856695 0.8152691737919623
2922 -2.4357163861080826 -4.96815423820367 -1.1229007286777313
2923 -3.1242591716468238 3.010981010662139 -9.496795509986804
2925 0.16336463015565297 5.473189528296917 -3.774954982011171
2928 -2.000949291849826 -2.142523874681961 -2.3855906681711754
2905 -1.7501695391349477 2.152618715547616 7.6333589916459035
2908 -5.745589288370444 2.301494624189216 -5.044734091507872
2926 11.309170549641815 4.81341902992502 -2.5966195937475485
2927 -6.896754901089254 2.241801652614952 -1.1374074761768065
2930 0.18462854611279994 -2.0701009043305323 8.064667860550992
2931 -10.07979042095742 4.122052813756833 -2.617464435078203
2933 4.654779447524168 -3.1534030543227347 -0.9563108976516176
2934 -4.959941585991525 5.218937501082606 -2.1771075991011393
2936 1.013304693410123 -0.9732154142575464 -3.8901229420376313
2935 -11.773928722508028 1.0710277812883453 1.5290331195909266
2937 -4.824998396064683 1.086405773977337 1.3190991277505957
2938 -5.054663829417064 2.022967912806726 -1.8304177240902064
2939 8.800511216526873 3.181422751528096 -3.79568424971663
2940 -2.4364418142791013 -0.8320742372760781 -6.336812405137652
2941 -7.449393954078965 -8.525174686625306 1.7369704473658971
2944 -2.2814835560869016 -1.1942123557794542 -3.301822905482666
2942 -3.7347177969695515 10.012171864007643 -3.5408974084216474
2943 -1.615733338942403 3.1361845346794013 -6.446274863498152
2945 2.995105525139636 0.503686400552985 4.078133281100177
2948 -5.4444871150337635 6.465123271386086 4.2297754771700085
2946 -0.6903224023185952 -3.906413527890887 7.465532601414863
2947 -2.840622040728802 -5.294599247039488 -9.374188209666393
2949 -0.33573533263024535 6.82976883378484 1.3173061438732145
2929 10.266189124071186 2.6236933112341068 -5.053865729047591
2932 -0.42896011662871886 -1.5213684098760265 -7.5298623969875775
2950 -13.74584517142781 -2.733819798526396 0.553276948128513
2951 3.27710036148851 7.856085020480142 4.832336757921065
2955 2.6198947521230163 0.6445065699516249 7.4291136464005305
2957 -6.9492530012487315 -1.1351701453355625 6.341290946195807
2959 -11.076037879741792 3.6996880367420113 -10.844100550292831
2961 1.1994000094743666 -0.7297321118076776 -0.917124934225425
2963 7.239499591126377 5.622401208505074 -1.9748038560226526
2965 -8.149860186031656 -1.3459316336575828 -0.7002622798700963
2967 -3.7564188158292753 -2.882143879115757 14.060996581466028
2969 1.1115253683077115 3.4901621145319512 4.271513743724221
2952 0.5642792835330493 2.654224778536513 -7.25892769473693
2971 -8.801912922083092 10.847636260609553 14.005429095289937
2973 -2.06391310218601 1.9151862288312833 11.961997383027851
2953 -10.062227550237393 -6.527627573195489 4.805669807776671
2975 -8.086691772871692 -7.906453140237922 -5.217327887116173
2954 -5.71939954013716 -4.447808224392918 1.9191561758099414
2979 1.1653411145395405 4.459881006936897 -8.723293381972258
2958 4.022267842718633 -1.3590213025802926 -6.741743823835473
2960 1.7468007046860927 7.040652915379017 7.415534232842985
2981 -4.221809799586226 3.0578293619691927 -4.871146276742961
2983 4.614399994635795 13.619572754072736 -5.7119287213618914
2962 -7.969369519488193 -2.793134444127001 -4.918983364278804
2964 -1.0630827745667262 1.062653666909736 -2.7494819279865745
2985 -6.490165228451306 5.910102481447577 -3.2788109463573245
2987 -12.891837123769195 -4.308235150538454 -0.9211038562846874
2968 2.7736438165382515 0.8391609228967378 2.3669064140356153
2989 -4.4294556021348646 1.9170194368898015 3.6645395514533545
2991 -3.4527382747900024 6.7600693166465256 -5.881373336732494
2966 -0.8548624188778853 3.733625317146762 -14.551929333858787
2972 -5.171670191177539 4.308398406679881 2.4257694836542125
2993 -10.714592863612076 -4.1056076353397355 8.438764343013052
2970 3.6170201785448217 -1.7980115487065478 4.74684003592441
2976 10.11664042832778 -16.19328810525906 8.974720179828173
2995 -1.5069156490847162 -11.391082233903223 -4.470117269372575
2997 -3.1656076140169067 -0.7679444506989462 0.6449391550196643
2977 3.1842398534501775 -15.609856534799613 -8.432803508640518
2974 -2.831769697035379 4.562781568942817 1.9722616505661983
2999 5.722666931233526 -6.745474702460601 2.4536848253341477
2978 13.165027650811101 2.3112793129683133 6.254988076471486
3003 4.939679842306899 11.045361552151762 -9.48314998162222
3001 12.405793451046193 1.3690476448592546 8.345277099750922
2982 9.618952341567473 -1.9921067076874892 -4.261557167855849
3005 9.723648883914622 -0.9513438822346769 -0.8260045573669845
3007 2.901109774746754 -3.2144805922576243 -1.62756274763356
2984 7.571697758538383 0.6527479219934627 -2.9376189443799974
2988 -6.648164367559367 -2.742670183331583 -3.6622949954804493
3009 -0.6515043748270597 0.05555915249490693 3.9272871538328347
3011 3.925441081439534 3.4904418756718414 -0.5428269891435248
2986 -2.518856318387063 5.286539633225879 0.1420123986748504
3013 6.251879127767831 4.746782527855262 -5.735546544348111
2990 7.547569238982823 -2.477584393427484 10.575718135193178
3015 9.157997606077735 -0.968615792771434 -8.20883896603962
2996 -8.029139164769092 3.1066075121132544 -1.9526752275174066
3017 -0.8045124423110436 3.312042189561123 4.200281443240211
2994 -1.2730767175536606 0.7912084873886641 7.567456577974885
3000 0.8369744961477334 -7.498168605510122 -2.36363847370737
3019 -9.07703294296436 1.954797088113057 4.766900518681306
3021 8.511430425785502 8.533194422885364 5.949617142075601
2998 -7.22042814537387 3.0018452150339945 0.9291642344520148
3023 2.59604245412532 6.4708327053776395 0.04411029469270766
2883 -0.6419886163415385 -2.4081340477898547 -2.9281222169904653
3002 10.336405092221367 6.289491926605763 2.8792171861839093
3006 -1.2347430015330096 0.8920101232589507 0.22139956369860397
3008 -1.800093829711872 0.8902675274869634 6.296898249410746
2889 -3.0824621947660047 2.3274142980499466 1.813399407989219
2891 0.6726535132968445 10.463050440437044 0.08133170167065165
3012 -1.5827402474291057 -2.283114996366342 8.953980292202486
3010 -6.85725350945557 2.942847308134265 3.866662268514076
2893 6.855056178336754 -1.3667057232027213 -3.9851198320354966
3016 -2.9061623577256124 -5.3339228608232485 -5.545896362068174
2895 -3.344662336112673 -9.249925459804437 -7.527092655609704
2897 6.9638869228256635 -0.7685580768638282 8.373685466011539
3014 4.356936984862344 -2.1157593606062064 -7.023784687364085
3020 -7.042475972843588 1.8823133368006588 -0.6666930817682046
2901 6.843856123557694 -5.896268515173117 7.707998502696576
2899 1.7682465710191493 5.081597655915638 -5.444824485877465
3018 1.290915579046257 -5.91957843489034 -0.34345406538134254
3024 -5.129327545701612 -1.033438436487488 -1.6194305524438724
3004 1.4239718307589546 1.796645590511352 10.390454567239827
3022 1.0354457830734596 -0.1520475989527968 -11.127579611701526
3026 -9.26327286397339 7.455945568696682 7.691345042852856
3030 -5.929463782751455 -1.6328142102636067 -4.912687517811196
3034 3.4084511762047853 0.1132498458451421 -6.0081950324951805
3033 0.6864312152493086 3.1735406324714748 1.021964351783229
2896 -2.1467697908778245 -5.116116905495646 0.9363821326384801
3040 -6.8177495994177315 5.514674008164748 -3.138031962543032
3038 6.102287317996997 4.094575879866755 -0.13240812548361028
3041 8.747766227176163 -4.77334567301376 2.2694193780296463
3042 -6.247500555226146 1.9035615855312225 3.4567564290818185
3045 10.210742710374618 -5.647607257754545 4.240546368685209
3046 4.5087875508649145 -2.9740670200025043 -0.7895210055951132
3050 -1.4586224025258507 1.811020775884933 -3.396440243092627
3053 0.6566153205091773 1.924921456103902 -5.230456972394948
3054 -0.33975420254755934 2.6797251269678863 5.548030660515619
3057 3.627394112057325 -5.727889372736942 -1.1052386520570252
3058 1.272114523157703 -5.897030017728236 11.224113578239729
3061 -0.8049255301166692 -0.4616853219401096 1.418609643664212
3062 -0.2116119361766831 -4.802634991995742 4.075390231737437
3065 5.060604516001211 -3.9762401733828194 -0.3497613570147059
3066 3.019637290515568 7.040353490545962 3.8433274825370445
3069 4.843682581738889 -2.2948210752069986 0.2462340332887912
3049 -10.121776368918027 1.651809008436504 6.003028436273334
3070 -4.434158013456784 3.5058085346477657 -5.497826189276033
3074 3.83389909743029 -3.0333530202889025 -4.9402557648657135
3077 -2.0583888200070826 -0.22054195285074413 13.78882473429986
3078 4.8662105792422565 3.972160010810444 -3.902889492246212
3080 4.363353872789729 -7.1434668428537975 8.27844986264602
3081 3.906312307924517 15.450688374325393 5.47329656312996
3085 4.955599442198537 0.27342703846210475 -3.2729788613571684
3088 3.5196844381954935 5.244305945688893 2.162339060508949
3089 -0.15764558620746957 -4.022904110444823 2.7637459592645266
3086 -0.4988664912934082 5.243148984351199 -2.4713744051196986
3090 -8.15213510917409 -10.819640793682982 6.2890870267445935
3093 -10.02415602069858 -1.086299236799748 2.8946385800975984
3073 -2.2466335054378983 -8.39231692561828 1.596924213499618
3094 -1.5073873865574958 3.384783566726226 4.8615574250599325
3101 -3.772418504032412 -3.7964424060996596 -5.226590422032691
3082 -2.846714399414398 -5.668315172707007 -2.3604704237458063
3105 -6.6050988288981145 -12.603153522366442 -5.981421610461444
3109 -0.17200514030231626 0.42435542677684307 -5.320894390124331
3113 5.418330227956971 -1.557411060192353 1.092776675206049
3117 -7.729495233775759 11.1199128567004 -12.516774041751054
3097 4.248547741548932 -5.838121038012305 -3.8453659516077487
3098 -5.464885040402621 0.6690318378919556 -1.3522360661749773
3121 -2.9123507090578493 -3.9803071599334783 -6.37133703148777
3102 2.161024348151504 -8.331650975633744 2.7483893307205234
3125 -1.3365730796174846 3.7181247448474686 -4.2211735714347345
3106 1.0808021073497012 -17.22869381348847 6.687401113540758
3129 -3.260360987759801 -8.342361181176786 0.9691623545531277
3133 -2.7167831100369657 5.882416747212957 -1.891423760258182
3110 1.4570744209176878 3.3274828877878084 -3.8097525285247054
3137 0.6270172754890098 -0.7233191683784052 4.462748484324059
3114 5.647870765546522 4.005125398091831 3.167510434221495
3141 -5.555054294304704 -13.00064631091525 -4.900331965543095
2956 0.3241137891776475 1.4783645869964845 0.6934542812759567
3118 0.3466465587132357 -8.507386866578617 2.8367842320149244
2980 12.400200870150062 -0.05537753292258671 -1.1938012296486802
3122 -0.783701060925194 -0.5052624679515163 0.9766810432941075
3145 -1.5212023159141652 -2.3573335020023856 1.0411220819462048
3126 -5.5518144920241035 -11.879069612879938 -1.2441508596472137
3149 2.771857282487818 -1.0596044061072312 -2.0100391612609547
3130 8.605145677636262 -1.8051981400820285 2.8086010810505955
3153 -3.8355463107949173 -2.4717797287857834 6.788638651889839
2992 -0.5819550392161705 1.3842556296192383 -0.21604745026268565
3157 -1.3554666569900367 -9.70856608633896 1.7858503513453476
3134 5.234021809172498 -3.526996633985947 -4.287197976973039
3161 -5.440277369727906 5.734036214348861 4.242760151503472
3138 4.759943171696899 0.03211471560411201 0.18202868071607764
3165 -5.453328887933224 3.1862120008912074 4.036477987166086
3142 8.73818309382884 -1.2704962395643626 -1.3705433659568238
3146 -8.825400752756437 -2.6972070348590718 0.20241783487708945
3029 1.7419327500328479 -6.891805061913048 6.999533090471182
3150 -2.123191584288415 -1.4853979957457062 6.54787483411902
3154 -7.084478788199024 -1.979491588596525 3.1865670658617855
3156 -5.0377073431987975 -6.7896116374101405 -1.3111657346743897
3037 2.18721201058429 -1.357354569275593 -6.730880276410566
3158 -3.2461450183300546 -1.4191057458819474 15.65462943355632
3162 3.581647867424569 2.1059944446543675 1.7468459838948003
3025 -1.1068026672653815 -4.27355738562224 -2.7264692216701305
3166 -4.8495485262269264 3.6168984952773364 -0.19413556011439914
3027 0.5438321071378561 4.06942092702073 -5.43207240588969
3170 3.7379889336689227 -2.2206019100899743 -4.389046619985355
3169 3.3238596755085674 6.6497717570932275 -1.7788486662464902
3032 -1.9005772854680432 3.9388389720515153 5.233860631815415
3174 -5.9534282855124 -11.152157617729106 0.47706803335838577
3173 6.153079579412807 7.764185186361544 0.4510725232377801
3036 4.186839291685882 -1.4088345016329278 -0.9565128185627321
3178 0.5855322231186469 4.044534309300888 -3.6300005120333694
3177 -2.651297208078638 -3.049984231750307 -5.13180956121582
3035 -0.7990381791760215 -4.280783590212561 0.31668953956166795
3044 6.632344756170846 -2.9119963935724718 -4.309896992878244
3182 3.7487407728221784 -9.98928899422827 0.6983682656760741
3039 3.8438670892431275 2.4716031886791368 -6.740274244006916
3048 -6.189582859494887 -0.725312681482668 3.17563139321557
3186 -3.276880620882331 4.334304839160604 1.5150800593056888
3189 0.2790179969592995 2.586485169805048 -3.1448895921030022
3028 5.369150569716369 2.4096056117118945 -0.024847835497320225
3190 -0.8790138710691289 -2.805084825141912 -5.396433521184687
3051 -7.555377974373607 5.33358868146542 4.046150337261654
3194 -1.6400790246146622 -1.6584231032246666 9.610394500162085
3193 -3.8534522369903725 -4.0708236440856345 1.387225611907114
3055 -3.2826990961821307 5.330220946817777 -6.600742618210874
3056 -3.379141455895863 -1.404799338198317 4.887924819974073
3197 -0.3904474673876841 -4.636554617964728 -1.0622110207240858
3198 -0.8001777530991188 -4.027996561700028 -9.367199493215354
3059 2.1292188307722917 1.370211074855711 -2.188286383703191
3060 2.8143915041795218 2.7215087061950376 1.7427226100241522
3201 6.9509457764738025 -5.22973564712912 -3.346421626818249
3202 10.192405096528017 -0.7754315211929709 8.896923374914627
3064 10.197199053775007 4.925642940965028 -2.349953277090578
3205 4.669668802354544 7.687651012955259 -3.7501786069602496
3063 -1.4536042533407758 -4.452609780786573 -3.7388432617589915
3068 4.964734691957972 5.4423975311565 -8.960102274836016
3206 -3.3379129028700194 2.0477619143514576 -4.218800610898129
3209 -6.861038358076403 6.147269991959888 5.249080045704558
3067 4.605263200726306 4.506480187739418 10.409601088847612
3072 8.408896699863995 -1.1385648814400784 -0.6265749400207936
3210 3.272338255975205 -3.730968715002134 -2.4459217028105464
3213 -0.23914676184724895 12.775140623323956 1.5578094349365583
3071 -1.2034082859603121 -5.161482048275265 -3.5957617325726616
3052 0.49180303968155714 -4.97652953725677 6.1047236855966265
3214 -4.381394625970413 -5.717354706531004 2.4015849431658887
3075 2.9870926914506777 -0.9317081828201688 -7.942611604465364
3218 0.7785896883626375 2.334256073836939 9.67727461167605
3076 -2.1365111299453683 3.113351651711607 -5.462342935407808
3217 -6.207172923298106 7.971914109477244 -2.6318567330873655
3079 -4.101254869394962 -2.245334822493255 5.755797069846592
3221 -1.9386867008270945 4.540631044901663 0.08583618439854009
3222 9.525099132279648 -5.189213179885581 -11.249287482341458
3084 -2.9606209095601557 -5.911212590653211 -1.8912524306885095
3225 6.522303541420627 13.199482074048962 8.610230513343891
3226 4.109075595508729 2.9939288153351735 2.9280507185778486
3083 7.112489578988414 -1.4437022866852123 1.5825878433593115
3229 -2.416053345660455 -8.449293875749184 -11.444150088613686
3087 -2.890899740003225 -2.1012696774437556 -10.431851399609291
3092 5.776074142785608 3.050090823661342 -11.275591424045615
3230 0.5425704308611363 1.3725988317735367 -0.3397712998699346
3233 -9.903923790808841 -5.167986013395516 6.232486698082474
3091 -3.0278070488042816 -5.6120792040295555 -0.27357149986406315
3096 -4.52601922785711 -0.27771408086304555 0.19670772465246578
3234 6.962465584910358 2.5459386246809106 -4.12243074155373
3237 3.7417733430561344 0.899172814757306 -0.6681360628856208
3095 1.2557584052728008 -5.298956835556428 3.0616671475734845
3238 8.730538778003446 -1.2561882283388761 -5.3966611976595456
3099 -1.2744607234518035 -2.034101734357541 -13.16127858583722
3241 -1.931293326797375 5.698344622709601 -14.394558702933852
3103 2.986287158626888 6.743807849251599 -2.9606246685637587
3245 -5.501912220938601 -7.908872035385838 0.007353513525270491
3249 -5.813603484262395 10.696630570020266 -1.7330983048923756
3107 -0.9035916262525654 -7.669673797326571 3.6997851341647503
3253 1.8405530243797004 -5.479750294625061 -1.1097443603860633
3111 3.933835119804475 -1.6640304175979643 4.5256210233234
3257 -0.5752922596506564 -8.213906445977667 2.294488979989151
3115 -0.5529800559828792 -5.7919730117832104 7.764299641974165
3261 4.1816928705190195 -4.144696796925455 7.983049478549
3119 -3.5391180725940674 -0.9458865977601447 -3.3219141567952137
3123 -2.9722174917652073 -1.5335001277561244 -0.8256925976075293
3242 2.9446928626243034 -3.9718595659884 1.5971382120274404
3100 0.8689733993732709 0.051262590796118765 -8.630696206931255
3127 -5.84866316205919 6.1337303376612065 -0.9845437950687935
3104 -3.4053164383337595 -12.24955992657452 7.50787115416411
3246 5.535309360644661 -0.5872027562845483 -2.4619647449971844
3269 -6.493267691496828 10.330596252731924 1.4196004133859164
3131 7.1453792118217745 -2.0814009979310213 6.69850495842813
3108 -9.322552784617837 1.6784092388541754 -0.3652175325866148
3273 4.3190460739910765 -3.0236829637809772 3.16992684511245
3250 3.7501255514363585 -1.6782887189056996 6.289588225316838
3112 2.878272361332894 -0.46647902067730723 -3.479627206397115
3277 8.373500271200385 0.058473257777096034 -3.363991417825895
3135 -1.1793080003985137 2.68758393436275 -2.7871455490110475
3254 17.01806395201908 2.574831275372047 -12.108509168595806
3116 7.509453181163079 1.2007369854608205 -6.544471016185488
3281 0.591313317460311 -5.796191922453684 -8.03402776295028
3139 -4.742262200591902 5.422547890689422 -0.2960513083276579
3120 5.095447129403704 0.5380206336478918 1.9939212747118347
3258 -2.668960966105789 -5.273669759662009 -3.9673062251041245
3285 -0.9036522457077643 -2.2051328217177892 2.6990975745888344
3143 1.2556208326709957 9.011925131977675 2.3851490656089207
3265 3.0647732686655242 -9.640377755021902 5.954103601259681
3262 -2.3376296589034427 -7.4471348913732704 -4.886739517359139
3124 1.7590517884736392 -8.265600062887433 -1.6121934810674843
3147 -10.498267267098047 -2.56451825775461 8.200430907915658
3266 -3.9451140224240255 1.3167576402010202 2.408549821022798
3289 8.099487622342656 -0.7717568033267571 7.641667506647862
3128 -0.45302863513857705 4.661193783733105 -3.5566174423724712
3151 -6.803632475389983 -8.299157974518073 6.213194920208378
3270 -3.466805273671107 -12.540169620838753 2.751453816812406
3293 4.279698458073477 -4.194852354302269 -2.9259282548283396
3132 -6.407250460046429 4.101757457345938 1.3355057562297947
3155 -8.623458957464996 1.1564962321574095 2.0213763381677023
3297 8.166994562046554 -1.6013677839808835 -8.25999459553856
3274 -2.127621687722061 -12.493782396196712 -12.05854489305888
3136 0.5793066767321197 -2.8497670275448552 -1.300406202950959
3301 -2.0412599831449674 1.8314215794153892 -10.069284893029264
3159 1.3540797574199548 -0.7368427170630634 -3.0495418119073006
3140 -11.67929327614328 9.409434000211602 10.556045114328024
3278 -0.9288584326669029 -1.1214957735845075 -2.0626229993719942
3305 -0.699831828980965 7.229329666467209 -4.711562573359805
3144 7.6596857952247 -0.17795367925979008 5.258287827257704
3163 3.7271622273363914 3.958630320495653 -1.4767321436136023
3282 -9.458375083084535 2.7451096765816043 -3.3718234334939665
3309 4.540271244988955 7.159800302791616 1.4077571139900693
3167 2.4145270405144608 12.565890625887453 0.5113930774108916
3286 7.266955655627406 -6.1454763568374196 -2.956733092664493
3290 4.495919680010815 -5.32059890277944 -3.2127081459051956
3148 0.48808159511034155 -1.0703053408593133 -1.1729442907531697
3031 -6.619546844793365 -2.0622976548059384 2.1673053461244725
3152 7.850741238686773 -2.6496856597234473 1.7545978253761016
3294 6.524318971572572 2.8453590848349415 -6.560072865998772
3298 -2.0083989680329433 4.319678555281143 -0.9593796494147829
3181 -3.698861237707908 2.258663776183126 8.382080161578333
3160 -2.71103542954425 9.227957411788001 -12.344634160891124
3185 8.977025186546989 -15.768659777061332 -1.1750750827814218
3164 1.8629686410681794 1.2686501587372792 0.40047210655079707
3302 -4.361050424701734 1.3299215856984556 -8.055392822992486
3043 -0.8221406768548394 6.039470358647382 7.744372345826844
3168 3.4704476342292687 2.9365352948630874 -2.4001879372138877
3306 -7.659549706873025 8.59002639852117 -4.846058468561611
3047 -8.74188455795896 4.60225812054493 -3.0355453498614597
3310 0.7965312300269147 0.10761987287248496 -4.105932970276538
3314 -9.782360866083478 1.25697916068621 5.037532626915577
3172 1.1973796867002795 4.180379246779816 3.677886052431805
3171 -2.6458501140050257 -0.601852176827839 4.224840942865156
3176 3.664411581700791 -2.8292855111766118 2.1911515558468446
3318 -3.3489598751205816 -10.634669559335052 3.7632339865074305
3317 -1.602509258447041 -9.511946330172016 -0.002772925522239372
3180 8.644922813028758 -4.0414171978583395 9.433426927416232
3321 -9.053362283479883 -7.244397951025829 -4.7740695286665815
3322 -3.265271268587235 -5.8837113519233775 5.603389830548621
3184 1.766621436973789 7.267764161079651 9.561084504127374
3188 10.025584305825282 -0.048775064496475166 2.074976527374757
3326 5.222446505413373 -6.6137387876621885 -4.902318419988036
3192 -0.14767509657434202 2.0795741795022358 -5.841374353789106
3330 -2.511957606569515 3.2375896894861294 -3.060805279236437
3333 -4.219189930643627 4.7634174533347196 -2.0887960270625525
3334 -0.9118767108706017 -2.235642297561837 1.836582396067877
3191 0.4129790894428882 -1.6479575491875806 8.431659706648421
3313 -8.084305681129273 0.42161268537500035 11.650688024529408
3195 3.203946599710454 -2.017357059157788 -6.402884486112506
3338 -2.3000208336898758 -2.957344527073703 10.90509210961684
3196 -11.158471228817856 -0.7623261535065461 -4.3139620023393865
3199 -2.4998254067837755 8.450027315198733 -6.0022246857179935
3200 4.097855149579849 5.237256312164456 -10.494890042763414
3341 -2.1865024790267547 7.350651348647921 4.907163647120839
3342 2.702539922791883 -11.192837954565203 -3.939246192369499
3204 -6.13328630969544 -4.581225677719839 5.860507950387152
3345 -1.7384684065514622 7.403884728270457 4.962457067600425
3346 1.526110471148432 12.397984761561045 0.26641542259048173
3203 -0.7997706077360143 4.231569617973019 -0.4160487306635555
3208 -13.683667124304366 1.0150869936343194 -6.899713203360506
3349 -1.1493282083800516 4.510980587512375 3.135028060284844
3207 1.433577729262382 -1.4205898538747717 4.2882041373376
3212 -13.812319028888677 -3.8492135650195896 -4.028532488122205
3350 -1.4937206517122112 -9.608882436842931 1.313532740349296
3353 3.9395779647470324 -3.2729720124306607 -2.711001497078724
3211 -1.9471164793089684 -0.29997478843776015 2.009872687011727
3216 2.3943249420698463 4.512597465525168 -2.6489550007687965
3354 -2.2444479821588152 10.80181181077259 -12.097557321786226
3357 -6.2488319834066965 5.368821521552724 -7.043340061976942
3337 1.0652350659619119 -3.634409044864534 2.8111355902938726
3215 7.402780124006646 -3.66270691561481 3.5114397576294345
3358 -0.8388074617649548 1.137860493512775 -13.90020282743002
3219 -2.4631094407233025 9.822559490833948 6.37511273901377
3362 11.218787096305809 -8.253909658274392 7.003429665489104
3220 2.525660390580037 2.7264311725877186 1.9480592784897395
3223 2.329962594697334 -3.1480814537603985 -11.566877290546456
3224 -5.640789970786004 3.9276827079720538 -0.9012355057416228
3365 6.019714097948209 -7.479214573436115 4.948927291490085
3366 0.9110272785982111 -1.4614063719663568 -0.3443061365521217
3227 5.884016781505612 -2.0789884601746254 5.350087220204586
3369 7.212362687362493 3.801658746488545 -4.146909412085402
3370 -4.171764651855404 7.2507271158853746 -0.7047085334353397
3228 -1.6425656139158722 5.994109767122466 14.634763829077883
3232 -5.757553021314758 -0.014549155954119923 -5.742137865501216
3373 -0.20033530244835587 -0.4054652687575741 4.951455919663469
3231 -2.1768285601111366 12.439623078900281 -4.099801083929776
3374 -5.281029081172053 5.378239596430636 0.18508520720058286
3377 -4.6970971457556745 11.481739011935307 -0.6434154591630815
3236 -6.420521927424431 -5.772881416323377 -3.297111666656
3235 -7.169821441658417 6.27010511001316 -7.748731219561698
3381 -0.8244153645163951 -4.315066536663507 6.91636509325645
3240 -4.565731188931904 -6.272227358476048 5.7779332213617565
3378 6.603755188952934 2.0877630066082435 -3.59001662548529
3361 -2.9958935734847687 8.387865762016533 -1.0629746853322963
3239 -5.987441533998153 1.180361545558503 -2.6329914936855014
3382 10.304644812533372 1.6749377170128434 2.9079423475015824
3243 2.145115270389541 -3.835073458158227 -2.942438564907327
3385 3.725812264047679 -5.023789818087746 7.862603761633197
3247 -4.033925371857719 2.953804254185285 -1.5123867717466124
3389 -18.216280896319542 -4.923354391097555 -10.099091220835756
3251 -3.2778073575297864 -9.076166431542484 3.476124571521645
3393 4.842721190396227 -2.6239982321742445 6.907540751228979
3252 -0.1027144211584112 5.611240770498442 -7.584909715196152
3397 -6.779926978131787 -3.981135618087724 -2.2965184023655483
3255 -5.839728020855019 -6.6937615053589985 -2.8402390835127878
3401 -2.4679771099841075 8.464211414167881 4.583941029841367
3259 6.69001540483842 -0.6433073188975696 0.645800690235333
3405 4.330555195523155 -1.0844755531485966 3.7205113693458625
3263 6.68230540407484 9.904190753200314 0.29881930859339595
3267 0.47250746232894614 2.522557119686494 8.97841655380679
3386 -0.8573016769226769 -14.530082451139288 -5.459501694627996
3409 -0.6750641425056695 -8.387544693970513 -6.215219322727807
3413 -2.2529186465669815 -1.2969919080327283 -0.08419188821645228
3248 -0.11958904668332566 4.482972731975818 -4.0032364657519075
3271 -1.1313215757311708 -6.353691660119717 6.427442732014037
3390 -3.53754735006529 -6.072156584896256 0.972047612011436
3417 -5.418270468558235 -4.8179291586621416 8.99081242648554
3275 1.2734971087758145 0.34048131479066385 -10.356080079294273
3394 -8.072809573041194 -0.08179148969664439 1.8014544681273017
3421 -10.278699242630356 -3.256811381894305 6.0638213325091295
3256 4.549032742343316 1.716307630766994 -2.839798732077639
3398 -7.389555863348237 -15.292594047505665 0.697740013565702
3425 0.7329484639838321 -0.1556600331107862 -2.3321140828277
3260 7.325566531828573 3.424917705857007 -3.296571082688586
3279 1.8391472700348963 4.8435421108867365 5.9393319689904045
3264 -8.786989072572046 -5.52042935111663 1.5691848630761365
3429 -0.497621092104368 -14.06362437046778 3.066386779836129
3283 -7.522076695449607 -5.317133188171506 -6.189440373240551
3402 -1.1426829433133876 -6.654565921513812 3.021173912818768
3244 -1.1975950289707176 -6.237945478067559 -0.06283346794478684
3287 2.353950332618916 0.019852653769878964 1.9332179572712267
3406 2.938912821591423 -1.2754571356743774 2.813995718154203
3291 -1.4934921857339891 -2.9587419061899167 -1.6217741539369903
3410 -2.679755478371518 -10.040441095523255 7.955468665012804
3437 -0.10368219964553117 -11.665537237655094 3.9325002974861256
3414 2.1452860192283003 -1.842427100775303 -0.40334928763243383
3272 -3.6896824494620795 0.039870169231894376 6.653356126150756
3295 5.83591893042669 -7.28475483670893 0.09686853192188039
3441 -3.174276934596361 2.2744805157281713 7.045518817515165
3418 2.9101787544973035 1.63718043209444 -1.9252575832276928
3276 -1.5137272509176145 -0.8703011383224839 0.49798946306282615
3299 1.7893503124343042 -4.280282734280797 2.581247374356365
3445 -3.954483441812279 -5.73319510401813 2.385579743680433
3280 -10.698887351289896 19.658344449046435 6.240329644226322
3449 12.177838566206 6.2633244064023685 9.381773809390726
3422 -0.24576990991069003 0.6378607058960956 -1.4302344622961924
3284 -5.215314819784515 -5.892560325281296 -6.278350179652834
3303 -1.919285525139061 11.07024952939585 -4.203228144195352
3453 -11.202248196684348 2.38974264026117 3.7625285549823944
3426 14.324367474053181 0.45324202079783826 -1.404869772764649
3288 -3.8379658574391566 1.5357961676317293 -1.1027032521726545
3307 -3.4850333841276693 -1.731569936522511 11.19692093315282
3268 -6.515031861501304 -0.5922268721790549 8.633540014845044
3433 -1.2050631472636357 1.2094177777610753 2.0878216854820173
3430 -8.16198891857457 -1.8550084815322414 5.60284948810203
3311 3.6653818093202704 -10.714588030340156 -12.501943170257405
3434 -8.163101675897652 -3.9535346525682855 2.7003800809723257
3292 -1.868366996583905 9.702019862278716 1.1460435712417418
3175 -16.442366547931222 -1.8768465874924611 4.186605018989419
3438 1.0621404469312619 -9.533372892687044 -2.112877480237579
3296 -0.32608778386751097 0.4342114905517463 -3.2509187887164877
3442 -8.73922765950511 6.1702395024267265 0.1734898775440378
3300 -1.5473871045011756 0.6395279662189193 2.340142464348918
3179 0.1273097111523559 6.99374045376195 1.1333061390075299
3325 10.689074133719538 2.5715419145249534 -0.8952979137838809
3304 -4.897563282010523 0.005414748458485384 -3.7776176795726055
3329 -0.5857246408173822 6.740554931713031 1.7017363036751865
3446 -0.6822586601792631 -3.0307045933347747 -3.390202635655952
3183 -4.148476064258899 3.3675093899810102 -2.1110154831655907
3308 -7.236029404386686 12.093898306976245 -7.938225528567719
3187 -3.9271628799200027 2.1583528054303898 1.657891548899884
3450 -3.206993827583357 5.2166133715773935 2.3227017717027496
3312 -2.29264882288021 1.5467528085236322 -2.415694661339082
3454 -12.747571560968055 0.02076046395536037 -5.534771539170436
3315 1.2088967503050179 -3.151223770957949 -2.702630204266874
1 0.7829224054605582 -4.103312230376876 -1.7759649090319325
3320 4.551250915620564 0.17190202533913837 -3.615289268308718
6 -2.844672005063712 -4.770566355951018 -3.583164732886409
3324 -8.994602700354749 -1.8466547782122948 9.313993223297665
10 -3.1025746520245336 -1.96224547155474 -2.124270112170555
9 -4.683635360788226 -0.8715785426548996 -5.849859721367094
3328 -4.267560894370164 -2.4001243860488923 -5.925856820915821
13 7.166954493996453 -5.278466543510127 1.5176698451164081
3332 -4.694870375139369 -6.313542054851177 2.917899962139895
17 -0.08266866383723874 -2.50778828909261 -5.358989640444483
14 1.072415083533902 -8.095186211728658 -5.600861938625821
3336 -2.109893517135653 7.420263910895608 3.16368307486978
18 0.08465696129926766 7.322742747664536 -4.690000882558098
3335 -0.47884205664458274 13.657997486182408 3.431640866979939
3316 -0.5038638620052839 -5.82382192546888 -6.9848542418818
3339 4.274969862261663 -7.703434583441044 -5.561113034753
26 9.588133613295147 1.2864415309373487 -2.6443076183958083
3343 0.9673402767838025 -8.72659134898346 10.70885347242643
3344 1.674030644458703 1.9811827360942453 -1.6184969327824932
3348 3.191481983586282 4.84913902523996 -1.1330602253617739
3347 1.5614665671296495 -0.39766999484993937 9.195135838357913
3352 1.8707821254834551 0.35227947635669005 4.10193718522957
37 -7.254829132444576 2.983995556394902 0.9996192034748542
3351 -2.7450562266262697 6.125294246317424 2.694180122217225
3356 -7.977817992077426 10.037365278195411 -4.299374226194191
38 -2.92643183366044 5.9682654566180675 -7.721757486299675
3355 -2.230553102771562 -1.0771436420897411 -9.916938285928339
3360 5.214667849545025 -8.312821722132218 -1.0040824176937668
42 0.25329968363765615 -4.1555351706743835 4.789445047514414
45 -1.4920430645257023 -1.0937076014721128 2.222314339360097
3340 0.9296607010710777 1.4559266578995933 6.103440854539257
3359 4.620508516905149 2.4875499331283004 -8.85965797889427
46 -6.26943070263447 -1.522434303556498 9.316997156363524
3363 13.078195597198125 9.592161037741839 -5.900926918230438
3364 -0.08138702385856102 2.4910109871809074 -5.090358238553936
3367 -10.845685968552761 3.169831939815065 -9.653123186463866
3368 2.592164167963179 5.551977354517231 -5.338717305072881
53 7.5020876884688095 -1.9438203907755638 5.141929008278393
3371 6.941245507570391 1.896759648616521 -14.778876006359978
3372 -0.869949471187371 7.303052067826796 -11.95800137422752
3376 -2.270737572045297 -2.501754144754055 -5.926839026148841
61 -10.943344299085608 -6.143333209461911 -5.872974625681237
3375 -8.555475553340855 5.816531450670584 10.31072714543671
3380 -5.366683841396046 -1.3109133597024392 3.2410198634518306
62 2.7161602022921016 -2.240678376503064 -3.8235265668930305
65 -5.7909653846688345 -2.3326459196341123 -1.021996079770202
66 -7.058095240912009 -9.551911859498768 3.5003020566205354
3379 -7.5468309508651865 7.368553477197795 -3.4242735466195797
3384 3.8847004710587805 -9.653674848876175 -2.628987660611727
69 -6.679188486972927 1.212180648148196 -11.574336828678689
3383 -5.407946091192609 3.5701565657766885 1.356637023769433
49 1.2980874596794552 3.3565913715184093 5.496838374184942
70 1.3196562900421125 5.315110964757822 -7.906629114657785
3387 5.322339038533286 -1.9841300052320487 6.201360383793016
73 12.55810773841749 -1.5573094596709636 -5.339706784849804
3391 0.38813073305123813 -4.192548605574042 -10.070571028132578
3395 -2.06579705403972 -4.3244271609434115 2.406476723103568
3404 -1.9609317872817194 1.7743950465497689 1.279530274838629
3399 1.9072082720169652 7.142201006909465 -1.7915385337541974
3408 -1.6256298315137745 -1.3505592193299523 -3.2650571604384733
3403 5.184184291009844 -5.67423594203096 4.448751083896619
3407 0.10587019456630263 -7.125563065710899 -6.847196920824175
3411 -5.353936279572732 -8.40285324062788 -7.942041371263907
74 -2.7066787468917286 3.7762676066765493 9.073840736648345
97 -2.01360053226929 5.016431057742402 -3.7765209884982562
3392 -6.761134435689778 -6.22695975250157 -4.146376659382793
3415 0.26790904918341724 1.32515079293146 -5.376343562926003
101 0.5674634253039352 -1.5781362646397386 3.8404873178378502
3419 -14.47953551258201 -1.3673825040708578 -5.743626508650242
3396 -2.1428610400105796 1.207963868489881 4.0560751620916635
105 7.2485658123345456 4.663553343819589 -1.2515209704082468
3400 6.83889455413237 3.610889148023929 1.7169084435755217
109 -2.0201009822103657 -8.137574031776376 -0.9772416354402622
3423 1.656504532754896 3.2987703709677 -2.118621769662077
86 -2.971588110993865 15.861201558947116 -1.875220264215366
3427 5.9043526866955816 4.611901201590079 -4.508149659336313
117 2.159153491217831 4.355767166241289 4.626661536259537
3431 4.877585184743737 2.6337243136852915 -6.396471832319311
3388 -0.2363607746159899 1.9135913235214037 -5.121993568052345
3412 -5.686641707544935 -7.799648163305078 0.3878463649734157
3435 9.0696123407108 -2.9385117776829173 7.204758027641592
98 3.6525988703203565 6.79416354352323 2.6761418211345784
3416 1.1984377966404554 3.1509086651987426 -5.798521854731778
3439 -5.216525285338908 6.011628670606612 9.094654723700772
3443 3.7920051780543838 0.9222002509386789 1.291715601645221
3420 -1.2806760276005582 1.9044289936389978 2.110868107809438
106 3.401512889460041 8.435517817739528 2.937903844280198
3424 -2.5977226292987967 10.009404618280376 3.754841641334884
3428 -3.889617549783736 3.7275638596564944 -1.2718796923337603
3447 -2.2260635312317563 2.64514981080236 3.32781917281808
110 2.585526963955158 -8.42487567548561 -1.6304171755324453
137 1.9033491786260746 0.6860820589049635 -2.42996747335671
3451 -4.488049887115647 6.706752705059913 -7.3272610076079365
3432 -8.026022913117385 1.4805383928986755 6.337659032419828
114 2.189493080584095 -6.97692375788951 -3.9930042646611383
3455 0.7432131714485081 -0.4159640285631919 -3.5606084784565177
118 5.217514342651793 -4.3619578471756215 3.2806169789899045
122 6.697413273544934 2.274083878822747 -2.242539115640816
3319 6.684800830784133 -0.14174259996383962 1.3960589134045065
3440 -4.531261187369752 0.16743902169550742 7.258703404788776
126 1.895138996229326 3.8881428101227975 1.912887770845403
5 -2.5985939222960095 1.6453655891148766 2.175663281703177
3444 2.958836220568706 -4.526660574471297 -7.065183352988334
3323 -4.985033596373733 1.626899940130729 -0.7010606245798054
130 -2.2748954875031324 -0.10690040446783834 -5.972035095941362
3448 2.0723547231983304 -6.01794188903876 -1.1175312918902112
3452 -6.936329805540203 -8.795612488109818 7.532255314773337
3327 1.9070702327246676 5.781283460987238 4.836875206190477
3331 -6.387731483479506 -5.8838672764297835 14.344348595025934
3456 -9.261597091790408 1.3009092222249747 3.1716298001308663
3436 8.277392664965257 7.9737502846743835 9.425757708351025
