2048
Time=140000.00000013 pbc="T T T" Lattice="33.179099 0 0 0 33.179099 0 0 0 33.179099" energy=-7791.17199 virial="-172.019914 -13.4549913 4.00220747 -13.4549913 -97.5787947 -22.5297123 4.00220747 -22.5297123 -164.316118" stress="-0.00104550765 -0.000356919465 5.34172693e-05 -0.000356919465 0.00116273392 -0.000507747553 5.34172693e-05 -0.000507747553 -0.000632704659" Properties=species:S:1:pos:R:3
Al 3.79215289 5.64475885 26.4540654
Al 1.4468035 7.36639462 14.3523053
Al 27.8506697 9.5959379 27.2095815
Al 2.65012043 25.0419372 30.1268922
Al 17.1538277 32.7427166 26.5633082
Al 12.6603199 16.6646943 25.0638716
Al 9.80611637 27.235833 3.2007171
Al 8.46380383 31.0703918 7.2394659
Al 30.1493783 5.48562548 2.92673323
Al 14.0969157 27.1170914 9.86302421
Al 10.6305911 14.6147216 2.30816583
Al 2.93633842 10.635753 7.38095722
Al 19.8613711 12.6684196 2.9589468
Al 8.17138162 9.23814901 27.5932785
Al 11.3915042 18.8605158 28.1754789
Al 8.79600386 6.52891057 27.5202665
Al 16.0308327 1.8163894 31.8281788
Al 8.44346692 3.99505455 26.4494409
Al 15.8656256 17.7168564 5.59532069
Al 30.8488055 5.83838642 14.1468733
Al 26.1264992 8.72107218 18.7403973
Al 27.1876538 22.4045477 29.4813059
Al 18.173201 6.63059989 18.4276969
Al 15.06418 2.51082978 13.6773305
Al 31.5603531 7.68048154 2.40541579
Al 25.5528765 13.7521392 31.350548
Al 29.3267312 28.9655005 30.6802791
Al 28.9761911 12.213293 9.67495922
Al 20.1839515 0.960348694 24.6146455
Al 21.2539758 13.0293455 24.7720488
Al 20.6921411 30.6885496 1.20555203
Al 3.70628539 14.3092997 7.46054122
Al 11.9736249 32.0013712 28.1775407
Al 16.2574078 1.13927938 28.8608027
Al 3.91921651 6.71905731 28.8589875
Al 15.2058694 27.8878598 19.7996325
Al 10.3836431 23.3832505 8.84520034
Al 13.2810529 11.014705 12.5940986
Al 24.3074633 27.5316676 26.6490251
Al 11.1360388 4.3434531 4.21100617
Al 18.1258343 31.5113342 0.26281188
Al 29.5119719 1.4669317 14.0562588
Al 32.4240149 9.89936266 11.6508128
Al 9.92517484 31.9325626 22.5221009
Al 11.3642395 6.72982307 10.7643557
Al 26.3729613 8.60795058 15.9701004
Al 12.8309971 17.328764 16.7025436
Al 0.719551026 10.2868901 14.1441904
Al 27.3532795 11.1272371 16.1051282
Al 13.8049054 22.267835 2.68446913
Al 19.9964154 23.4551684 21.6401984
Al 32.3644054 26.3342817 17.5927865
Al 32.1710909 23.7171834 0.642552411
Al 15.0022895 6.09056274 29.1206095
Al 14.1523398 24.1347329 16.7327377
Al 23.0085985 16.6325326 22.2886208
Al 8.77969136 25.4868849 17.2588896
Al 11.9742765 27.9999094 20.5214858
Al 8.87984198 12.0579715 27.4878975
Al 4.42995073 22.3159123 19.0332292
Al 20.7558079 26.0645244 10.642129
Al 12.029915 28.3933967 10.5808455
Al 10.3363066 25.523476 6.77050355
Al 23.4236069 22.0893055 6.25816866
Al 21.1083366 8.02571271 11.7583316
Al 26.8557989 27.3824831 8.40898493
Al 23.6647697 10.3929812 5.27026
Al 27.7224707 19.1020629 0.412499736
Al 14.7603139 12.2806369 25.7346115
Al 18.5008034 9.2030837 18.5117784
Al 4.54975916 15.5994745 17.8339681
Al 4.70069426 3.54502054 19.1978696
Al 3.68917144 32.2792023 1.92735952
Al 16.5420985 13.198301 1.5305948
Al 15.1564152 10.2387225 10.7284529
Al 1.32507244 12.6044187 12.9434747
Al 14.6539394 27.83301 5.3687996
Al 3.35539251 2.8892204 10.0476689
Al 21.5691354 9.76010637 6.78365743
Al 9.71914487 1.47556597 24.6437521
Al 1.39841731 25.5746777 18.0347909
Al 2.99687729 31.1485419 28.3203738
Al 5.2558387 32.266637 16.4818673
Al 7.18202774 13.7355623 21.8551579
Al 14.2749349 8.0996038 22.13809
Al 24.8728891 2.70979938 30.0255651
Al 4.18980077 27.5691321 30.1308448
Al 2.83023903 32.4398158 24.8929197
Al 4.31021055 22.6972482 12.1498971
Al 14.5518122 32.2449982 26.9953309
Al 14.6762918 2.73024911 6.55571195
Al 17.4751357 29.9707355 26.516447
Al 28.4094368 4.62620058 25.2601413
Al 27.0110088 31.5799975 24.6451798
Al 18.1050108 4.59675695 12.876672
Al 31.8634347 8.81622882 4.74383985
Al 7.05349255 20.6814113 26.4114174
Al 13.9048864 18.6510931 22.3287627
Al 17.8327693 18.3743624 26.6497079
Al 7.12942185 2.41372896 1.76067114
Al 22.5398188 16.8447232 11.3685955
Al 17.4163643 18.1619917 8.16025837
Al 13.4502621 10.1157852 24.6185409
Al 21.8161271 14.1867313 2.19178553
Al 1.11790303 8.80868153 23.710128
Al 18.6808904 15.282708 21.5054392
Al 17.7936659 31.1484626 30.7370144
Al 23.8936492 10.0931838 8.07076499
Al 20.3731357 28.243669 2.2815929
Al 6.94481676 29.2929232 9.24684127
Al 17.9660646 13.2420039 30.0027466
Al 30.9686914 13.4278221 21.9038784
Al 32.2207865 2.05790813 25.6890503
Al 24.0331502 4.80297305 18.5943311
Al 26.1873674 7.30979093 13.4857673
Al 31.7642455 28.3366616 8.27720302
Al 14.4365751 1.74895107 1.96372883
Al 4.53268537 31.6963023 11.296848
Al 22.650184 2.87020223 11.7857238
Al 7.20053521 15.5186838 12.1111179
Al 10.8613045 19.2691241 15.27559
Al 19.264552 19.3868878 23.6000107
Al 9.09993549 20.8838025 21.4294093
Al 30.8690644 22.455748 22.025771
Al 24.0772176 9.120453 21.6800579
Al 19.1996884 22.0314304 0.0457654182
Al 1.12015575 20.4317923 29.8978153
Al 26.5517327 32.0125938 11.9686981
Al 1.32878942 18.9484656 6.71194844
Al 5.69836528 26.8329276 1.4713719
Al 24.7627754 32.3705862 21.0100635
Al 10.6783533 4.80599366 18.6605872
Al 7.07453828 17.5558418 3.55432719
Al 22.2385675 24.9721096 21.3081289
Al 11.8654686 8.93434494 13.4594157
Al 9.96739807 17.7622313 6.83455277
Al 22.6088184 15.0427533 15.5671225
Al 28.1046214 27.0831826 3.51939448
Al 11.0622368 24.586412 16.6981383
Al 18.0880357 23.5824658 27.0479466
Al 23.5950973 13.2062563 5.63261039
Al 29.289798 32.2566673 10.8396179
Al 3.92084719 24.4227373 13.9027881
Al 23.2286995 29.912832 33.0586063
Al 28.3193142 26.8391069 22.8397198
Al 1.04601499 8.02174185 7.31592473
Al 8.66140784 19.3625743 32.4648588
Al 13.4359584 9.60639756 27.3621174
Al 28.4542446 15.8004202 26.0324818
Al 3.37922475 9.4328568 14.2411519
Al 10.8571075 19.2136519 25.5507176
Al 10.6666611 25.9697682 22.081098
Al 12.8828532 10.3262893 21.7844333
Al 30.6449808 20.1988659 20.7407272
Al 8.38950203 10.8411056 2.82431
Al 1.69318622 5.9164086 23.8225901
Al 31.5469188 15.4696487 0.35773843
Al 16.5786161 9.76472354 20.4197096
Al 32.5334963 18.1835545 31.0945899
Al 28.3030896 22.0942909 23.2690811
Al 27.4906021 17.0173235 2.29128891
Al 7.59773283 32.4085195 21.6127628
Al 25.2449109 11.4030336 23.6618152
Al 4.23213629 30.2772338 26.210416
Al 30.2240634 27.30173 18.7679988
Al 24.5486426 28.6008635 29.043825
Al 21.6979079 18.628657 23.2819424
Al 3.53373273 16.5878572 28.17313
Al 21.4260045 27.5713875 12.8297673
Al 22.7939823 7.45913006 17.1557014
Al 0.359673899 2.75449381 16.2678011
Al 19.147976 14.0387621 28.0648258
Al 33.1154629 22.9401831 31.2082709
Al 23.4480948 25.5328801 4.39468658
Al 22.7595227 29.6131003 17.5280152
Al 1.32639462 19.2197686 9.43736116
Al 0.663414393 28.608178 18.0825744
Al 3.93919858 29.6461224 4.31841816
Al 13.7249947 19.3774896 14.9793718
Al 21.0847894 22.7311135 8.22387907
Al 15.8256213 4.48422249 30.9886073
Al 28.7764234 28.5738518 20.5030626
Al 5.66880394 22.9199279 9.46091756
Al 21.5607845 29.4524624 15.0680794
Al 16.2352929 22.603432 10.5504135
Al 13.1661923 31.0213981 32.7574374
Al 32.7984127 22.3228144 23.829412
Al 22.9192424 19.6521654 26.0171859
Al 4.59714603 1.11709897 11.3149415
Al 33.1649337 3.99826894 20.4155897
Al 24.3838138 25.7156481 29.5226841
Al 0.408557114 8.78600859 32.2768746
Al 14.3752795 30.455643 13.4640053
Al 3.29210778 9.7648984 28.1401723
Al 3.51937067 6.6307171 1.22904157
Al 30.4709598 15.8066715 23.9545906
Al 21.1282205 28.0555331 33.0166506
Al 16.5063476 27.5367086 25.455655
Al 23.4901657 28.6385177 24.0538151
Al 20.4767473 0.701304708 27.4530215
Al 3.63749319 7.20996317 16.8064512
Al 17.2585137 28.5729951 6.43468163
Al 3.27560961 27.3963775 25.1814294
Al 29.1541892 0.599437907 0.520161883
Al 21.2140158 27.6769435 7.15613905
Al 25.9793993 29.1494124 6.1476855
Al 23.7691906 8.24398874 12.9504053
Al 1.99013464 27.2334726 4.31928314
Al 27.7930715 12.3428214 31.9276293
Al 25.6133369 13.295013 0.995009793
Al 21.5233364 0.641313032 13.468599
Al 10.8666974 15.0899445 9.35001565
Al 16.2559855 14.1144766 9.3833951
Al 30.3134614 8.60958221 13.0255378
Al 17.7753718 24.6975268 23.3134446
Al 18.6229822 26.9900549 8.30886346
Al 24.2175647 19.3362669 6.30325263
Al 10.490358 1.39544693 22.0926299
Al 31.7550105 7.07924821 32.9572041
Al 24.962721 23.1509508 3.79177541
Al 1.17190504 7.87916744 4.41318207
Al 28.9915738 30.2398665 12.5001921
Al 10.9736825 27.4166292 31.3500263
Al 4.59217465 14.2895049 20.3946275
Al 6.37808823 16.616547 23.7735176
Al 30.0212397 2.51963 27.1233498
Al 28.7176725 29.9803343 15.3932076
Al 0.325212379 15.0187062 19.3470828
Al 28.0151371 1.56171466 31.6424359
Al 6.75900387 12.1199507 8.0637073
Al 26.1087097 28.702634 15.7659719
Al 10.6721716 17.4037607 32.0863557
Al 25.9777826 26.4893328 24.5614965
Al 17.5322851 12.5066063 4.16942677
Al 23.4008694 26.0338308 23.736685
Al 15.4382579 3.34281446 28.6460079
Al 26.3227662 10.5576421 9.08750259
Al 12.3913931 30.8929296 2.24314808
Al 6.77172539 10.4885946 10.4843931
Al 16.0795926 19.8815914 10.2370654
Al 6.12509142 22.0008108 30.2253698
Al 29.1126525 3.19338722 18.9573994
Al 4.52495262 9.42175657 20.1475798
Al 16.8246264 30.7527778 21.0329629
Al 7.21479738 25.7133544 19.779823
Al 26.6794857 9.97522293 30.277373
Al 26.2304734 8.60354306 11.1058659
Al 10.7175909 27.8347529 12.9705739
Al 26.7939071 8.67069384 7.39701819
Al 8.28212759 23.4079117 25.712908
Al 10.0109976 11.6334672 17.4509662
Al 10.4022622 24.3431121 24.1326394
Al 2.42403 11.0930347 18.6810784
Al 2.56632145 32.4980251 19.6518437
Al 11.512538 8.27799712 32.314707
Al 24.4949321 21.516042 19.5534916
Al 3.13820516 4.23083519 32.8284278
Al 3.1304378 6.94146906 31.8248918
Al 22.1126785 25.5366449 14.2385059
Al 12.7697744 26.0794676 6.15133794
Al 20.1385089 27.167796 30.0472963
Al 26.7020855 31.6526767 14.952103
Al 5.88885382 24.3354243 26.2687739
Al 11.9017917 6.37861834 7.87852021
Al 17.5065573 2.88202656 15.0522726
Al 27.3706775 1.6756557 19.4131805
Al 14.8936126 32.0426681 21.9087619
Al 1.26291108 27.8417289 29.7749743
Al 0.0198713273 16.4235153 9.12547071
Al 5.43996589 2.50907845 16.3347061
Al 27.2980121 6.4320959 9.92383108
Al 24.4521603 7.02692472 26.313979
Al 31.0722504 3.4907028 4.27315796
Al 7.20213345 28.4586353 24.3477633
Al 29.9942946 21.3102744 29.1623054
Al 28.9949546 32.3906161 4.76569849
Al 22.4207738 11.6353843 2.93764228
Al 8.70245606 0.231709243 14.0183816
Al 6.97373008 10.0991083 31.805201
Al 32.0873777 29.5869639 19.8951202
Al 4.39366967 20.1775357 0.509814936
Al 5.18100557 21.9559145 25.1649083
Al 29.7911178 17.6899675 19.4173384
Al 17.1706623 28.4373822 17.0465218
Al 6.34044174 31.9224306 9.39317225
Al 13.983861 21.4474573 9.43741753
Al 27.3620893 16.0221838 11.9819236
Al 25.4777761 29.5000913 0.84766204
Al 15.5802644 30.1433424 0.649611998
Al 11.8461854 0.336056774 30.56559
Al 10.3142987 32.4696756 11.9325471
Al 15.6450325 23.9870251 1.97525266
Al 6.67039787 18.9504226 22.4939193
Al 18.9566934 28.3021646 10.456292
Al 3.11420574 30.114145 23.5209414
Al 22.3842091 15.0938553 7.46199164
Al 19.2421687 21.8831216 18.3631553
Al 7.08867566 16.706431 18.1651485
Al 32.5535919 14.5556333 13.4148044
Al 32.3128494 21.1198036 15.2481643
Al 13.9021856 22.8662129 13.7051204
Al 30.1992077 29.8657106 33.1250817
Al 16.0711594 28.0898646 11.5430963
Al 8.50351067 11.4352966 21.222743
Al 3.01245499 9.20653726 5.29571966
Al 6.14860182 15.1498081 4.17748431
Al 0.938927821 28.3751183 32.2177266
Al 2.25241322 18.2415013 31.4315712
Al 0.212565417 23.4509963 6.93791734
Al 8.19509393 14.8293181 24.1208909
Al 7.4206552 30.7193845 29.9654876
Al 23.0680363 31.3857672 14.0055793
Al 32.852739 25.0280134 22.7673552
Al 21.9607657 12.6029931 18.6731731
Al 21.434346 5.93013139 18.8413775
Al 6.84394314 13.2337348 25.6699441
Al 9.02156983 17.7306326 13.4957875
Al 13.7818238 5.41402394 10.1872726
Al 14.4050786 21.2411964 23.3960004
Al 10.6983123 10.6968872 19.8164164
Al 13.0702121 21.650553 31.8589696
Al 7.05964553 18.1024562 11.6791287
Al 6.3370117 28.1628256 32.2727608
Al 3.73568581 6.9011728 12.7114674
Al 20.9323734 2.79871027 9.82896744
Al 15.7927863 28.3272681 14.2406301
Al 15.6373846 24.7058845 26.3692919
Al 5.10127481 23.7935672 23.3729216
Al 2.04651735 8.85547628 30.1759525
Al 25.2238403 8.64078302 0.185073925
Al 5.96570974 20.7791249 16.8654607
Al 8.00168685 32.0341935 24.5266184
Al 2.82128443 3.60327002 28.1801684
Al 24.7716129 2.51608928 13.2936537
Al 5.67920084 7.70188226 24.2871997
Al 3.1229426 23.0163301 6.42236992
Al 19.4746633 26.111828 20.7157405
Al 4.97146164 11.6326153 32.3146618
Al 25.233434 21.2244465 15.5491577
Al 18.9921344 7.97958897 28.5357341
Al 27.8328535 9.52904521 13.9811059
Al 26.1037268 19.4620304 19.7623503
Al 3.64642612 25.8187213 27.6755192
Al 13.9697078 29.5986023 21.276169
Al 8.01296767 4.92846068 17.1261154
Al 15.8768979 5.14370359 26.7828708
Al 1.65472875 18.6740216 19.0498039
Al 14.4112159 3.48664456 33.040138
Al 29.0493063 13.4642369 1.23085438
Al 23.1109686 23.6047186 1.88657162
Al 2.8245059 12.1183208 1.28890773
Al 2.72286299 4.56372572 21.2616026
Al 0.631090524 31.697241 5.45090226
Al 20.9093905 6.12277367 29.762981
Al 29.3797647 14.4430206 28.5603968
Al 20.1103838 5.20950553 3.81208103
Al 12.1168049 23.6078983 20.834781
Al 27.1824484 28.4374568 32.0916579
Al 30.0446408 11.0451361 1.86327563
Al 10.6643635 0.33384277 32.956433
Al 5.39815408 12.277649 23.309137
Al 5.09577828 6.08141523 3.56493243
Al 18.8612548 5.60346738 23.3632536
Al 6.22496469 14.7297468 7.09662204
Al 31.8562627 29.5690579 13.71212
Al 31.2587134 16.7147712 27.5244487
Al 25.2824063 25.0720996 9.16608457
Al 20.4020397 32.5326544 21.5818954
Al 2.16591463 8.49607905 18.9643893
Al 32.147828 1.5142809 2.76605542
Al 17.57082 32.0091374 2.70139249
Al 0.259737598 31.1459062 18.2895297
Al 10.0154759 29.9308727 25.2286686
Al 27.7799206 22.2895109 12.4237425
Al 2.69764601 13.9568402 22.3130885
Al 19.7104499 28.1763496 27.6776996
Al 15.4330058 19.1858852 32.3310553
Al 23.8867093 24.0754672 27.7822604
Al 32.6885129 12.1280493 27.199201
Al 30.6402477 12.6848476 30.0742797
Al 27.3721099 15.2510321 30.1005515
Al 7.87089726 1.69106071 22.7201744
Al 9.68535537 5.38179599 6.46720649
Al 19.149553 31.2893442 19.6976488
Al 4.98122607 9.60995469 30.5265698
Al 24.2802705 18.8199464 14.8967131
Al 32.263282 4.51831356 17.9892343
Al 25.9303593 6.41461654 31.463093
Al 0.283925092 30.5441954 7.91098466
Al 6.58593626 23.0286806 20.6392728
Al 31.9102368 32.1610736 3.57022122
Al 10.4533988 9.20319409 16.1610946
Al 21.7075701 22.2164412 0.506117143
Al 22.740977 1.7052144 31.4524738
Al 3.86888724 25.5228424 32.5003294
Al 29.918434 4.14033648 7.91896739
Al 6.19122207 10.473172 13.2838222
Al 25.6206445 28.6033655 3.29977055
Al 20.4752089 31.5353911 31.9438893
Al 11.8095608 19.4015621 18.1548885
Al 5.32764376 9.628346 7.27207809
Al 3.57421126 14.5113438 4.71540036
Al 5.99135904 16.4935416 14.5320022
Al 18.8283846 23.1898542 9.33607437
Al 22.2505488 19.820718 15.788886
Al 2.03847544 11.762183 26.545674
Al 17.1646864 7.15182517 30.307675
Al 7.36689294 5.58252804 5.13205999
Al 3.45326944 11.9450687 3.85229046
Al 12.5462721 5.80165735 2.74645359
Al 19.0040143 13.8999368 23.9465131
Al 0.879934646 28.0128807 13.3875852
Al 8.78696268 14.6292902 4.71034609
Al 11.4891707 30.3929256 30.6865466
Al 11.6093631 12.3754839 23.9340325
Al 14.6912879 10.9363207 2.44416745
Al 1.85007811 18.8037641 3.94674633
Al 15.0671154 12.3924538 5.14218176
Al 28.1701982 19.157283 21.302763
Al 0.471003325 0.420016967 17.9469264
Al 4.55670188 17.3627059 10.4238534
Al 22.121585 16.7602949 27.8524565
Al 6.28253361 19.5080433 19.691582
Al 7.45869773 10.1404557 5.54979039
Al 17.2314402 17.3093586 32.5615301
Al 24.4905026 27.3144125 31.8003272
Al 8.3604797 25.9792605 5.04960003
Al 23.6820145 9.72211255 10.6887857
Al 31.6233703 30.7611639 26.960394
Al 6.08959542 18.1297413 25.7021104
Al 0.799097001 4.31587471 13.6665365
Al 14.5002243 8.22690567 13.8439383
Al 9.73331532 27.6355924 23.9098453
Al 31.1132611 16.9804379 15.1970901
Al 23.4309985 23.036122 15.0146374
Al 32.5649098 24.6134458 19.7603186
Al 17.2599505 15.6903953 1.96310526
Al 28.4023851 4.61891641 22.0219812
Al 8.6007679 10.5522644 29.7859471
Al 25.9436112 25.4885349 3.64384545
Al 4.09775483 4.07908596 2.12862794
Al 11.3634788 7.54815604 18.7252105
Al 3.52473461 32.4774411 32.1170895
Al 18.5833322 0.334701529 32.0687628
Al 3.88064564 19.0700331 23.4926917
Al 8.1134618 3.65194592 8.99190255
Al 16.3082226 24.7637344 29.2315763
Al 11.7793107 20.5138314 10.2383796
Al 5.09123917 5.07594711 16.9431782
Al 24.7089521 10.6209614 17.2500359
Al 13.3402825 8.69916459 6.93316945
Al 7.65071746 16.674401 6.05275015
Al 11.8500072 11.9074321 26.671093
Al 3.00248232 28.4240686 27.8307939
Al 29.7175013 9.55646441 15.9404143
Al 32.3744123 17.5119791 23.6571078
Al 30.2451982 15.5069838 13.1878758
Al 1.77919994 17.4823289 11.0990984
Al 11.4363266 10.6230852 29.1012236
Al 12.3499014 8.24088075 4.21561689
Al 19.2917546 6.36796802 8.05505994
Al 12.1017621 5.83170212 22.8803038
Al 1.26258851 30.3317738 3.17553112
Al 10.1210823 24.4025499 27.2907382
Al 25.8862137 11.3531505 26.1873016
Al 23.6204424 20.9505001 23.6514857
Al 30.8319991 10.2032866 9.32559591
Al 3.52297303 19.9047686 28.7226116
Al 15.2102884 3.95043746 16.198374
Al 30.4894604 5.98420221 30.7944894
Al 22.0392994 30.1938909 22.2429385
Al 0.135278748 27.0990082 20.4211832
Al 22.8500414 32.9313661 22.8486138
Al 1.320529 9.77445836 21.1604861
Al 6.77814875 5.9930388 25.9470344
Al 28.385258 4.30409137 5.76242912
Al 31.2765219 10.8207437 6.74773351
Al 32.3577342 24.7800195 4.75413344
Al 20.3491077 2.53837328 32.5893143
Al 7.43628019 24.8046695 22.6179564
Al 16.0337573 15.8305119 7.36460992
Al 25.9388227 16.2240655 24.6036833
Al 4.19778894 28.4731774 15.5878003
Al 12.6715097 16.8915227 2.63551818
Al 29.519996 18.2283011 25.0025913
Al 3.85849051 25.5324868 16.3076981
Al 1.95233306 11.1089535 31.8151202
Al 13.4151598 8.15423248 16.3822973
Al 19.3588066 0.818655332 4.55366132
Al 7.40586473 27.966854 29.749147
Al 5.38476368 29.9505546 13.3202438
Al 29.8156666 30.9536818 2.44824379
Al 14.7179003 5.49058148 22.7426054
Al 28.818155 23.8608255 0.699556529
Al 15.7541121 21.6405398 15.308381
Al 10.0807683 17.1725395 17.648066
Al 3.97290312 16.2186346 32.4672665
Al 26.9475997 11.7049229 18.8744656
Al 23.7473143 6.41360573 0.722529485
Al 5.75553119 30.9005418 31.9379387
Al 21.5762158 24.3501592 16.7639561
Al 21.4578699 30.7573318 6.3171046
Al 30.029439 25.8208609 27.3436921
Al 13.2091628 14.4526126 16.2558814
Al 0.800787441 15.8670785 30.5771893
Al 27.4422757 17.0514437 18.8037842
Al 28.2761762 15.2253685 15.0706641
Al 31.1702137 31.3757947 6.63725233
Al 29.6699822 2.64910095 23.6929873
Al 25.6146474 19.1589779 8.62152934
Al 24.227319 32.6335851 7.35193722
Al 4.04797757 16.2953191 22.2207323
Al 6.1815954 25.9148759 30.9826881
Al 14.2647135 17.8948588 19.2318164
Al 3.2724177 23.3865404 8.99710273
Al 9.56892279 1.8121303 27.4001954
Al 23.9483254 19.411443 21.3050298
Al 17.3384232 2.67798784 27.1423675
Al 29.6056238 1.56826546 3.34607189
Al 8.95324092 29.2874261 31.7016839
Al 32.6594472 26.0212337 7.04876472
Al 0.338890165 10.6402077 25.0873659
Al 19.3754873 5.05172698 0.860238045
Al 19.9979349 2.91959667 12.2894415
Al 16.4552964 10.4862325 6.49001995
Al 12.116739 3.95561774 6.64906541
Al 4.63203477 5.30054886 23.8639486
Al 17.5077455 21.6233038 7.49147261
Al 27.8065467 23.9774103 3.31429373
Al 32.4691251 30.5594698 32.1777006
Al 24.2968275 24.8627856 32.9200036
Al 18.7810076 26.894182 18.2667568
Al 18.0340042 27.9865777 3.87082787
Al 20.4504043 25.4301988 27.4511702
Al 7.97340721 29.1247097 13.5529379
Al 4.45967753 11.2781555 9.48999597
Al 1.83606434 2.46737508 19.1777736
Al 10.041499 10.3737191 25.6591722
Al 9.48242966 7.0138429 12.7991309
Al 4.86749199 9.3952134 17.3745675
Al 9.7856285 24.7540944 12.0492837
Al 12.2078976 4.39100734 15.4983879
Al 20.0128973 3.27327924 27.8590167
Al 10.0628258 30.40082 14.2442124
Al 25.8503011 2.59654128 10.59843
Al 30.4047427 23.1617702 15.6181583
Al 24.0695979 7.66537805 6.12868798
Al 3.53988208 31.2921683 14.4128054
Al 0.465066991 3.41310661 9.20489199
Al 5.82413449 10.3945809 3.5530419
Al 20.7139797 15.8484425 23.2407029
Al 11.8549562 21.7136275 25.5589579
Al 24.2277464 9.16700485 30.5023707
Al 8.21274528 8.35706799 25.1037414
Al 32.8414076 15.2927862 25.0766169
Al 12.7642925 7.91543619 29.9439027
Al 15.9510135 32.3078507 32.423832
Al 11.4228136 8.21337212 21.3077728
Al 15.1897683 25.1642932 32.8586614
Al 13.7810489 25.8491507 21.4582747
Al 17.9823836 28.3835539 20.239878
Al 1.66912872 25.1065948 20.8560651
Al 4.22051111 22.6002387 31.9640323
Al 18.6517174 7.96679177 1.09399801
Al 22.6124979 4.14446203 27.1029343
Al 26.838998 9.92399708 21.7773556
Al 4.7062319 17.4153243 30.2541842
Al 1.99192805 9.01670202 16.4631903
Al 20.1282122 31.2510777 27.1550172
Al 11.3443077 28.5310862 5.3906225
Al 8.02134748 6.93870893 14.8783729
Al 27.9957464 11.292669 23.9795852
Al 7.60334118 6.13916979 19.8569331
Al 8.01417961 0.730798437 8.69157115
Al 22.7205308 2.75150544 7.74730389
Al 6.53005762 18.039603 32.1874169
Al 17.8777704 2.95318493 29.9821247
Al 25.9992598 3.93524648 23.4894059
Al 3.81893441 29.8967762 19.5848409
Al 3.22491331 8.42592765 25.8776471
Al 6.61346909 7.06005244 12.4104291
Al 24.4997809 13.1777586 17.8837558
Al 4.91177419 12.2839568 18.32121
Al 17.041087 33.0130705 19.4551509
Al 1.93920993 16.1672156 2.91502483
Al 20.0725796 10.5909264 11.9137516
Al 5.3639259 7.97655204 5.10437909
Al 0.287712505 2.32523108 11.3653164
Al 24.9607301 28.5327031 18.472301
Al 15.7777406 19.9003795 27.4954301
Al 13.1795489 6.06597771 5.59924764
Al 27.3652107 13.8628179 7.96484458
Al 17.8741305 27.4268315 22.9349433
Al 22.2440007 29.5188434 27.9910268
Al 13.8452709 27.8485676 12.8946696
Al 18.9168657 2.83728398 22.8311019
Al 10.7372304 6.59930797 16.1604865
Al 13.5091501 0.774258534 32.7998554
Al 15.5013015 4.71592402 11.8809731
Al 19.5602631 7.31934667 31.7402806
Al 23.6946197 30.1199895 20.3660115
Al 19.6489277 5.1504439 10.3306214
Al 4.02394879 4.52569478 7.57341791
Al 32.5246331 11.2144727 22.5547574
Al 12.8828502 3.14605474 18.3065155
Al 32.7220522 20.7995816 11.7612492
Al 27.0598489 22.1672524 32.3744557
Al 32.556607 13.4936764 5.74192789
Al 28.9437295 8.13358544 29.0072609
Al 26.1753993 31.1344828 7.90726143
Al 30.3270898 21.7458717 13.5229025
Al 21.4273511 10.8131729 20.3585889
Al 19.5314216 11.5209469 17.4408991
Al 30.4441382 11.5152541 25.1024749
Al 7.28790169 0.925337387 4.05527969
Al 11.6932686 18.2954381 23.3004821
Al 8.8446169 32.1716427 31.8973664
Al 1.48949926 13.8406942 24.5807807
Al 30.8031748 9.46446395 32.9965452
Al 17.5461064 31.2321039 5.7854587
Al 31.5202402 8.78051955 23.6782123
Al 29.9291479 19.8672705 15.5209194
Al 17.1847052 23.4991336 12.8693374
Al 6.65812641 16.5753446 20.9360223
Al 15.7408136 23.57756 22.2588422
Al 31.1624356 4.53555884 25.6448981
Al 16.99021 25.4819067 9.92345937
Al 7.2925981 2.70783404 18.3793456
Al 28.886474 1.17354684 9.12428652
Al 15.2761389 17.2721082 26.097518
Al 17.6644234 23.0383521 31.3246002
Al 16.3869346 16.6068979 21.1099604
Al 16.7234678 25.9204864 20.9377463
Al 17.7418292 26.2619737 31.0407169
Al 30.6464699 24.3096706 29.467846
Al 10.7464505 20.4264449 5.67883512
Al 4.39108471 30.795889 8.27864188
Al 12.377745 10.5379853 17.405247
Al 10.018448 12.5162354 4.17746343
Al 20.6026955 27.3246945 16.27765
Al 14.216897 5.16917583 14.3165955
Al 17.508034 30.638197 13.0970428
Al 11.4794907 18.1931312 12.6831677
Al 23.0568546 19.3339679 18.3642252
Al 16.8708488 3.27732175 2.84348981
Al 12.6291814 25.1451338 8.83310056
Al 29.4375148 11.5645894 17.8044226
Al 13.5551711 1.21155575 28.3379194
Al 14.8620771 11.8959993 20.0647993
Al 0.00100721059 22.7822589 13.4771322
Al 18.044079 16.7026865 24.1483246
Al 8.84075746 11.4923068 12.1176259
Al 10.0260066 25.6368236 14.4558363
Al 6.22549205 26.4340147 6.62985035
Al 31.5737575 15.7853008 20.9280298
Al 28.0927166 24.458024 8.23583549
Al 11.1697868 32.1730003 18.9525865
Al 20.4545674 16.1893661 15.363187
Al 15.3110123 8.81603513 29.7349256
Al 5.56667264 27.1240343 4.1154247
Al 25.7480379 21.1416689 10.4646261
Al 6.3030663 7.43233437 17.4611082
Al 17.9438913 24.5469398 0.440997749
Al 9.26890755 1.86262036 30.6769162
Al 2.01580913 24.4427896 4.47589614
Al 23.7768297 5.14865231 31.0758967
Al 26.5726505 1.55347332 1.6869857
Al 23.4264749 22.5347794 21.4622967
Al 5.5781719 26.1858693 24.2323215
Al 29.1106317 29.2034776 6.96567485
Al 29.2683109 1.7736303 6.38871544
Al 12.1267052 26.7093326 3.77097184
Al 33.0081671 28.2794029 5.83782398
Al 10.3639008 4.53738975 12.1963117
Al 5.46183772 25.5873927 8.99340967
Al 6.26517078 32.4817085 6.64912361
Al 9.00278564 2.26488557 0.0553936482
Al 14.4945585 1.92537195 11.1912349
Al 1.5899141 18.8553438 21.9135514
Al 13.0793094 11.8493852 31.3961476
Al 4.2363398 17.5768109 4.21247533
Al 1.29936364 15.1959683 27.112308
Al 2.32863287 20.4997956 1.97631765
Al 31.4995626 32.5410637 0.762528325
Al 12.4298727 26.8540317 23.5989943
Al 23.6844464 4.81518935 13.7243694
Al 30.5295481 26.8482566 4.74973995
Al 15.1980428 25.7928993 13.1880952
Al 3.86333609 27.324349 5.95977562
Al 4.13920132 9.64123389 23.3080139
Al 10.7884389 29.8591806 7.71230567
Al 29.1711003 7.67106473 1.07346541
Al 3.07503223 25.7033006 2.21622822
Al 13.0941074 18.4709844 4.74577101
Al 13.5165034 28.3463457 32.7838156
Al 23.2901367 22.4554462 25.9401182
Al 30.6070917 33.0928613 25.2841561
Al 10.1353648 5.94637328 25.4147458
Al 5.68626413 12.4469897 1.88007599
Al 10.4069673 22.0885127 27.7343546
Al 17.7658259 21.3456483 4.54123007
Al 31.3763675 25.703779 24.9934851
Al 10.8244441 0.00904955062 8.56179409
Al 15.9977629 10.6504956 27.3697849
Al 7.42028711 26.9119996 10.1867133
Al 3.41504675 24.3632249 25.442049
Al 32.1634011 5.62948801 7.77979838
Al 7.52129583 20.5225802 9.82767575
Al 20.5560842 17.0257133 17.892316
Al 2.38450098 29.5101706 6.33716083
Al 31.5599777 28.2110383 25.6059216
Al 24.4835919 25.1017101 13.4383207
Al 6.76951023 21.4129099 32.7544937
Al 13.2433238 19.661783 25.3379364
Al 14.0221635 32.4690441 19.539287
Al 30.3503834 30.1941384 9.14300348
Al 13.7126298 30.525936 29.2154494
Al 19.1199633 11.3848522 7.27872528
Al 21.4232956 9.25844754 22.5742957
Al 1.33682715 12.9856044 8.55960308
Al 5.41887032 1.51117293 8.48183482
Al 29.4315769 3.63000731 30.647247
Al 15.1235896 16.7970043 23.5182304
Al 9.14096406 18.3312972 21.8577185
Al 18.4322422 14.8582687 17.8699184
Al 4.90712071 21.194621 21.8037712
Al 30.381092 19.0363992 2.44930993
Al 14.8839346 25.2560784 24.2098191
Al 13.1044976 20.8550793 28.4257438
Al 31.3844892 3.22786451 12.8658297
Al 20.7966129 22.6758317 27.4382667
Al 19.8657654 30.1638604 29.625189
Al 5.31023941 24.1729667 29.1885166
Al 30.2238163 20.5644468 8.52708401
Al 7.97802953 4.7748122 32.6204838
Al 1.8073599 6.60952444 27.8238662
Al 11.7276041 13.8280515 31.6530124
Al 14.9568319 26.679944 30.4978012
Al 11.1775255 1.61643307 4.95330387
Al 7.9833115 25.6619934 2.12838964
Al 17.1505966 5.72315008 9.87964204
Al 9.16557028 8.65355582 10.7084164
Al 26.3686501 26.2501861 27.1887535
Al 1.55445499 19.6608998 14.3937326
Al 16.3049414 32.9850861 11.8672495
Al 20.6363904 4.35043126 6.66319749
Al 12.9641142 19.0228781 31.5942091
Al 3.38712689 6.64492811 6.22208619
Al 27.6552389 24.2348759 17.8812262
Al 16.5836551 8.51978193 8.70469265
Al 11.2868539 3.4742962 32.1386985
Al 13.2385482 8.34899941 1.6215751
Al 21.3389529 22.0584143 10.7878982
Al 20.0943377 10.0607384 2.03144986
Al 8.45435688 3.15919236 5.21233617
Al 3.05751782 8.30931571 9.2553012
Al 14.2971592 24.3277325 10.5406544
Al 5.59002695 28.0908739 19.7983077
Al 19.4290862 4.68814185 20.3258863
Al 26.5324981 19.49005 26.7109323
Al 13.1265228 23.3199488 0.411341114
Al 14.5777145 23.3081639 30.7804977
Al 18.9560148 17.7769253 1.75647847
Al 5.33266837 2.90881752 32.7349761
Al 15.8404003 21.9981312 33.1384116
Al 10.7557224 21.4331039 32.8125216
Al 4.47066118 1.2308313 28.3386257
Al 24.489401 4.40252832 9.17392839
Al 14.9074967 0.565681222 9.02684336
Al 10.5183229 5.97119871 31.6536924
Al 4.07300461 12.0090036 13.261484
Al 30.3929882 22.9583265 24.9346876
Al 16.4518081 14.7766648 4.3663743
Al 8.10369544 15.7543373 31.0593342
Al 5.43442413 14.8171268 30.2311888
Al 5.2616257 17.9042731 16.5425958
Al 27.4216762 24.4634878 22.5125135
Al 21.1508808 2.12223869 22.1020109
Al 12.1478569 15.5779882 0.20113712
Al 20.1255039 12.0218735 26.8479396
Al 22.3721164 26.7611589 28.3453536
Al 11.6053611 27.3677256 8.07133601
Al 29.8615988 13.1229877 7.20473712
Al 31.520645 8.71833489 20.7227975
Al 16.5459835 26.6505066 1.90405283
Al 1.71787262 29.8255188 26.0636894
Al 20.1878112 6.60427386 16.7676888
Al 0.571803574 1.89748995 28.2159791
Al 32.3911636 12.9575008 24.4710289
Al 20.9344043 15.4464795 20.3485277
Al 23.6269994 9.35522417 24.6993914
Al 22.3357783 26.4049169 18.9676307
Al 28.8246421 5.65273631 19.0436058
Al 11.9681555 0.479875146 1.93627122
Al 10.1348804 2.44838394 7.6469269
Al 28.4035326 32.2778002 18.8487707
Al 8.34397957 18.5577649 27.4173482
Al 21.003358 10.1532891 24.9118539
Al 10.222425 28.0295785 28.7609878
Al 17.7074966 18.9426266 11.9595354
Al 19.5860946 31.1004859 9.93185414
Al 33.0605906 13.5458619 31.3022865
Al 19.3785712 26.0294637 5.89363394
Al 0.532731959 17.183648 14.6567173
Al 25.0084684 21.185268 27.9134088
Al 18.5617086 23.5935331 5.01563717
Al 15.0390453 14.7289343 11.8593586
Al 6.48955795 24.9133038 14.9110199
Al 1.50072976 2.41566937 21.9536219
Al 10.2552507 12.1004558 1.52414873
Al 8.80954087 3.02572544 20.5886853
Al 18.4743244 2.64832384 9.39063383
Al 13.3544456 25.7958945 1.59086803
Al 22.06734 5.14889229 8.992567
Al 19.4926455 18.6846263 15.8534799
Al 28.9283504 13.2406273 12.162677
Al 12.5452144 1.82674408 16.1299825
Al 24.6575715 15.428398 28.8042041
Al 9.96332685 5.99309911 1.28385738
Al 17.5684203 26.5515085 27.5467533
Al 28.6800849 15.1567421 9.80084916
Al 26.7273725 17.2904529 4.85576695
Al 16.465724 19.5184941 22.2216918
Al 6.72484888 13.3000884 13.5016451
Al 17.0508705 11.500273 18.439904
Al 10.3493259 13.9753918 25.8335728
Al 3.51809622 14.7485569 1.47982627
Al 32.0519367 1.68176949 22.8431601
Al 3.29493748 4.53732394 14.6061626
Al 22.5421757 11.4890692 23.0414016
Al 17.2542778 0.00746501767 22.0611847
Al 18.5878351 7.21958863 25.8922313
Al 16.4539768 14.4843584 19.651313
Al 16.1571043 16.2144096 30.4925083
Al 1.38553682 29.7854125 15.6778818
Al 8.97457288 14.6718026 17.5344018
Al 20.4574831 21.9617844 15.8414255
Al 24.8071115 17.3436571 12.6582097
Al 4.24387896 9.83047037 11.4831869
Al 8.22774229 20.5290465 14.6276579
Al 12.2633151 33.0405901 23.5253357
Al 2.36648805 21.161602 8.02020061
Al 24.0835347 17.169843 1.61261787
Al 3.54976708 17.7857141 13.2394966
Al 5.62532981 8.30666546 27.0524071
Al 7.60864442 9.25140081 19.3637695
Al 30.6987676 10.9021254 28.1821125
Al 0.372577595 29.207283 27.9202188
Al 29.6678055 11.1973413 4.90134408
Al 26.9743703 25.8193193 31.8821069
Al 18.8533443 9.9450431 21.2214767
Al 17.7875914 2.87680935 0.369575636
Al 7.22721834 28.5917076 2.92694776
Al 14.3137008 17.6625752 8.39659426
Al 10.9929776 12.6224238 10.7757546
Al 18.1405926 12.0260725 13.3946
Al 21.7610426 6.91256067 14.7024784
Al 9.10423028 20.7518123 1.58489344
Al 13.2622121 0.525871653 4.14664542
Al 29.6312866 6.82562893 26.8249272
Al 9.32455654 2.4173364 10.9014279
Al 5.77340996 12.7349454 11.2705277
Al 6.81331527 18.4545356 8.5455227
Al 26.9868771 7.08623443 26.5417192
Al 1.74775701 3.09170508 2.43483143
Al 13.2566954 3.10304543 8.73045429
Al 3.6993996 23.1542278 21.4459357
Al 22.2334942 19.2536422 0.907258888
Al 31.5316731 0.510212331 5.48437833
Al 10.7889343 27.2264087 26.1899239
Al 1.81711006 5.16246706 11.3504371
Al 2.00841172 11.3304715 23.4661867
Al 21.8549611 20.7089319 31.5167804
Al 22.312485 7.66856261 31.6946828
Al 22.6285428 1.61382196 25.5452582
Al 20.2827921 11.3904159 14.5362953
Al 10.7830878 23.9921723 32.1644617
Al 5.37129281 7.84795388 14.5691762
Al 8.82312452 18.9833055 19.5354752
Al 25.5462113 23.7657462 30.5999152
Al 1.9481381 30.4335323 0.513822107
Al 27.4288231 31.9883746 2.46446771
Al 12.7361148 4.701491 30.2638111
Al 0.933462051 20.3813034 27.2923376
Al 31.1191556 9.09665708 26.2615864
Al 15.0870579 29.8849144 31.2841334
Al 11.0162391 21.4416584 19.4980407
Al 11.9273935 3.73076517 20.8672564
Al 15.0908728 27.45292 22.9331533
Al 22.1563562 13.0952196 13.4949669
Al 6.89810534 12.2912977 30.6808294
Al 23.7227119 7.56750069 19.6969299
Al 24.4615899 31.2229435 10.3512653
Al 6.14633043 1.67555705 20.539466
Al 4.4784801 19.7598283 31.2470764
Al 5.11811887 3.38050042 29.9303038
Al 32.4567792 4.64526377 28.9993612
Al 7.73403624 24.0678602 10.6858634
Al 0.697848916 10.2318097 5.9354629
Al 22.99469 5.13069431 24.7545587
Al 27.5821698 11.5619313 2.73339095
Al 30.3052028 27.1580456 13.5609673
Al 30.2696301 14.1337495 4.21358627
Al 7.13770295 30.4921378 26.3625273
Al 6.40603831 21.9924658 2.14204131
Al 17.661637 1.63373092 17.5294835
Al 29.311821 32.3202952 16.4997196
Al 20.8870698 19.6953334 7.98269755
Al 18.6978976 20.0657305 9.70986804
Al 32.1279546 28.1211814 22.4701538
Al 30.4102726 16.7008878 8.34736417
Al 27.3892437 3.59445968 3.46133288
Al 1.32258439 19.7420568 24.4551028
Al 22.5061921 9.37524352 0.448052826
Al 16.9124183 5.42662016 21.3427141
Al 14.0541307 29.7779169 10.69415
Al 20.9780702 12.0419737 5.46638162
Al 26.1387006 28.2912457 21.5263679
Al 18.323614 21.3838334 14.5062417
Al 1.51768031 10.2105032 3.22933459
Al 11.4198687 9.87864076 11.0210524
Al 22.2325215 1.14100124 17.4207575
Al 18.3736801 5.08584137 28.6959489
Al 30.8101166 26.4744288 21.2137548
Al 8.76668518 0.195539847 5.97032775
Al 0.239572913 10.2937025 8.62938764
Al 29.1363166 13.6925876 23.6595728
Al 10.9120295 23.0582556 14.1056537
Al 2.54942342 1.22064575 4.48582339
Al 24.958101 13.9547843 7.89332142
Al 29.2670628 12.5961192 15.1698938
Al 7.73630921 2.56889623 15.1611823
Al 2.10691854 10.960787 10.4081542
Al 24.6803585 1.77824441 18.5701783
Al 27.68068 9.99128085 0.617765352
Al 15.006174 2.04858018 26.2490801
Al 22.4139377 12.0104598 16.0381796
Al 32.5318634 16.1485179 6.55442066
Al 20.6997065 6.10999582 27.1833819
Al 19.8022984 23.85741 11.8844475
Al 9.5063044 17.0845592 24.5381876
Al 24.8048765 7.2487153 8.87155987
Al 8.62277567 15.3711974 14.8484916
Al 15.6582143 14.8702304 25.5457514
Al 1.79437045 15.3878932 12.9521964
Al 11.3917227 17.7374411 9.23055487
Al 26.9941423 30.4964974 29.4331888
Al 1.99572472 22.0266872 10.8747007
Al 12.5384898 5.89702426 0.128110373
Al 28.7263387 32.1947869 7.89103337
Al 12.460594 16.2378853 7.00647465
Al 9.14669403 16.8794111 1.55171788
Al 22.1878204 2.61835414 14.8352672
Al 32.1029108 26.9174541 0.809623843
Al 11.8711498 22.8938511 11.5735414
Al 22.6246132 1.79174638 28.6725435
Al 15.2012938 17.4871452 13.2154578
Al 11.4708107 16.526823 21.3083865
Al 10.1480774 11.8115313 31.7847235
Al 30.6519514 5.61950691 23.5605404
Al 11.7046042 13.7953402 28.8170184
Al 8.51507607 20.680364 29.4060141
Al 8.10523215 23.0077559 13.4470861
Al 30.0540106 30.0105541 18.0485588
Al 32.9010468 5.53793279 4.10018506
Al 8.73916546 4.73198452 29.7834323
Al 28.0594098 29.044161 1.4712882
Al 23.5746416 14.5812446 10.3838596
Al 31.6617759 8.40398918 7.55233261
Al 23.8110669 27.566059 13.9985695
Al 5.7970425 22.1689219 14.2901066
Al 5.17674863 21.9824663 27.7058265
Al 8.66396682 13.4969241 7.23011379
Al 28.244072 22.3038965 9.59369556
Al 25.1019589 1.87507122 8.36010507
Al 26.3318264 13.9717425 10.3232482
Al 17.6434339 32.9477878 9.36327714
Al 20.3261747 29.8223722 12.4468758
Al 26.009789 2.91137496 6.11148074
Al 7.37563578 9.67830819 16.2786184
Al 20.4432699 3.07664096 17.5872837
Al 1.03409861 4.62321424 6.14883168
Al 0.0792203451 4.35518519 22.9072687
Al 29.2815589 7.62864262 22.3636933
Al 27.3136417 24.9573247 28.9917945
Al 17.2871973 10.9124656 15.6125628
Al 28.6323099 18.9200957 8.89792834
Al 13.1998062 22.6728225 18.5410356
Al 32.718661 17.3365753 12.0954439
Al 16.5850953 24.0965457 15.2544439
Al 17.9957971 8.08587881 16.0782797
Al 8.82482552 8.23305538 21.6361961
Al 1.94068373 4.50369122 30.433664
Al 1.00984071 24.3778309 25.0045441
Al 22.9269625 21.9619896 17.2125016
Al 27.0809894 15.6415569 0.181532807
Al 32.6274043 20.4591488 3.42355405
Al 17.1633819 13.1942793 6.90725042
Al 30.9292124 3.66018851 15.6411589
Al 11.7451591 12.7378325 21.1004659
Al 23.9792622 22.9006686 9.52765087
Al 11.8956139 23.7431103 29.668543
Al 26.2204549 7.50244715 2.46504541
Al 31.2011732 15.1713504 10.8457808
Al 14.5984605 17.1183489 0.298961577
Al 9.46595757 25.3083194 30.0517918
Al 16.6957191 21.7081781 20.6902554
Al 6.92481519 16.9144273 28.8765385
Al 29.8243459 17.7525994 5.81443626
Al 6.25822892 21.0449115 12.1476139
Al 19.9540636 1.30990356 30.0329645
Al 8.39238218 28.448158 17.7681766
Al 1.34773237 30.0280787 20.654933
Al 5.89645457 5.79395635 31.1543575
Al 20.8585205 11.9511214 29.4833291
Al 21.2889579 26.6041082 3.77153688
Al 1.24793502 30.6213687 30.2786237
Al 3.71716295 29.9682255 30.7492095
Al 22.8457616 17.4728087 16.5357063
Al 5.70697116 27.4445927 13.3084645
Al 19.7869799 23.4638965 25.0210419
Al 18.5116827 32.7931469 28.6549678
Al 23.2060303 7.2679519 28.951431
Al 32.3188759 32.3427483 13.6439601
Al 2.05451349 16.3000247 7.00183618
Al 23.9595213 14.8413288 13.0622865
Al 31.38818 11.7588583 13.2655429
Al 14.1185797 10.5210636 15.201007
Al 25.821197 5.4908915 4.41280004
Al 5.07374688 2.64756991 22.6283799
Al 17.4490003 17.1020209 18.6656418
Al 21.1405026 21.1027498 22.2191845
Al 14.3440495 10.8948233 8.10232698
Al 23.6433922 27.4945406 1.25622878
Al 15.4298859 30.2212459 18.8701551
Al 21.8432401 4.49295203 1.97015447
Al 7.1179447 13.8117139 28.4468985
Al 12.4784951 13.2159832 13.7084609
Al 22.7587763 17.7877277 8.90911283
Al 22.3366546 4.72444731 16.499603
Al 17.1666395 1.08493386 7.22269606
Al 6.10071669 11.5705942 20.395337
Al 5.96671452 29.7374689 17.5797692
Al 17.3385255 12.5643801 21.2857371
Al 12.6581781 26.788111 16.1144146
Al 24.3988583 6.71879063 15.3500953
Al 21.6263126 19.9342996 5.57360903
Al 29.8821353 18.4125269 30.0528669
Al 26.4520323 26.135278 16.44207
Al 18.9765421 25.5330381 3.06888019
Al 24.2722232 33.1421498 30.2702919
Al 11.9739626 31.9390154 14.4050188
Al 27.5580281 27.7783396 18.2376948
Al 11.2170389 30.8940252 9.96827135
Al 21.1654103 12.9449945 8.19999605
Al 15.8597512 4.77498098 4.90035161
Al 7.93576126 23.5907464 3.61513104
Al 29.8587531 26.6973919 7.57032243
Al 15.7165261 7.16072414 19.5021953
Al 19.7081329 2.72712049 2.5647608
Al 15.8753257 3.16164961 9.29085677
Al 20.1093147 17.0807819 7.81810333
Al 2.74879557 13.8797594 32.0644204
Al 21.7198861 24.1526974 29.3689354
Al 30.1326629 20.1002718 5.16328893
Al 31.750088 3.14948534 6.7062899
Al 23.0211506 13.2641592 30.2211867
Al 21.6229309 5.59653666 12.2372439
Al 5.8608154 4.37091488 9.99070164
Al 31.3966717 20.1112284 17.9241564
Al 17.5610249 5.395248 15.9029119
Al 18.3162246 21.7577253 23.0450549
Al 28.4718811 1.95404977 11.5268326
Al 28.0899724 16.9794498 22.8305054
Al 10.9536771 22.568439 2.0776165
Al 25.8771349 12.5526141 21.121952
Al 26.5074161 31.6394264 5.18810131
Al 13.4744371 15.7419921 27.9780175
Al 20.3113865 17.4156083 4.49618793
Al 4.75828834 25.8697847 21.6003901
Al 5.45020541 29.7384999 28.7050482
Al 7.00680155 3.80346111 23.9550953
Al 4.75168384 32.5331092 4.43690474
Al 9.28184087 13.6273407 29.9594303
Al 15.025666 5.27625282 1.61797295
Al 9.50682679 19.2377153 11.1842086
Al 5.60196295 30.7321839 24.1809089
Al 13.595213 4.40258474 24.9369684
Al 32.7461374 6.59821552 25.2146488
Al 7.88391858 13.9874511 2.23702494
Al 16.0193919 11.2272448 30.1001482
Al 15.4929381 13.0234002 14.3478375
Al 5.56872664 27.8642856 26.6250209
Al 18.2419407 16.4671838 5.90622487
Al 4.57288346 1.79514297 2.85883375
Al 13.724902 3.42221625 3.96665962
Al 11.2257764 13.8687738 6.35039869
Al 21.7082368 32.0965597 11.6513942
Al 20.0289003 21.7483674 6.00320074
Al 26.8872278 30.6790839 17.3948393
Al 18.8581378 28.9238133 24.6967131
Al 7.97142659 30.5561335 0.629532548
Al 9.19686105 27.4545728 20.5019472
Al 23.1394735 24.7319931 7.3525984
Al 5.22123322 32.6351412 26.421921
Al 17.8045861 13.5045015 15.642149
Al 5.94452434 11.0151129 27.8925716
Al 26.4081937 4.74498946 12.1299849
Al 24.4760092 10.8859306 19.8431233
Al 6.26641007 3.4630794 6.88194958
Al 21.2602602 19.2415276 11.2656709
Al 10.836954 2.34667132 14.082983
Al 24.5766864 30.4178599 25.73847
Al 29.3415556 10.4620955 11.5728625
Al 19.5606433 31.5932569 14.9376695
Al 7.73847851 9.19570157 8.24095346
Al 1.08966176 30.5577591 12.779724
Al 8.44809574 9.36067274 13.5777826
Al 19.7320942 20.1309351 3.49966771
Al 20.3990416 0.377122068 9.91935276
Al 9.77736852 32.777571 29.318283
Al 19.1061504 19.2309078 6.30856562
Al 13.201124 1.32351579 20.9817081
Al 10.4272841 8.72797408 2.24126176
Al 15.8144456 7.33315501 6.46623614
Al 22.0203071 3.31014611 19.740692
Al 9.08529044 16.1891152 19.957433
Al 13.1197595 29.6769016 23.7075358
Al 11.5914493 1.89944425 10.2849546
Al 19.9786888 19.7390187 0.441352108
Al 14.7078036 12.5590254 17.3671213
Al 0.120160331 25.202601 29.3765272
Al 6.2560429 32.3992817 13.5781968
Al 28.5694258 4.48325768 16.3237205
Al 26.1730597 23.5085339 26.4026344
Al 6.87653417 27.4190937 21.9882523
Al 31.345061 22.38875 19.3778595
Al 18.4711296 31.683505 24.1942351
Al 32.6716976 17.4765878 2.00715295
Al 12.7998134 28.2023487 30.0346345
Al 15.4843496 6.56105936 16.6741855
Al 31.9816471 18.876229 7.21736853
Al 15.2109682 20.6646224 30.3534565
Al 32.9250696 17.9278361 17.2657259
Al 19.8984876 32.3350823 7.56465041
Al 26.2665963 26.9464222 1.25744265
Al 18.1819465 3.36131264 5.00908578
Al 6.94198229 12.6050694 4.32529013
Al 19.0920936 24.5158137 29.5545379
Al 32.7365395 6.81837638 12.4947436
Al 23.7770319 0.323739874 14.991832
Al 2.54162662 22.2129645 13.7047173
Al 31.5229804 13.1854114 2.05158156
Al 26.9647775 0.501721705 6.92305158
Al 17.2960191 5.96299869 2.72276312
Al 10.9965463 20.512486 30.4252146
Al 13.4437497 32.1522338 16.7033725
Al 29.4704697 0.962537295 29.5171389
Al 9.20256643 18.3658836 29.9245426
Al 7.38992716 32.6003367 27.8312905
Al 1.5620868 16.6793753 23.3447304
Al 22.3765401 10.167125 13.114579
Al 19.3506214 29.6392761 7.78014544
Al 28.7327359 25.1314768 15.0873522
Al 32.9243971 24.4502974 9.2995307
Al 32.1036994 4.21329022 31.9302778
Al 3.41347292 17.0341526 25.3161962
Al 17.1439195 9.12919803 31.8385232
Al 0.371183822 25.2146501 2.11755195
Al 3.44568568 27.7991266 17.9387425
Al 27.9395744 21.6652207 15.1375453
Al 28.4805917 19.3991506 18.170094
Al 11.0187416 4.30335801 9.78813351
Al 31.5064993 28.0587232 31.1995634
Al 27.3739886 19.3465674 15.8798937
Al 4.23950669 25.3103045 19.144879
Al 5.50699653 15.6129206 26.4667188
Al 24.0606557 14.376749 26.1395021
Al 5.60236901 3.30146271 26.8413342
Al 33.102729 7.6996584 9.64047418
Al 26.0038364 21.2663361 5.13886548
Al 32.996414 29.3038975 10.4511753
Al 28.2761662 9.02929411 9.52878775
Al 25.531414 18.3760719 17.37009
Al 23.6169746 17.1853914 19.4986858
Al 12.897176 23.4954283 6.79132608
Al 4.56926154 4.21976455 12.2139712
Al 2.88400798 27.4325388 20.3434709
Al 26.6443325 4.01832053 20.1591356
Al 30.5982532 22.4897826 32.1875617
Al 25.9171148 21.6800784 22.0556741
Al 4.35497749 8.95907404 2.44486603
Al 20.1275928 0.142226496 1.46002296
Al 25.2328602 11.0730858 32.1222944
Al 18.7601045 12.4664896 10.3241678
Al 15.3709711 32.2794705 24.3579094
Al 24.4826096 18.4893175 24.0091479
Al 19.3997581 14.0510237 5.81910989
Al 30.85805 13.7536332 19.1956018
Al 29.6378226 32.2437313 13.8058655
Al 7.93846607 26.0905815 25.4929847
Al 0.705057322 19.0442212 0.345816994
Al 1.01807531 27.5027992 24.1515714
Al 31.7691358 30.1215511 29.6140462
Al 13.4914035 17.6648616 11.0922694
Al 14.5036356 6.83644306 31.7912587
Al 3.9622391 19.7954821 18.4959436
Al 18.5920163 24.1035248 17.2823974
Al 3.10626688 9.39369718 33.0259882
Al 18.3971031 10.0475149 26.4803701
Al 22.0026283 1.87302019 1.59909974
Al 0.169878104 12.446503 17.7277702
Al 15.4483471 20.0198211 7.33165957
Al 18.4420213 26.4843213 12.3658322
Al 2.19178856 5.79805032 3.41366294
Al 13.0338996 23.8284577 23.2741261
Al 13.9683558 20.7177765 20.4820908
Al 16.1798135 31.2803783 28.7089461
Al 3.9631347 5.95766167 9.73739639
Al 16.6104156 6.84010139 13.6623151
Al 25.5398904 32.1701225 0.222064967
Al 17.2538618 14.572708 32.1575832
Al 9.67590282 20.1790886 8.54816512
Al 28.2884449 21.5015143 20.4986267
Al 6.97664368 9.87959283 22.8562634
Al 29.6181775 23.9958795 5.00200767
Al 18.7337486 14.7923843 8.34771264
Al 22.9834553 1.10344644 20.5958004
Al 13.7928864 15.0263062 20.7643588
Al 8.08545366 18.6761071 16.3356154
Al 1.33666322 24.9932048 13.9213396
Al 7.26667604 3.23284611 12.2570802
Al 9.40903402 22.8425282 6.19586967
Al 18.0523446 21.1422592 28.5966086
Al 7.90305466 6.45889716 23.2042222
Al 28.8110512 23.2762129 27.3247593
Al 12.8727696 14.2456724 25.6241881
Al 24.5353653 31.6761079 2.6352006
Al 9.72813086 30.385745 27.8813427
Al 25.3258886 4.32051972 1.64081478
Al 15.1320021 26.4188188 15.7884637
Al 19.8279306 32.915679 17.4046653
Al 16.2935272 25.7604116 18.282363
Al 5.96527379 21.665858 4.79842871
Al 28.2256351 6.43023173 4.10459355
Al 14.0338145 28.5110344 2.42078973
Al 28.54228 12.232734 20.4686158
Al 2.16972397 24.5911267 11.4797667
Al 23.0392808 23.1568552 31.4100256
Al 19.2387673 7.80126882 3.76625518
Al 26.2176504 14.674723 5.66288247
Al 10.648421 0.108479209 16.5861842
Al 20.4218881 13.6716977 31.5199899
Al 7.56613823 0.118617957 16.7986155
Al 16.01492 8.87252245 0.987169692
Al 18.9564682 21.2659704 11.880143
Al 12.8127712 0.799793735 6.7715852
Al 28.9902911 8.7388773 24.6906519
Al 13.3932407 8.28710915 9.44445367
Al 9.53439278 21.6301103 24.1661377
Al 6.19053512 29.1339163 6.54493072
Al 4.30597251 6.72219121 19.360276
Al 17.9462329 11.0345723 24.063977
Al 26.474646 21.3406136 17.9820213
Al 0.576222289 26.7927925 26.8407339
Al 32.5750739 15.4060949 3.96246474
Al 15.2663063 28.2025102 27.9404608
Al 24.5147928 30.564953 15.9217814
Al 15.9518677 13.3229285 28.225966
Al 10.745429 29.4026682 22.1903659
Al 19.5298478 17.2481176 10.8016559
Al 16.5064194 25.5658486 4.78897004
Al 20.2120972 19.7478141 13.4923193
Al 22.4045497 32.0139412 26.6158178
Al 14.7751985 3.28796427 21.1961761
Al 28.0505624 12.1795911 29.1835491
Al 0.0925907143 32.8886823 24.4171235
Al 33.135135 20.6909565 19.7382491
Al 5.83811559 18.8342214 5.83494008
Al 12.6492159 0.837832586 25.8364257
Al 4.39041918 28.3430583 22.7997446
Al 6.25755268 32.0123869 2.43212135
Al 32.6756698 10.8103211 30.507798
Al 16.2155667 29.7076105 3.91651681
Al 28.8840319 15.1757171 20.5780225
Al 1.93843305 23.5489671 16.2211221
Al 16.9684702 0.808288309 1.25506835
Al 5.31051992 25.2336628 11.6269854
Al 26.6316854 13.6410457 24.5229934
Al 28.3877504 3.33874308 0.946844391
Al 2.01693081 25.6593385 6.90437417
Al 21.9338939 15.5089935 30.156275
Al 17.0429143 2.36976785 12.0355013
Al 25.1691603 1.43587404 32.4531227
Al 12.5875848 25.0975416 13.8660161
Al 9.57065193 23.5703404 21.6036597
Al 2.94748462 1.72792151 0.323195092
Al 26.0994837 16.6796015 14.8787451
Al 5.62175705 19.4746864 14.108776
Al 6.72288772 23.8155625 6.18029412
Al 21.5343174 3.67083774 29.991289
Al 21.4015971 16.7697195 2.12313806
Al 23.7309693 27.2249776 8.08836176
Al 2.14537487 33.0239801 22.2638082
Al 31.3498014 8.68797373 30.4406867
Al 10.969495 5.57325631 28.6217991
Al 3.15971623 16.2101396 14.9833653
Al 9.50588364 14.6775762 32.9730067
Al 26.1910079 5.66309913 7.36081251
Al 6.61813233 7.84445679 29.4279506
Al 29.0665689 1.85302618 16.7783861
Al 9.71735579 32.5767812 3.44410909
Al 4.56686424 16.7129942 6.835389
Al 16.3078186 6.6154937 24.630857
Al 5.23051596 11.4836457 15.7162891
Al 8.65691927 21.0253279 4.0436483
Al 6.41903165 4.80695919 14.1398296
Al 8.36028592 11.5923212 15.0423918
Al 7.14118597 25.7800824 28.1834403
Al 23.0014255 28.1055848 5.1866987
Al 29.2640034 27.4972523 16.2252491
Al 29.8819931 17.4758391 11.4181659
Al 3.59045843 13.9179113 27.1217549
Al 15.3726089 20.1173947 3.92582866
Al 22.9388071 32.5238945 0.0154064569
Al 0.0795396727 6.74869537 19.5682283
Al 23.419426 26.7861115 10.8379125
Al 21.3991301 10.6883018 9.43043467
Al 19.6696148 1.53453971 15.040623
Al 21.059741 8.29049613 20.0058093
Al 18.88024 26.954133 0.533896738
Al 12.5304177 25.9958456 28.3091018
Al 17.3292187 2.49239413 20.4440512
Al 19.040705 17.1510138 13.3447087
Al 31.8097694 11.0648993 15.9680583
Al 26.7935875 28.8380902 26.9841797
Al 21.3971029 18.3223325 20.2551211
Al 22.4744988 17.808113 31.4745434
Al 5.91533362 16.4116101 1.21242972
Al 14.407111 14.6541501 2.30060236
Al 6.19022565 3.63535859 3.74467025
Al 27.1528387 31.5162698 27.2335991
Al 31.9389967 25.3613186 15.0378202
Al 1.51164981 16.1110743 0.187020799
Al 27.3300033 17.2479765 28.0277227
Al 29.2183795 29.2501635 23.4293795
Al 25.1661261 16.6258607 9.64643269
Al 5.91238159 0.300675556 0.155814732
Al 18.1576719 4.59664564 25.7085291
Al 14.3918213 20.0095715 17.7266508
Al 27.4946285 32.6651961 30.5516988
Al 8.2625754 19.1906044 24.7314338
Al 29.3052713 6.82579913 8.02022569
Al 22.0171231 8.76597189 26.7417963
Al 4.89461459 20.1847979 9.94751808
Al 31.6941452 2.26793024 29.6712109
Al 28.5292027 3.99401035 13.5926561
Al 15.5667682 10.4048688 22.7379225
Al 15.3991221 23.3644022 8.22752878
Al 4.6642859 31.3319735 21.4057661
Al 1.68990975 5.7623728 8.58500869
Al 32.1078863 20.695118 31.2607507
Al 18.293312 14.6859302 11.2148471
Al 30.0388708 4.93381968 28.3727532
Al 0.90753634 5.97080518 32.9449705
Al 19.2247657 10.5390747 4.76989138
Al 10.2816123 8.53151782 29.929158
Al 2.71747813 18.2494312 16.6635537
Al 15.0982735 1.12718583 16.0155507
Al 24.9554958 2.43166793 21.1534996
Al 32.4544443 24.9893996 12.2527668
Al 24.8002592 9.2603282 27.4487911
Al 20.9323183 15.3812026 9.7783891
Al 3.43028622 22.1713964 3.70900252
Al 30.1984777 32.0622347 31.4156449
Al 13.4870786 26.2008543 18.8010146
Al 20.5931417 9.14987895 15.8887253
Al 31.5480912 12.6160861 10.484643
Al 31.5297275 1.32367598 31.842031
Al 31.7797428 18.9129966 9.89952345
Al 0.645940253 22.3768983 21.4431118
Al 3.86820003 19.4997592 26.1469322
Al 27.1720475 19.4182099 29.4426391
Al 26.7200874 28.9792791 24.1462425
Al 31.1811388 19.02973 13.1579903
Al 17.5726324 10.850924 1.6889114
Al 28.3322713 8.25003836 17.6501507
Al 7.95284756 30.1585996 22.7632884
Al 7.67536617 20.390487 6.61311188
Al 7.20614925 29.9624503 20.3538594
Al 22.2745761 24.9154355 25.7296749
Al 5.88825519 5.5071458 0.604222924
Al 7.73273895 27.1346128 15.3857556
Al 9.94063947 9.39832807 4.76146022
Al 27.7168406 31.1273299 32.8788837
Al 17.5020711 12.9027382 26.0599193
Al 9.39485637 23.4264197 18.8849414
Al 1.44693487 12.1284797 29.1612556
Al 19.980898 15.5502789 25.7313912
Al 21.7019167 21.7088743 19.4700145
Al 7.04524139 30.8928998 4.48995199
Al 22.3003727 17.4160543 6.35342673
Al 10.7958039 1.85762601 19.2568146
Al 20.5726563 13.7330626 16.719607
Al 29.0552119 21.362459 1.25639257
Al 6.00124137 5.34903666 28.3265452
Al 9.6400571 20.8464333 16.9046375
Al 1.69786863 22.9220388 18.9354061
Al 3.56604337 20.3303193 5.55078376
Al 24.749891 16.4999313 7.00962423
Al 20.1431843 22.2373449 30.4407244
Al 18.9761644 26.3081964 25.3666252
Al 32.2941822 17.9576338 20.254568
Al 10.6279395 13.5203839 15.5308846
Al 2.42811166 11.6596813 15.8881587
Al 21.3311394 24.5600398 5.17318721
Al 5.1817264 21.2750986 7.41853415
Al 8.99262502 22.0265395 11.4247895
Al 10.2245236 32.5705142 26.1354593
Al 32.79533 21.6660262 8.62447204
Al 29.3348231 14.3960657 17.2437996
Al 21.9034119 10.0841487 17.91334
Al 19.3246066 13.1649472 19.7865587
Al 24.7906833 5.2175381 28.754994
Al 22.934337 16.5248492 25.2523115
Al 10.61489 15.8836965 29.9123798
Al 1.92694066 32.9511355 29.9167099
Al 30.9675278 22.8293886 10.5272657
Al 9.12772166 9.45739582 32.9848291
Al 17.1250261 18.5916297 29.8321652
Al 16.0448651 30.0031211 23.5919459
Al 27.48318 3.41610079 27.7657278
Al 8.37787876 7.52622301 31.4455412
Al 22.9759706 10.709029 28.8208145
Al 30.6967971 6.11639111 20.6013861
Al 6.78420344 9.95434173 1.14696139
Al 7.91885581 7.99588997 3.29658893
Al 17.0298634 19.7285561 1.5411119
Al 26.4863655 0.305840391 16.9420227
Al 21.4958418 7.32782957 24.2908602
Al 31.6168837 31.2910417 11.4361963
Al 14.2917915 29.1317778 7.56367853
Al 3.21910218 29.3464349 12.0063504
Al 24.6130061 31.3018105 28.3702706
Al 26.6635838 19.8579996 13.6029779
Al 3.91016236 19.0545353 7.75750199
Al 21.850697 13.7879719 27.6961831
Al 14.6997513 14.3827167 32.575632
Al 31.6911284 21.6739629 26.8386297
Al 24.9170529 18.2823842 30.4837815
Al 14.1220499 13.7881408 6.99518917
Al 1.20460582 25.4581624 32.4356267
Al 30.2057153 24.6808186 18.2512772
Al 17.6788273 9.64604873 10.8560925
Al 2.50981859 15.544822 9.46422891
Al 25.5750243 26.4344748 5.99643264
Al 23.487207 26.6977542 16.7185469
Al 25.0709941 19.0692257 33.0568762
Al 25.1137502 2.05855381 27.0497254
Al 21.2791535 22.2878931 13.4677579
Al 26.5766636 14.1650722 27.4798007
Al 10.9824032 3.54491096 26.3389549
Al 8.71802847 23.3965541 0.838891276
Al 19.5769445 14.6037202 0.601368763
Al 25.1184852 23.7516933 16.7852436
Al 1.1862935 1.88876704 31.1002644
Al 12.1649702 21.8202533 16.0416958
Al 16.701898 22.8658941 24.8533538
Al 14.8099529 5.66625058 7.85736452
Al 8.6105397 31.4309546 18.0355927
Al 15.31233 22.4496385 5.02796088
Al 6.17281727 32.2089697 19.2553903
Al 20.0011312 17.3640217 32.6342176
Al 31.5467281 22.0505532 5.96567537
Al 2.38265489 30.4440283 9.8225481
Al 5.46289457 33.1773 23.2490535
Al 11.1886018 31.7943401 5.56170959
Al 19.5781016 14.0540659 13.947187
Al 8.52363306 0.440114981 19.1779282
Al 14.7437282 21.6490726 25.943529
Al 25.205109 25.8786659 18.7736435
Al 2.62931362 20.8874138 20.4076266
Al 31.865024 19.3941482 28.5291916
Al 16.3315044 28.430513 8.64576975
Al 10.9568649 8.7488407 8.39973088
Al 20.4444287 19.5457877 27.8765816
Al 6.46917133 14.0666374 32.9681273
Al 18.8379488 29.0557275 31.9359062
Al 23.9669687 16.6640455 4.45575852
Al 12.0374009 12.4260278 8.27469753
Al 10.2367372 24.3255046 4.1460878
Al 9.71866433 14.6091676 21.698418
Al 1.53532086 16.0223971 17.2647429
Al 29.4725528 31.3279488 28.6197484
Al 29.3774947 10.4040954 30.997982
Al 13.6584977 15.2114592 9.5235858
Al 21.0734711 7.24396084 1.42009055
Al 0.236078324 9.79256726 18.6895209
Al 19.3091684 6.791382 13.7474102
Al 21.4837892 28.6911 9.67429291
Al 12.2675115 19.4429992 7.60782634
Al 19.1859122 33.0088642 12.3232984
Al 28.3226831 8.81148067 3.63587472
Al 24.1186691 33.1099758 12.3551695
Al 32.2639684 24.2433608 26.8404789
Al 7.9211965 25.1684468 8.2606488
Al 22.3050279 29.6134312 2.96187785
Al 19.9756951 4.42468788 15.1064182
Al 12.7557781 13.2794481 3.77194759
Al 12.5989606 0.901943217 13.0117133
Al 23.9074564 6.27938422 11.0604692
Al 21.8615529 32.3766097 29.2750705
Al 21.5302941 25.5783709 1.00632023
Al 29.4403651 26.2999754 30.2608656
Al 24.2845606 21.7408032 32.9059807
Al 3.15338642 26.8397206 12.8777916
Al 13.7112636 12.5053416 10.3913319
Al 25.3148861 30.0515702 12.9497992
Al 17.1439415 20.0161864 17.1555889
Al 16.090727 22.4082654 27.9054841
Al 9.7246705 29.9761785 19.7414338
Al 18.1110877 6.23890089 5.67063935
Al 25.9594258 6.19530394 17.2822944
Al 23.8105141 13.9340593 23.3175119
Al 8.05937512 22.4941797 8.41663551
Al 25.0045352 23.8193731 23.8002746
Al 25.7166286 21.3415607 24.938072
Al 28.5806151 6.51673417 12.2275673
Al 0.643463868 26.7737482 10.9385633
Al 20.4063409 28.8538375 5.03083546
Al 21.2036268 29.0559793 19.764867
Al 9.33036211 1.84527389 2.66674742
Al 18.4710808 7.33197383 11.3837526
Al 9.84554635 6.57617759 3.99479465
Al 19.4005545 8.97941532 9.04584557
Al 32.1493035 18.0411084 4.60325597
Al 29.435871 25.1780889 10.5043557
Al 22.7171382 15.1749597 18.2039928
Al 26.2459564 4.84459911 14.637049
Al 23.3878849 4.55871903 5.87681792
Al 14.6381537 9.86266226 4.66020787
Al 29.8088149 30.8929855 21.2448211
Al 32.8754478 7.12245746 17.0827624
Al 10.2921996 10.1269245 22.7905333
Al 7.93846744 7.42645915 0.815794016
Al 12.1551006 30.0201809 12.6105431
Al 8.72567499 12.062131 23.8476607
Al 25.9572318 21.8374163 7.94135398
Al 13.5254769 30.446126 5.55407583
Al 14.6884506 7.30486803 11.3706689
Al 31.0758485 2.76976359 9.50970161
Al 7.0716921 21.483657 23.3012566
Al 24.166444 1.21751039 2.15198432
Al 24.3163357 12.5146609 11.9490214
Al 0.424582079 29.8346007 23.5996642
Al 31.2869257 16.1615662 17.9457468
Al 32.1264465 11.5541499 3.99835412
Al 13.0666561 31.832634 8.21616731
Al 16.2609843 0.86891735 4.11501941
Al 10.9644534 16.3735501 27.2355774
Al 13.1454456 5.83655328 17.6634404
Al 18.1905201 9.18005129 13.521932
Al 13.6221782 20.1514061 12.4166799
Al 20.6950483 27.876812 22.6753809
Al 23.7737096 21.1149511 2.64398225
Al 27.6832698 5.70799388 29.6358005
Al 8.43866873 7.85577717 6.29661004
Al 0.49647892 13.6577957 0.726018791
Al 12.4614726 14.9513047 23.0319588
Al 0.960797971 33.042972 2.23569271
Al 2.53344864 3.40016278 24.1516596
Al 10.0398503 5.96235256 21.2067254
Al 26.4016537 23.6264884 14.5620798
Al 30.9621208 2.75278569 1.01705679
Al 2.80679875 7.32298275 21.7279165
Al 20.9880463 15.2349264 12.3273105
Al 10.5281913 30.7917846 0.465308764
Al 30.1399862 24.184035 13.2747115
Al 16.7394029 18.9236449 14.6030637
Al 0.897630198 12.8380988 20.5679826
Al 30.5541948 19.2871942 33.0410765
Al 29.2287096 8.76141044 6.13573053
Al 23.9593936 21.42492 12.7506589
Al 31.0616348 32.4593934 18.6671625
Al 9.58778919 4.70887528 14.9424257
Al 30.4219046 17.7487343 22.1511483
Al 30.9596655 8.87618661 18.0779596
Al 26.2721911 9.1877516 24.3393693
Al 2.66673631 16.1947653 20.1981598
Al 19.4410496 2.08622037 7.00857383
Al 20.4041241 23.6463452 2.62339792
Al 9.02190235 6.75325171 8.7673916
Al 25.05949 30.4901622 31.2501369
Al 1.12995075 21.3679321 5.4793109
Al 12.0314596 31.3819435 21.1484802
Al 12.4464231 11.2082718 5.98568072
Al 28.8231408 27.3668492 25.5026204
Al 13.7950138 23.6356758 28.0328749
Al 4.30587015 0.796222638 18.4541508
Al 5.6251835 7.83008173 9.84922325
Al 13.7518617 11.9053687 28.4523893
Al 2.63359975 21.7464543 25.9312879
Al 1.72417324 27.132358 15.6444145
Al 12.7198444 25.6444235 32.0208613
Al 16.3404565 27.896217 32.7513311
Al 4.15133162 13.6384974 15.2469057
Al 22.0866731 31.4511074 9.0049437
Al 31.4373296 15.9155311 30.9377757
Al 14.7264608 31.9572851 2.68898416
Al 15.6083515 17.2348109 3.12283708
Al 26.8235892 11.1617476 11.86017
Al 16.1812263 7.79828555 27.5076549
Al 4.01823273 28.3413459 8.52102946
Al 8.88582261 7.36029794 17.670638
Al 22.6623086 11.0134961 31.7167764
Al 0.194816254 14.616442 22.4718497
Al 26.7496297 14.4098688 19.0197995
Al 13.5525402 20.9364739 5.83241998
Al 25.7346754 11.6982924 6.66710397
Al 14.4775861 1.7783659 23.6150287
Al 30.4728567 20.5285081 23.6282519
Al 15.1804404 26.3441418 7.32746136
Al 14.2926627 18.5626751 29.0302119
Al 30.0434537 10.6005402 22.2232884
Al 28.4763221 0.535711495 26.9480024
Al 28.3217768 22.1046724 6.61480945
Al 25.253919 12.1715114 28.7078882
Al 4.57122226 1.7074857 25.095671
Al 22.1241996 15.5347222 32.9242346
Al 30.8894391 29.7502231 4.64421709
Al 22.0676157 0.159851248 6.16271085
Al 21.1837501 8.99803539 29.622258
Al 30.2762002 16.3364699 2.55915226
Al 22.2212505 32.5698834 3.19777123
Al 28.2747082 24.8295527 25.2905899
Al 1.49086826 27.924863 1.52768708
Al 10.8219227 11.3118744 14.1162142
Al 16.1097701 9.10866139 25.0480402
Al 25.7751839 23.5688085 11.4264217
Al 28.7884653 20.7209715 25.6350887
Al 12.5642576 31.226662 25.6466289
Al 17.7668963 18.4690737 3.87434866
Al 27.4180002 1.93533433 22.2167857
Al 5.25369494 1.9786523 13.6164314
Al 0.4936459 32.5272968 10.5268263
Al 24.0539019 19.0768388 10.7530361
Al 21.8474055 5.19898916 22.3605902
Al 27.450049 25.4172181 12.8322269
Al 20.7450564 3.91813241 24.6364114
Al 12.0903351 15.9697084 18.6744832
Al 23.2820789 27.7652581 21.3551103
Al 28.1051056 8.0211038 31.8798044
Al 21.5445258 5.19013026 32.6202717
Al 25.8748395 24.0157511 1.25627491
Al 25.4937971 12.0364077 3.90894694
Al 29.2594308 30.2214658 25.9740902
Al 2.89865069 3.19765945 17.0980038
Al 24.3970671 32.0832532 18.2138617
Al 11.1039161 28.0127016 18.1141865
Al 27.9087538 25.8991579 20.1090009
Al 26.786526 4.01040883 31.423444
Al 13.7952083 15.8250112 4.79093955
Al 25.6561604 27.5792323 12.1419051
Al 31.5797553 0.683615559 16.3012912
Al 14.5105479 32.9706629 13.9868133
Al 12.8957178 24.3285663 25.8345965
Al 26.166982 7.86875616 28.9463604
Al 27.3321359 14.4037311 3.01752821
Al 10.8300083 20.8140844 13.1601637
Al 16.6088098 19.3954164 19.7491597
Al 4.39283998 11.8591137 25.6004957
Al 23.5242607 2.84970393 23.3526117
Al 12.8779988 29.2656878 15.1806211
Al 21.6420346 22.0844167 3.93802533
Al 10.9274092 16.4104491 4.63012661
Al 21.4365234 12.9607044 10.9180396
Al 3.09566559 26.3039338 9.69052392
Al 4.26347702 12.2870579 29.6191226
Al 19.8796311 24.703896 32.2009793
Al 12.5731072 29.1050993 27.2579761
Al 29.1905413 22.1167335 17.7049565
Al 30.6940654 3.33497609 21.0750435
Al 15.4333334 17.7644812 16.5741628
Al 23.2431271 24.0088756 18.9431179
Al 27.6049064 29.6738409 9.76443655
Al 4.31218072 24.932797 5.2724822
Al 20.2386038 19.699779 18.2450592
Al 3.65997442 1.48996515 20.9656074
Al 4.22191144 18.5070127 20.9175392
Al 9.69686068 11.1666764 6.57231999
Al 25.8379936 24.0217218 6.40142703
Al 27.1378987 27.4130072 29.5307128
Al 6.26675931 19.4509185 29.322193
Al 1.08507756 5.25976651 15.9922049
Al 19.0331216 20.3163807 20.4288465
Al 22.0567433 13.2698269 21.3016563
Al 9.63094557 29.9523285 3.06839097
Al 0.44421765 2.65532504 4.65877586
Al 28.2976279 12.4339714 26.4202661
Al 5.76731196 7.78909339 32.3717823
Al 18.6363602 20.875826 26.0248338
Al 20.7314011 25.2479331 8.11695541
Al 20.492342 25.4198837 23.302921
Al 26.4988074 3.38287201 17.6543506
Al 22.7742394 24.21541 11.8711139
Al 25.064195 28.8975357 9.68696796
Al 11.7960377 20.9370911 22.9184505
Al 18.9941901 15.752389 30.5971266
Al 28.2250655 27.5075883 10.8570799
Al 26.8471456 1.16147209 4.31925752
Al 21.9155512 2.55462161 4.56006517
Al 24.6308634 17.6420302 27.3405571
Al 5.23073208 24.0711732 2.96514243
Al 17.2887388 4.22686002 7.48830983
Al 16.2239033 16.719116 10.205336
Al 17.4894155 33.1014215 14.6389843
Al 4.81213899 1.51254152 5.97314303
Al 6.12250473 24.2270154 0.364548295
Al 24.8332291 2.93308075 3.83218225
Al 16.9167734 8.84634272 3.71892421
Al 24.7725378 25.6318161 21.2622854
Al 22.4164898 21.3789827 28.9450141
Al 5.68696193 14.9070385 9.65312195
Al 4.99253709 19.7185787 3.24604186
Al 26.7510397 14.8553365 22.1921373
Al 12.1519584 2.73936432 23.5672264
Al 16.091477 20.8247845 12.8307152
Al 13.127092 12.1271336 0.852055246
Al 8.23851563 5.40933489 11.0092341
Al 32.7432774 31.8978988 21.8467475
Al 11.0894543 30.7189723 16.7082258
Al 23.5914049 12.1753071 9.60492726
Al 31.8211825 19.4110883 25.7014737
Al 32.2072396 29.9325892 1.86606754
Al 11.6506624 28.0883459 1.19421382
Al 11.5762659 19.0445616 0.711758507
Al 0.293564384 14.2058812 10.7757607
Al 24.6276376 16.1064503 32.0695882
Al 27.3794206 17.7127292 31.2912787
Al 29.2500809 26.7128336 0.0431392846
Al 22.1449196 31.8259473 16.5065705
Al 31.3459656 0.105912522 27.6934145
Al 30.5434351 14.0934203 26.2474251
Al 3.75704635 20.3788453 15.8119619
Al 8.67729298 28.8674236 5.41404777
Al 32.5816451 23.4374811 17.1222069
Al 14.0037145 9.40589591 32.1607804
Al 10.8493856 25.6406526 19.4228231
Al 28.5662953 21.8495693 4.01088732
Al 11.0488345 8.02547987 23.9899413
Al 32.5071122 20.0195446 22.2838212
Al 24.4892897 5.50903801 21.2872734
Al 2.71314925 25.6420736 23.329463
Al 18.9257273 8.64183694 23.7265878
Al 29.4817476 23.9475547 20.4914573
Al 20.9701816 21.1852865 24.9816611
Al 6.90193756 0.767328591 30.511902
Al 10.8037899 16.3895065 15.3218531
Al 13.1793627 4.20726213 27.4715614
Al 21.6100901 9.08572723 4.10747593
Al 4.59247391 15.2755159 12.6024999
Al 31.187765 32.8447391 9.06895614
Al 23.6611132 0.764588933 10.0239569
Al 14.983674 29.9097259 25.9862725
Al 27.1538871 18.9263875 24.3030227
Al 8.00034821 11.9772237 0.330033343
Al 17.5637126 28.6332952 29.5968488
Al 26.5810663 30.4014724 19.8677867
Al 0.901912706 17.7967112 26.1490612
Al 17.2504674 30.2051114 10.5944557
Al 18.9547844 18.0520356 21.3483418
Al 12.242461 25.8233151 11.2915767
Al 14.5785202 28.504554 17.300737
Al 31.2352252 11.2779768 19.8186556
Al 12.9042557 3.77508295 12.4354072
Al 27.529715 31.961253 21.5989092
Al 15.1333365 4.58253505 18.9243439
Al 28.4403657 17.9597003 13.4446211
Al 14.4386566 33.042852 30.3842725
Al 12.7552567 29.9571548 18.6753128
Al 29.4084932 18.7151047 27.5391093
Al 6.57816058 23.8488627 17.8815152
Al 13.7124103 8.92269867 19.4341954
Al 19.0950271 30.00693 21.9640637
Al 0.690626685 4.13178273 26.3565087
Al 0.534001905 22.6306614 2.76374565
Al 25.3861487 10.6928517 14.2146836
Al 5.22891606 27.9250725 10.7728001
Al 17.8820471 16.6879138 15.6357549
Al 24.3714243 14.2569037 3.14349024
Al 18.5682009 8.64500703 6.55933078
Al 29.4490484 28.5509578 28.1901354
Al 23.5055907 3.60380436 0.0192257094
Al 0.479583796 9.56921687 27.6972375
Al 28.810292 0.0245823952 23.4819501
Al 32.9542612 22.3986632 28.743958
Al 2.2057882 5.28717681 18.6331289
Al 30.6345708 6.01761879 5.67022712
Al 19.8590509 12.1222363 22.4281926
Al 30.5945196 25.167059 2.28067394
Al 8.15515766 26.7142893 12.4842051
Al 23.2631327 20.52673 8.80106648
Al 31.5856018 28.4083576 16.095194
Al 28.2615913 6.94938161 15.0230078
Al 27.1400579 2.46554881 15.2933801
Al 26.7304697 13.6194341 16.5190919
Al 7.43167459 30.8845634 15.7476774
Al 15.004762 24.0313095 19.7984195
Al 19.2326564 15.1801361 3.35822811
Al 26.5529939 0.772732991 13.5229019
Al 14.3897504 12.9782703 22.7761946
Al 18.0376913 22.4475613 2.29004145
Al 7.40892382 2.58901675 28.760602
Al 27.3674215 3.85276187 8.65978939
Al 20.9591901 12.2221841 0.461723033
Al 22.8200766 29.5127068 11.8406762
Al 19.4503665 16.9216176 28.3484183
Al 9.48391138 16.5243295 11.2813718
Al 29.3595518 16.8668859 33.1166724
Al 31.1256086 0.723461806 11.8376815
Al 8.35223174 28.2435694 26.9854546
Al 8.72545713 31.4024917 9.88236155
Al 20.596543 24.3063816 19.1211357
Al 17.9898457 23.8273362 20.1850083
Al 8.22357067 15.8134744 26.5774694
Al 19.8117053 29.7356494 17.2557832
Al 32.3974048 5.14973928 10.7655698
Al 4.45688093 23.0126424 16.4554808
Al 2.57437059 13.6405205 18.4188825
Al 26.5058855 0.189709409 9.70116296
Al 9.25904088 11.0562374 9.35004292
Al 9.83516368 4.14893203 23.4669582
Al 22.0720552 8.09656359 8.94875515
Al 26.0673957 9.40639654 4.75836386
Al 28.330623 11.1009213 7.39858551
Al 6.50162499 10.3713197 25.3126762
Al 18.8582637 4.76969577 31.3308841
Al 4.673535 12.2614009 5.88212472
Al 8.97848279 27.411699 0.501412357
Al 3.00792833 23.0476569 1.29779731
Al 32.4656338 32.9369557 30.0431179
Al 32.3438502 7.11806504 27.8309133
Al 13.4663399 7.43846654 25.0862975
Al 29.0852958 17.1956317 16.8842061
Al 32.78754 27.3346991 3.33150888
Al 24.8682911 15.7934035 16.7047108
Al 31.4307154 2.06950147 18.5451359
Al 25.5382612 18.8922807 2.8122139
Al 32.9316663 0.809601148 20.5834049
Al 25.7108749 17.3912604 21.7013542
Al 16.8799713 11.4137352 9.05342032
Al 22.8931087 11.5860748 26.3969637
Al 2.53786117 2.52198176 13.2045485
Al 0.995041831 7.78925178 1.72867995
Al 21.176012 6.99497079 6.04319809
Al 29.298888 4.49634784 10.8882909
Al 23.5012766 29.6429091 7.40075969
Al 21.9959044 15.2374826 4.63558541
Al 6.05601093 6.29959218 7.71216855
Al 14.9332157 7.34473336 3.49906107
Al 28.1135853 29.749615 4.17871114
Al 9.3428236 13.27922 19.6429986
Al 16.8249045 7.76698363 22.2050419
Al 7.33312149 1.43118336 25.9370496
Al 9.71678858 18.5993905 3.83213932
Al 24.1449458 11.1452369 1.22292008
Al 2.040323 33.122536 12.9352491
Al 27.1673941 5.80381247 0.395609688
Al 1.81011097 12.3778816 6.15378276
Al 25.5752254 4.47917601 26.0160568
Al 12.6182089 6.50635409 13.068455
Al 15.355058 1.55636369 18.6123668
Al 24.5343835 13.0496942 15.1020861
Al 26.928515 6.86118778 20.7944841
Al 11.3764908 2.74246466 29.038006
Al 3.33930011 11.7722719 21.2370724
Al 30.738186 12.1160299 32.7860629
Al 16.8577985 16.392334 27.9734387
Al 11.7617439 19.0690387 20.8115397
Al 19.0975767 28.5299713 14.1862902
Al 6.06103892 7.90441698 21.5450967
Al 17.8516783 29.3365535 1.72889648
Al 32.3923841 21.1364999 0.781550952
Al 2.08016247 1.70786384 26.1778992
Al 1.28096808 13.5382265 3.46053261
Al 0.560083489 0.862447162 6.51885335
Al 29.4300934 14.2061095 31.7742107
Al 29.2615725 20.3436712 11.3262837
Al 28.5680789 20.332021 31.2885362
Al 30.2015273 6.60620488 16.9794379
Al 8.39138941 13.5723236 10.164641
Al 13.2269033 16.4049377 31.0517193
Al 24.5782093 6.87337865 23.3800909
Al 0.994437148 13.9868592 15.5269981
Al 13.2207317 32.7143459 11.0373567
Al 20.2939464 9.89686331 32.026859
Al 2.05083085 20.7946589 32.6097023
Al 23.3764312 6.42548314 3.62688161
Al 32.9147058 10.7392208 1.20204114
Al 16.1577977 30.6791325 15.5306798
Al 18.6756481 10.3130108 29.6855095
Al 8.07772766 23.1697822 28.7795359
Al 28.876905 15.4168547 6.0626376
Al 8.43617126 25.2710196 32.317706
Al 30.0057009 5.18482811 0.215052375
Al 22.1507984 25.9502502 31.6725689
Al 31.6739371 13.771968 15.79141
Al 27.2714765 16.8718611 7.97591992
Al 7.58276512 30.7951685 11.8884164
Al 15.7550426 9.17795335 17.7227161
Al 3.56919668 3.98943154 4.7482564
Al 3.81751219 1.46497458 30.775892
Al 26.3605165 21.2640828 1.97225025
Al 1.62732748 8.46206686 11.9007092
Al 18.1339806 24.5108791 7.42321082
Al 1.87397285 23.7721053 27.6368203
Al 5.06667812 32.3931369 29.6446673
Al 16.2408408 19.4410196 24.8240597
Al 32.1858764 8.25600672 14.9171755
Al 24.2258671 14.6742429 20.6072048
Al 22.3643214 29.5846652 30.6031479
Al 10.9311785 8.22853796 27.3621403
Al 19.9606411 1.22076863 19.7557711
Al 18.001624 11.5039406 32.0304614
Al 2.93447408 13.374352 11.032849
Al 24.310889 0.408645027 4.75151571
Al 13.2956259 16.2383161 14.2873447
Al 29.0291546 8.89381565 20.0334235
Al 27.8874574 27.8032027 13.8930976
Al 26.6762577 13.4700015 13.3859517
Al 5.12186808 29.6785222 1.23811339
Al 23.4784875 9.20267366 15.5046958
Al 24.7458182 20.9754323 30.4800146
Al 20.4765927 18.1788339 25.8202166
Al 31.8253451 27.1794437 28.6301353
Al 9.51134709 13.6272099 12.9247604
Al 2.90890071 31.4552097 17.0296379
Al 11.995628 14.9813726 11.9142933
Al 22.7751878 18.8646779 3.50778884
Al 10.0515884 28.2562158 15.4956049
Al 24.9246356 30.7030409 23.0862724
Al 0.00101618455 1.47646496 13.9919651
Al 1.12848688 17.7678293 28.6759791
Al 32.4916156 14.7292932 28.4920492
Al 3.33737824 0.853554157 15.4662721
Al 3.11470236 18.0292372 1.49157563
Al 22.2586424 23.212702 23.5154091
Al 1.20930122 28.056016 8.61184876
Al 2.71113945 21.6972616 23.40242
Al 21.9470815 31.9421804 19.361932
Al 30.704299 28.238551 11.0881724
Al 26.199751 0.714001197 28.7383248
Al 27.851284 19.3291814 6.03146964
Al 7.39735502 12.0055189 17.6152991
Al 19.0385173 7.08149247 21.1342845
Al 13.6181383 2.37937765 30.7822854
Al 7.0532955 19.3384583 1.55873585
Al 2.69300933 22.6450144 29.912685
Al 25.8252185 23.6587952 20.1544537
Al 29.7945037 0.789296631 21.0692719
Al 13.8245201 19.9882637 1.02528081
Al 28.685609 23.9516039 31.0818524
Al 30.1897829 28.1000244 2.40602988
Al 27.2009932 6.50812513 23.535778
Al 19.5717619 24.2363557 14.804805
Al 15.9258916 10.4002535 13.2581258
Al 32.9554958 6.98877904 22.1617316
Al 19.8172427 19.1611096 30.4415648
Al 18.0152744 4.15435507 18.1507796
Al 13.8880465 24.7195041 4.04535412
Al 6.75143953 14.1636436 19.263108
Al 30.8385413 31.0062252 23.7527729
Al 16.481884 14.4353584 22.8000668
Al 7.9993437 21.353177 18.8083244
Al 28.0981968 25.8739069 5.92558964
Al 2.98941063 14.5180066 29.3945862
Al 27.418289 2.11578447 24.952105
Al 21.3461804 30.234186 25.1173531
Al 1.36034199 20.9607907 17.1219568
Al 31.5852778 31.2450467 15.8676032
Al 17.0562627 15.211089 13.5866513
Al 16.0050451 15.1540245 16.8151087
Al 3.05961596 32.2722652 6.49015201
Al 8.61874119 22.5681471 31.5551354
Al 17.0133334 6.1998086 33.0915085
Al 28.018443 19.5840745 3.25985207
Al 24.8551238 32.9214243 26.1195479
Al 10.6315631 25.1401916 1.44271111
Al 8.45286918 32.956244 0.97613192
Al 13.7227005 27.1954202 25.9736981
Al 13.1997692 6.6541578 27.5428705
Al 13.2980192 5.99961539 20.546012
Al 3.54742305 28.2624065 32.9355335
Al 27.6512173 12.8852869 5.14343691
Al 4.26710952 14.5030487 24.3784672
Al 11.94077 20.0224468 3.21266461
Al 30.9215181 22.7333953 3.12720944
Al 3.52765602 20.0252175 12.1943008
Al 8.20940384 4.8263498 2.07066602
Al 11.9730003 13.0400549 18.2009578
Al 0.932775339 32.2836738 15.6773298
Al 22.052755 17.6711673 13.9901224
Al 30.6369943 23.7308149 7.80767011
Al 0.694565993 32.8051192 32.6332948
Al 8.50189203 27.4223543 7.50718917
Al 17.7379687 31.2072569 17.6527815
Al 14.0028705 13.91849 30.0403093
Al 8.78239819 23.2788161 15.8599805
Al 17.9042121 26.4423581 15.076407
Al 30.0790013 24.9084013 23.0824432
Al 9.95600695 26.0667881 9.63481474
Al 9.63464528 2.48672464 16.9047929
Al 21.5674104 27.2992243 25.6398065
Al 5.990651 26.5797823 17.5284362
Al 16.3339674 12.469605 11.4772736
Al 24.290458 2.78361778 16.2090933
Al 22.8577496 18.9256833 28.985644
Al 3.05972024 0.0271557779 9.12214179
Al 17.3357603 1.5286666 24.7857263
Al 30.4791626 7.66064734 10.4090221
Al 25.3784383 0.471710652 23.3938513
Al 11.8247647 3.34191738 1.669349
Al 19.9878154 31.557626 4.12802908
Al 15.0905924 32.600982 6.17684813
Al 12.0252974 10.6629947 3.17145529
Al 32.7312824 4.63115877 1.72931134
Al 23.2947387 13.3053768 33.0551164
Al 0.190119255 2.2400916 0.416702512
Al 26.992166 18.4219826 11.0510705
Al 11.9158829 22.4752623 4.73178979
Al 0.255123669 6.60937065 30.4941617
Al 31.9965152 14.1855575 8.43885088
Al 17.6969044 20.316714 31.8497498
Al 16.215493 31.1303746 8.13916069
Al 16.0499382 3.72278745 24.1013544
Al 16.431732 22.3713335 18.1105767
Al 6.35479459 14.5141638 16.2035985
Al 0.722663003 32.419309 26.8687135
Al 7.51904807 0.259955351 11.2034716
Al 23.766625 8.99941413 2.78892845
Al 7.93757007 16.18203 8.77265769
Al 9.56160607 28.9611145 10.7503417
Al 15.5355533 11.5368692 32.7669945
Al 2.41607088 2.14728544 7.40542715
Al 23.9197467 30.9042337 5.19833347
Al 0.157381965 0.988831836 8.80563416
Al 31.4205994 25.5568976 31.9555889
Al 5.50102319 5.03741579 21.1330516
