frame 0 of H_liquid_798.15/prod.xyz

2048 atoms
1 atom types

0 33.17909900 xlo xhi
0 33.17909900 ylo yhi
0 33.17909900 zlo zhi

Masses

1 26.982

Atoms # atomic

1 1 3.792153 5.644759 26.454065
2 1 1.446803 7.366395 14.352305
3 1 27.850670 9.595938 27.209581
4 1 2.650120 25.041937 30.126892
5 1 17.153828 32.742717 26.563308
6 1 12.660320 16.664694 25.063872
7 1 9.806116 27.235833 3.200717
8 1 8.463804 31.070392 7.239466
9 1 30.149378 5.485625 2.926733
10 1 14.096916 27.117091 9.863024
11 1 10.630591 14.614722 2.308166
12 1 2.936338 10.635753 7.380957
13 1 19.861371 12.668420 2.958947
14 1 8.171382 9.238149 27.593279
15 1 11.391504 18.860516 28.175479
16 1 8.796004 6.528911 27.520267
17 1 16.030833 1.816389 31.828179
18 1 8.443467 3.995055 26.449441
19 1 15.865626 17.716856 5.595321
20 1 30.848806 5.838386 14.146873
21 1 26.126499 8.721072 18.740397
22 1 27.187654 22.404548 29.481306
23 1 18.173201 6.630600 18.427697
24 1 15.064180 2.510830 13.677331
25 1 31.560353 7.680482 2.405416
26 1 25.552876 13.752139 31.350548
27 1 29.326731 28.965501 30.680279
28 1 28.976191 12.213293 9.674959
29 1 20.183951 0.960349 24.614646
30 1 21.253976 13.029345 24.772049
31 1 20.692141 30.688550 1.205552
32 1 3.706285 14.309300 7.460541
33 1 11.973625 32.001371 28.177541
34 1 16.257408 1.139279 28.860803
35 1 3.919217 6.719057 28.858988
36 1 15.205869 27.887860 19.799633
37 1 10.383643 23.383250 8.845200
38 1 13.281053 11.014705 12.594099
39 1 24.307463 27.531668 26.649025
40 1 11.136039 4.343453 4.211006
41 1 18.125834 31.511334 0.262812
42 1 29.511972 1.466932 14.056259
43 1 32.424015 9.899363 11.650813
44 1 9.925175 31.932563 22.522101
45 1 11.364240 6.729823 10.764356
46 1 26.372961 8.607951 15.970100
47 1 12.830997 17.328764 16.702544
48 1 0.719551 10.286890 14.144190
49 1 27.353279 11.127237 16.105128
50 1 13.804905 22.267835 2.684469
51 1 19.996415 23.455168 21.640198
52 1 32.364405 26.334282 17.592786
53 1 32.171091 23.717183 0.642552
54 1 15.002289 6.090563 29.120610
55 1 14.152340 24.134733 16.732738
56 1 23.008599 16.632533 22.288621
57 1 8.779691 25.486885 17.258890
58 1 11.974277 27.999909 20.521486
59 1 8.879842 12.057972 27.487897
60 1 4.429951 22.315912 19.033229
61 1 20.755808 26.064524 10.642129
62 1 12.029915 28.393397 10.580846
63 1 10.336307 25.523476 6.770504
64 1 23.423607 22.089305 6.258169
65 1 21.108337 8.025713 11.758332
66 1 26.855799 27.382483 8.408985
67 1 23.664770 10.392981 5.270260
68 1 27.722471 19.102063 0.412500
69 1 14.760314 12.280637 25.734611
70 1 18.500803 9.203084 18.511778
71 1 4.549759 15.599474 17.833968
72 1 4.700694 3.545021 19.197870
73 1 3.689171 32.279202 1.927360
74 1 16.542099 13.198301 1.530595
75 1 15.156415 10.238722 10.728453
76 1 1.325072 12.604419 12.943475
77 1 14.653939 27.833010 5.368800
78 1 3.355393 2.889220 10.047669
79 1 21.569135 9.760106 6.783657
80 1 9.719145 1.475566 24.643752
81 1 1.398417 25.574678 18.034791
82 1 2.996877 31.148542 28.320374
83 1 5.255839 32.266637 16.481867
84 1 7.182028 13.735562 21.855158
85 1 14.274935 8.099604 22.138090
86 1 24.872889 2.709799 30.025565
87 1 4.189801 27.569132 30.130845
88 1 2.830239 32.439816 24.892920
89 1 4.310211 22.697248 12.149897
90 1 14.551812 32.244998 26.995331
91 1 14.676292 2.730249 6.555712
92 1 17.475136 29.970735 26.516447
93 1 28.409437 4.626201 25.260141
94 1 27.011009 31.579998 24.645180
95 1 18.105011 4.596757 12.876672
96 1 31.863435 8.816229 4.743840
97 1 7.053493 20.681411 26.411417
98 1 13.904886 18.651093 22.328763
99 1 17.832769 18.374362 26.649708
100 1 7.129422 2.413729 1.760671
101 1 22.539819 16.844723 11.368595
102 1 17.416364 18.161992 8.160258
103 1 13.450262 10.115785 24.618541
104 1 21.816127 14.186731 2.191786
105 1 1.117903 8.808682 23.710128
106 1 18.680890 15.282708 21.505439
107 1 17.793666 31.148463 30.737014
108 1 23.893649 10.093184 8.070765
109 1 20.373136 28.243669 2.281593
110 1 6.944817 29.292923 9.246841
111 1 17.966065 13.242004 30.002747
112 1 30.968691 13.427822 21.903878
113 1 32.220787 2.057908 25.689050
114 1 24.033150 4.802973 18.594331
115 1 26.187367 7.309791 13.485767
116 1 31.764246 28.336662 8.277203
117 1 14.436575 1.748951 1.963729
118 1 4.532685 31.696302 11.296848
119 1 22.650184 2.870202 11.785724
120 1 7.200535 15.518684 12.111118
121 1 10.861304 19.269124 15.275590
122 1 19.264552 19.386888 23.600011
123 1 9.099935 20.883803 21.429409
124 1 30.869064 22.455748 22.025771
125 1 24.077218 9.120453 21.680058
126 1 19.199688 22.031430 0.045765
127 1 1.120156 20.431792 29.897815
128 1 26.551733 32.012594 11.968698
129 1 1.328789 18.948466 6.711948
130 1 5.698365 26.832928 1.471372
131 1 24.762775 32.370586 21.010064
132 1 10.678353 4.805994 18.660587
133 1 7.074538 17.555842 3.554327
134 1 22.238567 24.972110 21.308129
135 1 11.865469 8.934345 13.459416
136 1 9.967398 17.762231 6.834553
137 1 22.608818 15.042753 15.567122
138 1 28.104621 27.083183 3.519394
139 1 11.062237 24.586412 16.698138
140 1 18.088036 23.582466 27.047947
141 1 23.595097 13.206256 5.632610
142 1 29.289798 32.256667 10.839618
143 1 3.920847 24.422737 13.902788
144 1 23.228700 29.912832 33.058606
145 1 28.319314 26.839107 22.839720
146 1 1.046015 8.021742 7.315925
147 1 8.661408 19.362574 32.464859
148 1 13.435958 9.606398 27.362117
149 1 28.454245 15.800420 26.032482
150 1 3.379225 9.432857 14.241152
151 1 10.857107 19.213652 25.550718
152 1 10.666661 25.969768 22.081098
153 1 12.882853 10.326289 21.784433
154 1 30.644981 20.198866 20.740727
155 1 8.389502 10.841106 2.824310
156 1 1.693186 5.916409 23.822590
157 1 31.546919 15.469649 0.357738
158 1 16.578616 9.764724 20.419710
159 1 32.533496 18.183554 31.094590
160 1 28.303090 22.094291 23.269081
161 1 27.490602 17.017323 2.291289
162 1 7.597733 32.408519 21.612763
163 1 25.244911 11.403034 23.661815
164 1 4.232136 30.277234 26.210416
165 1 30.224063 27.301730 18.767999
166 1 24.548643 28.600863 29.043825
167 1 21.697908 18.628657 23.281942
168 1 3.533733 16.587857 28.173130
169 1 21.426005 27.571388 12.829767
170 1 22.793982 7.459130 17.155701
171 1 0.359674 2.754494 16.267801
172 1 19.147976 14.038762 28.064826
173 1 33.115463 22.940183 31.208271
174 1 23.448095 25.532880 4.394687
175 1 22.759523 29.613100 17.528015
176 1 1.326395 19.219769 9.437361
177 1 0.663414 28.608178 18.082574
178 1 3.939199 29.646122 4.318418
179 1 13.724995 19.377490 14.979372
180 1 21.084789 22.731113 8.223879
181 1 15.825621 4.484222 30.988607
182 1 28.776423 28.573852 20.503063
183 1 5.668804 22.919928 9.460918
184 1 21.560785 29.452462 15.068079
185 1 16.235293 22.603432 10.550413
186 1 13.166192 31.021398 32.757437
187 1 32.798413 22.322814 23.829412
188 1 22.919242 19.652165 26.017186
189 1 4.597146 1.117099 11.314941
190 1 33.164934 3.998269 20.415590
191 1 24.383814 25.715648 29.522684
192 1 0.408557 8.786009 32.276875
193 1 14.375279 30.455643 13.464005
194 1 3.292108 9.764898 28.140172
195 1 3.519371 6.630717 1.229042
196 1 30.470960 15.806672 23.954591
197 1 21.128221 28.055533 33.016651
198 1 16.506348 27.536709 25.455655
199 1 23.490166 28.638518 24.053815
200 1 20.476747 0.701305 27.453021
201 1 3.637493 7.209963 16.806451
202 1 17.258514 28.572995 6.434682
203 1 3.275610 27.396377 25.181429
204 1 29.154189 0.599438 0.520162
205 1 21.214016 27.676944 7.156139
206 1 25.979399 29.149412 6.147685
207 1 23.769191 8.243989 12.950405
208 1 1.990135 27.233473 4.319283
209 1 27.793071 12.342821 31.927629
210 1 25.613337 13.295013 0.995010
211 1 21.523336 0.641313 13.468599
212 1 10.866697 15.089944 9.350016
213 1 16.255986 14.114477 9.383395
214 1 30.313461 8.609582 13.025538
215 1 17.775372 24.697527 23.313445
216 1 18.622982 26.990055 8.308863
217 1 24.217565 19.336267 6.303253
218 1 10.490358 1.395447 22.092630
219 1 31.755011 7.079248 32.957204
220 1 24.962721 23.150951 3.791775
221 1 1.171905 7.879167 4.413182
222 1 28.991574 30.239867 12.500192
223 1 10.973683 27.416629 31.350026
224 1 4.592175 14.289505 20.394627
225 1 6.378088 16.616547 23.773518
226 1 30.021240 2.519630 27.123350
227 1 28.717672 29.980334 15.393208
228 1 0.325212 15.018706 19.347083
229 1 28.015137 1.561715 31.642436
230 1 6.759004 12.119951 8.063707
231 1 26.108710 28.702634 15.765972
232 1 10.672172 17.403761 32.086356
233 1 25.977783 26.489333 24.561497
234 1 17.532285 12.506606 4.169427
235 1 23.400869 26.033831 23.736685
236 1 15.438258 3.342814 28.646008
237 1 26.322766 10.557642 9.087503
238 1 12.391393 30.892930 2.243148
239 1 6.771725 10.488595 10.484393
240 1 16.079593 19.881591 10.237065
241 1 6.125091 22.000811 30.225370
242 1 29.112652 3.193387 18.957399
243 1 4.524953 9.421757 20.147580
244 1 16.824626 30.752778 21.032963
245 1 7.214797 25.713354 19.779823
246 1 26.679486 9.975223 30.277373
247 1 26.230473 8.603543 11.105866
248 1 10.717591 27.834753 12.970574
249 1 26.793907 8.670694 7.397018
250 1 8.282128 23.407912 25.712908
251 1 10.010998 11.633467 17.450966
252 1 10.402262 24.343112 24.132639
253 1 2.424030 11.093035 18.681078
254 1 2.566321 32.498025 19.651844
255 1 11.512538 8.277997 32.314707
256 1 24.494932 21.516042 19.553492
257 1 3.138205 4.230835 32.828428
258 1 3.130438 6.941469 31.824892
259 1 22.112679 25.536645 14.238506
260 1 12.769774 26.079468 6.151338
261 1 20.138509 27.167796 30.047296
262 1 26.702085 31.652677 14.952103
263 1 5.888854 24.335424 26.268774
264 1 11.901792 6.378618 7.878520
265 1 17.506557 2.882027 15.052273
266 1 27.370677 1.675656 19.413180
267 1 14.893613 32.042668 21.908762
268 1 1.262911 27.841729 29.774974
269 1 0.019871 16.423515 9.125471
270 1 5.439966 2.509078 16.334706
271 1 27.298012 6.432096 9.923831
272 1 24.452160 7.026925 26.313979
273 1 31.072250 3.490703 4.273158
274 1 7.202133 28.458635 24.347763
275 1 29.994295 21.310274 29.162305
276 1 28.994955 32.390616 4.765698
277 1 22.420774 11.635384 2.937642
278 1 8.702456 0.231709 14.018382
279 1 6.973730 10.099108 31.805201
280 1 32.087378 29.586964 19.895120
281 1 4.393670 20.177536 0.509815
282 1 5.181006 21.955914 25.164908
283 1 29.791118 17.689968 19.417338
284 1 17.170662 28.437382 17.046522
285 1 6.340442 31.922431 9.393172
286 1 13.983861 21.447457 9.437418
287 1 27.362089 16.022184 11.981924
288 1 25.477776 29.500091 0.847662
289 1 15.580264 30.143342 0.649612
290 1 11.846185 0.336057 30.565590
291 1 10.314299 32.469676 11.932547
292 1 15.645032 23.987025 1.975253
293 1 6.670398 18.950423 22.493919
294 1 18.956693 28.302165 10.456292
295 1 3.114206 30.114145 23.520941
296 1 22.384209 15.093855 7.461992
297 1 19.242169 21.883122 18.363155
298 1 7.088676 16.706431 18.165149
299 1 32.553592 14.555633 13.414804
300 1 32.312849 21.119804 15.248164
301 1 13.902186 22.866213 13.705120
302 1 30.199208 29.865711 33.125082
303 1 16.071159 28.089865 11.543096
304 1 8.503511 11.435297 21.222743
305 1 3.012455 9.206537 5.295720
306 1 6.148602 15.149808 4.177484
307 1 0.938928 28.375118 32.217727
308 1 2.252413 18.241501 31.431571
309 1 0.212565 23.450996 6.937917
310 1 8.195094 14.829318 24.120891
311 1 7.420655 30.719385 29.965488
312 1 23.068036 31.385767 14.005579
313 1 32.852739 25.028013 22.767355
314 1 21.960766 12.602993 18.673173
315 1 21.434346 5.930131 18.841378
316 1 6.843943 13.233735 25.669944
317 1 9.021570 17.730633 13.495788
318 1 13.781824 5.414024 10.187273
319 1 14.405079 21.241196 23.396000
320 1 10.698312 10.696887 19.816416
321 1 13.070212 21.650553 31.858970
322 1 7.059646 18.102456 11.679129
323 1 6.337012 28.162826 32.272761
324 1 3.735686 6.901173 12.711467
325 1 20.932373 2.798710 9.828967
326 1 15.792786 28.327268 14.240630
327 1 15.637385 24.705884 26.369292
328 1 5.101275 23.793567 23.372922
329 1 2.046517 8.855476 30.175953
330 1 25.223840 8.640783 0.185074
331 1 5.965710 20.779125 16.865461
332 1 8.001687 32.034194 24.526618
333 1 2.821284 3.603270 28.180168
334 1 24.771613 2.516089 13.293654
335 1 5.679201 7.701882 24.287200
336 1 3.122943 23.016330 6.422370
337 1 19.474663 26.111828 20.715740
338 1 4.971462 11.632615 32.314662
339 1 25.233434 21.224446 15.549158
340 1 18.992134 7.979589 28.535734
341 1 27.832853 9.529045 13.981106
342 1 26.103727 19.462030 19.762350
343 1 3.646426 25.818721 27.675519
344 1 13.969708 29.598602 21.276169
345 1 8.012968 4.928461 17.126115
346 1 15.876898 5.143704 26.782871
347 1 1.654729 18.674022 19.049804
348 1 14.411216 3.486645 33.040138
349 1 29.049306 13.464237 1.230854
350 1 23.110969 23.604719 1.886572
351 1 2.824506 12.118321 1.288908
352 1 2.722863 4.563726 21.261603
353 1 0.631091 31.697241 5.450902
354 1 20.909391 6.122774 29.762981
355 1 29.379765 14.443021 28.560397
356 1 20.110384 5.209506 3.812081
357 1 12.116805 23.607898 20.834781
358 1 27.182448 28.437457 32.091658
359 1 30.044641 11.045136 1.863276
360 1 10.664364 0.333843 32.956433
361 1 5.398154 12.277649 23.309137
362 1 5.095778 6.081415 3.564932
363 1 18.861255 5.603467 23.363254
364 1 6.224965 14.729747 7.096622
365 1 31.856263 29.569058 13.712120
366 1 31.258713 16.714771 27.524449
367 1 25.282406 25.072100 9.166085
368 1 20.402040 32.532654 21.581895
369 1 2.165915 8.496079 18.964389
370 1 32.147828 1.514281 2.766055
371 1 17.570820 32.009137 2.701392
372 1 0.259738 31.145906 18.289530
373 1 10.015476 29.930873 25.228669
374 1 27.779921 22.289511 12.423742
375 1 2.697646 13.956840 22.313088
376 1 19.710450 28.176350 27.677700
377 1 15.433006 19.185885 32.331055
378 1 23.886709 24.075467 27.782260
379 1 32.688513 12.128049 27.199201
380 1 30.640248 12.684848 30.074280
381 1 27.372110 15.251032 30.100552
382 1 7.870897 1.691061 22.720174
383 1 9.685355 5.381796 6.467206
384 1 19.149553 31.289344 19.697649
385 1 4.981226 9.609955 30.526570
386 1 24.280271 18.819946 14.896713
387 1 32.263282 4.518314 17.989234
388 1 25.930359 6.414617 31.463093
389 1 0.283925 30.544195 7.910985
390 1 6.585936 23.028681 20.639273
391 1 31.910237 32.161074 3.570221
392 1 10.453399 9.203194 16.161095
393 1 21.707570 22.216441 0.506117
394 1 22.740977 1.705214 31.452474
395 1 3.868887 25.522842 32.500329
396 1 29.918434 4.140336 7.918967
397 1 6.191222 10.473172 13.283822
398 1 25.620645 28.603365 3.299771
399 1 20.475209 31.535391 31.943889
400 1 11.809561 19.401562 18.154888
401 1 5.327644 9.628346 7.272078
402 1 3.574211 14.511344 4.715400
403 1 5.991359 16.493542 14.532002
404 1 18.828385 23.189854 9.336074
405 1 22.250549 19.820718 15.788886
406 1 2.038475 11.762183 26.545674
407 1 17.164686 7.151825 30.307675
408 1 7.366893 5.582528 5.132060
409 1 3.453269 11.945069 3.852290
410 1 12.546272 5.801657 2.746454
411 1 19.004014 13.899937 23.946513
412 1 0.879935 28.012881 13.387585
413 1 8.786963 14.629290 4.710346
414 1 11.489171 30.392926 30.686547
415 1 11.609363 12.375484 23.934033
416 1 14.691288 10.936321 2.444167
417 1 1.850078 18.803764 3.946746
418 1 15.067115 12.392454 5.142182
419 1 28.170198 19.157283 21.302763
420 1 0.471003 0.420017 17.946926
421 1 4.556702 17.362706 10.423853
422 1 22.121585 16.760295 27.852456
423 1 6.282534 19.508043 19.691582
424 1 7.458698 10.140456 5.549790
425 1 17.231440 17.309359 32.561530
426 1 24.490503 27.314412 31.800327
427 1 8.360480 25.979260 5.049600
428 1 23.682015 9.722113 10.688786
429 1 31.623370 30.761164 26.960394
430 1 6.089595 18.129741 25.702110
431 1 0.799097 4.315875 13.666536
432 1 14.500224 8.226906 13.843938
433 1 9.733315 27.635592 23.909845
434 1 31.113261 16.980438 15.197090
435 1 23.430999 23.036122 15.014637
436 1 32.564910 24.613446 19.760319
437 1 17.259950 15.690395 1.963105
438 1 28.402385 4.618916 22.021981
439 1 8.600768 10.552264 29.785947
440 1 25.943611 25.488535 3.643845
441 1 4.097755 4.079086 2.128628
442 1 11.363479 7.548156 18.725210
443 1 3.524735 32.477441 32.117089
444 1 18.583332 0.334702 32.068763
445 1 3.880646 19.070033 23.492692
446 1 8.113462 3.651946 8.991903
447 1 16.308223 24.763734 29.231576
448 1 11.779311 20.513831 10.238380
449 1 5.091239 5.075947 16.943178
450 1 24.708952 10.620961 17.250036
451 1 13.340283 8.699165 6.933169
452 1 7.650717 16.674401 6.052750
453 1 11.850007 11.907432 26.671093
454 1 3.002482 28.424069 27.830794
455 1 29.717501 9.556464 15.940414
456 1 32.374412 17.511979 23.657108
457 1 30.245198 15.506984 13.187876
458 1 1.779200 17.482329 11.099098
459 1 11.436327 10.623085 29.101224
460 1 12.349901 8.240881 4.215617
461 1 19.291755 6.367968 8.055060
462 1 12.101762 5.831702 22.880304
463 1 1.262589 30.331774 3.175531
464 1 10.121082 24.402550 27.290738
465 1 25.886214 11.353150 26.187302
466 1 23.620442 20.950500 23.651486
467 1 30.831999 10.203287 9.325596
468 1 3.522973 19.904769 28.722612
469 1 15.210288 3.950437 16.198374
470 1 30.489460 5.984202 30.794489
471 1 22.039299 30.193891 22.242939
472 1 0.135279 27.099008 20.421183
473 1 22.850041 32.931366 22.848614
474 1 1.320529 9.774458 21.160486
475 1 6.778149 5.993039 25.947034
476 1 28.385258 4.304091 5.762429
477 1 31.276522 10.820744 6.747734
478 1 32.357734 24.780020 4.754133
479 1 20.349108 2.538373 32.589314
480 1 7.436280 24.804669 22.617956
481 1 16.033757 15.830512 7.364610
482 1 25.938823 16.224065 24.603683
483 1 4.197789 28.473177 15.587800
484 1 12.671510 16.891523 2.635518
485 1 29.519996 18.228301 25.002591
486 1 3.858491 25.532487 16.307698
487 1 1.952333 11.108954 31.815120
488 1 13.415160 8.154232 16.382297
489 1 19.358807 0.818655 4.553661
490 1 7.405865 27.966854 29.749147
491 1 5.384764 29.950555 13.320244
492 1 29.815667 30.953682 2.448244
493 1 14.717900 5.490581 22.742605
494 1 28.818155 23.860826 0.699557
495 1 15.754112 21.640540 15.308381
496 1 10.080768 17.172539 17.648066
497 1 3.972903 16.218635 32.467267
498 1 26.947600 11.704923 18.874466
499 1 23.747314 6.413606 0.722529
500 1 5.755531 30.900542 31.937939
501 1 21.576216 24.350159 16.763956
502 1 21.457870 30.757332 6.317105
503 1 30.029439 25.820861 27.343692
504 1 13.209163 14.452613 16.255881
505 1 0.800787 15.867078 30.577189
506 1 27.442276 17.051444 18.803784
507 1 28.276176 15.225369 15.070664
508 1 31.170214 31.375795 6.637252
509 1 29.669982 2.649101 23.692987
510 1 25.614647 19.158978 8.621529
511 1 24.227319 32.633585 7.351937
512 1 4.047978 16.295319 22.220732
513 1 6.181595 25.914876 30.982688
514 1 14.264713 17.894859 19.231816
515 1 3.272418 23.386540 8.997103
516 1 9.568923 1.812130 27.400195
517 1 23.948325 19.411443 21.305030
518 1 17.338423 2.677988 27.142367
519 1 29.605624 1.568265 3.346072
520 1 8.953241 29.287426 31.701684
521 1 32.659447 26.021234 7.048765
522 1 0.338890 10.640208 25.087366
523 1 19.375487 5.051727 0.860238
524 1 19.997935 2.919597 12.289442
525 1 16.455296 10.486232 6.490020
526 1 12.116739 3.955618 6.649065
527 1 4.632035 5.300549 23.863949
528 1 17.507745 21.623304 7.491473
529 1 27.806547 23.977410 3.314294
530 1 32.469125 30.559470 32.177701
531 1 24.296827 24.862786 32.920004
532 1 18.781008 26.894182 18.266757
533 1 18.034004 27.986578 3.870828
534 1 20.450404 25.430199 27.451170
535 1 7.973407 29.124710 13.552938
536 1 4.459678 11.278156 9.489996
537 1 1.836064 2.467375 19.177774
538 1 10.041499 10.373719 25.659172
539 1 9.482430 7.013843 12.799131
540 1 4.867492 9.395213 17.374568
541 1 9.785628 24.754094 12.049284
542 1 12.207898 4.391007 15.498388
543 1 20.012897 3.273279 27.859017
544 1 10.062826 30.400820 14.244212
545 1 25.850301 2.596541 10.598430
546 1 30.404743 23.161770 15.618158
547 1 24.069598 7.665378 6.128688
548 1 3.539882 31.292168 14.412805
549 1 0.465067 3.413107 9.204892
550 1 5.824134 10.394581 3.553042
551 1 20.713980 15.848443 23.240703
552 1 11.854956 21.713628 25.558958
553 1 24.227746 9.167005 30.502371
554 1 8.212745 8.357068 25.103741
555 1 32.841408 15.292786 25.076617
556 1 12.764292 7.915436 29.943903
557 1 15.951014 32.307851 32.423832
558 1 11.422814 8.213372 21.307773
559 1 15.189768 25.164293 32.858661
560 1 13.781049 25.849151 21.458275
561 1 17.982384 28.383554 20.239878
562 1 1.669129 25.106595 20.856065
563 1 4.220511 22.600239 31.964032
564 1 18.651717 7.966792 1.093998
565 1 22.612498 4.144462 27.102934
566 1 26.838998 9.923997 21.777356
567 1 4.706232 17.415324 30.254184
568 1 1.991928 9.016702 16.463190
569 1 20.128212 31.251078 27.155017
570 1 11.344308 28.531086 5.390623
571 1 8.021347 6.938709 14.878373
572 1 27.995746 11.292669 23.979585
573 1 7.603341 6.139170 19.856933
574 1 8.014180 0.730798 8.691571
575 1 22.720531 2.751505 7.747304
576 1 6.530058 18.039603 32.187417
577 1 17.877770 2.953185 29.982125
578 1 25.999260 3.935246 23.489406
579 1 3.818934 29.896776 19.584841
580 1 3.224913 8.425928 25.877647
581 1 6.613469 7.060052 12.410429
582 1 24.499781 13.177759 17.883756
583 1 4.911774 12.283957 18.321210
584 1 17.041087 33.013070 19.455151
585 1 1.939210 16.167216 2.915025
586 1 20.072580 10.590926 11.913752
587 1 5.363926 7.976552 5.104379
588 1 0.287713 2.325231 11.365316
589 1 24.960730 28.532703 18.472301
590 1 15.777741 19.900379 27.495430
591 1 13.179549 6.065978 5.599248
592 1 27.365211 13.862818 7.964845
593 1 17.874130 27.426831 22.934943
594 1 22.244001 29.518843 27.991027
595 1 13.845271 27.848568 12.894670
596 1 18.916866 2.837284 22.831102
597 1 10.737230 6.599308 16.160487
598 1 13.509150 0.774259 32.799855
599 1 15.501302 4.715924 11.880973
600 1 19.560263 7.319347 31.740281
601 1 23.694620 30.119989 20.366011
602 1 19.648928 5.150444 10.330621
603 1 4.023949 4.525695 7.573418
604 1 32.524633 11.214473 22.554757
605 1 12.882850 3.146055 18.306515
606 1 32.722052 20.799582 11.761249
607 1 27.059849 22.167252 32.374456
608 1 32.556607 13.493676 5.741928
609 1 28.943729 8.133585 29.007261
610 1 26.175399 31.134483 7.907261
611 1 30.327090 21.745872 13.522903
612 1 21.427351 10.813173 20.358589
613 1 19.531422 11.520947 17.440899
614 1 30.444138 11.515254 25.102475
615 1 7.287902 0.925337 4.055280
616 1 11.693269 18.295438 23.300482
617 1 8.844617 32.171643 31.897366
618 1 1.489499 13.840694 24.580781
619 1 30.803175 9.464464 32.996545
620 1 17.546106 31.232104 5.785459
621 1 31.520240 8.780520 23.678212
622 1 29.929148 19.867271 15.520919
623 1 17.184705 23.499134 12.869337
624 1 6.658126 16.575345 20.936022
625 1 15.740814 23.577560 22.258842
626 1 31.162436 4.535559 25.644898
627 1 16.990210 25.481907 9.923459
628 1 7.292598 2.707834 18.379346
629 1 28.886474 1.173547 9.124287
630 1 15.276139 17.272108 26.097518
631 1 17.664423 23.038352 31.324600
632 1 16.386935 16.606898 21.109960
633 1 16.723468 25.920486 20.937746
634 1 17.741829 26.261974 31.040717
635 1 30.646470 24.309671 29.467846
636 1 10.746450 20.426445 5.678835
637 1 4.391085 30.795889 8.278642
638 1 12.377745 10.537985 17.405247
639 1 10.018448 12.516235 4.177463
640 1 20.602695 27.324694 16.277650
641 1 14.216897 5.169176 14.316596
642 1 17.508034 30.638197 13.097043
643 1 11.479491 18.193131 12.683168
644 1 23.056855 19.333968 18.364225
645 1 16.870849 3.277322 2.843490
646 1 12.629181 25.145134 8.833101
647 1 29.437515 11.564589 17.804423
648 1 13.555171 1.211556 28.337919
649 1 14.862077 11.895999 20.064799
650 1 0.001007 22.782259 13.477132
651 1 18.044079 16.702686 24.148325
652 1 8.840757 11.492307 12.117626
653 1 10.026007 25.636824 14.455836
654 1 6.225492 26.434015 6.629850
655 1 31.573757 15.785301 20.928030
656 1 28.092717 24.458024 8.235835
657 1 11.169787 32.173000 18.952586
658 1 20.454567 16.189366 15.363187
659 1 15.311012 8.816035 29.734926
660 1 5.566673 27.124034 4.115425
661 1 25.748038 21.141669 10.464626
662 1 6.303066 7.432334 17.461108
663 1 17.943891 24.546940 0.440998
664 1 9.268908 1.862620 30.676916
665 1 2.015809 24.442790 4.475896
666 1 23.776830 5.148652 31.075897
667 1 26.572651 1.553473 1.686986
668 1 23.426475 22.534779 21.462297
669 1 5.578172 26.185869 24.232322
670 1 29.110632 29.203478 6.965675
671 1 29.268311 1.773630 6.388715
672 1 12.126705 26.709333 3.770972
673 1 33.008167 28.279403 5.837824
674 1 10.363901 4.537390 12.196312
675 1 5.461838 25.587393 8.993410
676 1 6.265171 32.481709 6.649124
677 1 9.002786 2.264886 0.055394
678 1 14.494559 1.925372 11.191235
679 1 1.589914 18.855344 21.913551
680 1 13.079309 11.849385 31.396148
681 1 4.236340 17.576811 4.212475
682 1 1.299364 15.195968 27.112308
683 1 2.328633 20.499796 1.976318
684 1 31.499563 32.541064 0.762528
685 1 12.429873 26.854032 23.598994
686 1 23.684446 4.815189 13.724369
687 1 30.529548 26.848257 4.749740
688 1 15.198043 25.792899 13.188095
689 1 3.863336 27.324349 5.959776
690 1 4.139201 9.641234 23.308014
691 1 10.788439 29.859181 7.712306
692 1 29.171100 7.671065 1.073465
693 1 3.075032 25.703301 2.216228
694 1 13.094107 18.470984 4.745771
695 1 13.516503 28.346346 32.783816
696 1 23.290137 22.455446 25.940118
697 1 30.607092 33.092861 25.284156
698 1 10.135365 5.946373 25.414746
699 1 5.686264 12.446990 1.880076
700 1 10.406967 22.088513 27.734355
701 1 17.765826 21.345648 4.541230
702 1 31.376368 25.703779 24.993485
703 1 10.824444 0.009050 8.561794
704 1 15.997763 10.650496 27.369785
705 1 7.420287 26.912000 10.186713
706 1 3.415047 24.363225 25.442049
707 1 32.163401 5.629488 7.779798
708 1 7.521296 20.522580 9.827676
709 1 20.556084 17.025713 17.892316
710 1 2.384501 29.510171 6.337161
711 1 31.559978 28.211038 25.605922
712 1 24.483592 25.101710 13.438321
713 1 6.769510 21.412910 32.754494
714 1 13.243324 19.661783 25.337936
715 1 14.022163 32.469044 19.539287
716 1 30.350383 30.194138 9.143003
717 1 13.712630 30.525936 29.215449
718 1 19.119963 11.384852 7.278725
719 1 21.423296 9.258448 22.574296
720 1 1.336827 12.985604 8.559603
721 1 5.418870 1.511173 8.481835
722 1 29.431577 3.630007 30.647247
723 1 15.123590 16.797004 23.518230
724 1 9.140964 18.331297 21.857719
725 1 18.432242 14.858269 17.869918
726 1 4.907121 21.194621 21.803771
727 1 30.381092 19.036399 2.449310
728 1 14.883935 25.256078 24.209819
729 1 13.104498 20.855079 28.425744
730 1 31.384489 3.227865 12.865830
731 1 20.796613 22.675832 27.438267
732 1 19.865765 30.163860 29.625189
733 1 5.310239 24.172967 29.188517
734 1 30.223816 20.564447 8.527084
735 1 7.978030 4.774812 32.620484
736 1 1.807360 6.609524 27.823866
737 1 11.727604 13.828052 31.653012
738 1 14.956832 26.679944 30.497801
739 1 11.177525 1.616433 4.953304
740 1 7.983312 25.661993 2.128390
741 1 17.150597 5.723150 9.879642
742 1 9.165570 8.653556 10.708416
743 1 26.368650 26.250186 27.188754
744 1 1.554455 19.660900 14.393733
745 1 16.304941 32.985086 11.867249
746 1 20.636390 4.350431 6.663197
747 1 12.964114 19.022878 31.594209
748 1 3.387127 6.644928 6.222086
749 1 27.655239 24.234876 17.881226
750 1 16.583655 8.519782 8.704693
751 1 11.286854 3.474296 32.138698
752 1 13.238548 8.348999 1.621575
753 1 21.338953 22.058414 10.787898
754 1 20.094338 10.060738 2.031450
755 1 8.454357 3.159192 5.212336
756 1 3.057518 8.309316 9.255301
757 1 14.297159 24.327732 10.540654
758 1 5.590027 28.090874 19.798308
759 1 19.429086 4.688142 20.325886
760 1 26.532498 19.490050 26.710932
761 1 13.126523 23.319949 0.411341
762 1 14.577715 23.308164 30.780498
763 1 18.956015 17.776925 1.756478
764 1 5.332668 2.908818 32.734976
765 1 15.840400 21.998131 33.138412
766 1 10.755722 21.433104 32.812522
767 1 4.470661 1.230831 28.338626
768 1 24.489401 4.402528 9.173928
769 1 14.907497 0.565681 9.026843
770 1 10.518323 5.971199 31.653692
771 1 4.073005 12.009004 13.261484
772 1 30.392988 22.958326 24.934688
773 1 16.451808 14.776665 4.366374
774 1 8.103695 15.754337 31.059334
775 1 5.434424 14.817127 30.231189
776 1 5.261626 17.904273 16.542596
777 1 27.421676 24.463488 22.512514
778 1 21.150881 2.122239 22.102011
779 1 12.147857 15.577988 0.201137
780 1 20.125504 12.021873 26.847940
781 1 22.372116 26.761159 28.345354
782 1 11.605361 27.367726 8.071336
783 1 29.861599 13.122988 7.204737
784 1 31.520645 8.718335 20.722797
785 1 16.545983 26.650507 1.904053
786 1 1.717873 29.825519 26.063689
787 1 20.187811 6.604274 16.767689
788 1 0.571804 1.897490 28.215979
789 1 32.391164 12.957501 24.471029
790 1 20.934404 15.446480 20.348528
791 1 23.626999 9.355224 24.699391
792 1 22.335778 26.404917 18.967631
793 1 28.824642 5.652736 19.043606
794 1 11.968155 0.479875 1.936271
795 1 10.134880 2.448384 7.646927
796 1 28.403533 32.277800 18.848771
797 1 8.343980 18.557765 27.417348
798 1 21.003358 10.153289 24.911854
799 1 10.222425 28.029578 28.760988
800 1 17.707497 18.942627 11.959535
801 1 19.586095 31.100486 9.931854
802 1 33.060591 13.545862 31.302287
803 1 19.378571 26.029464 5.893634
804 1 0.532732 17.183648 14.656717
805 1 25.008468 21.185268 27.913409
806 1 18.561709 23.593533 5.015637
807 1 15.039045 14.728934 11.859359
808 1 6.489558 24.913304 14.911020
809 1 1.500730 2.415669 21.953622
810 1 10.255251 12.100456 1.524149
811 1 8.809541 3.025725 20.588685
812 1 18.474324 2.648324 9.390634
813 1 13.354446 25.795894 1.590868
814 1 22.067340 5.148892 8.992567
815 1 19.492645 18.684626 15.853480
816 1 28.928350 13.240627 12.162677
817 1 12.545214 1.826744 16.129983
818 1 24.657571 15.428398 28.804204
819 1 9.963327 5.993099 1.283857
820 1 17.568420 26.551509 27.546753
821 1 28.680085 15.156742 9.800849
822 1 26.727373 17.290453 4.855767
823 1 16.465724 19.518494 22.221692
824 1 6.724849 13.300088 13.501645
825 1 17.050870 11.500273 18.439904
826 1 10.349326 13.975392 25.833573
827 1 3.518096 14.748557 1.479826
828 1 32.051937 1.681769 22.843160
829 1 3.294937 4.537324 14.606163
830 1 22.542176 11.489069 23.041402
831 1 17.254278 0.007465 22.061185
832 1 18.587835 7.219589 25.892231
833 1 16.453977 14.484358 19.651313
834 1 16.157104 16.214410 30.492508
835 1 1.385537 29.785412 15.677882
836 1 8.974573 14.671803 17.534402
837 1 20.457483 21.961784 15.841425
838 1 24.807112 17.343657 12.658210
839 1 4.243879 9.830470 11.483187
840 1 8.227742 20.529046 14.627658
841 1 12.263315 33.040590 23.525336
842 1 2.366488 21.161602 8.020201
843 1 24.083535 17.169843 1.612618
844 1 3.549767 17.785714 13.239497
845 1 5.625330 8.306665 27.052407
846 1 7.608644 9.251401 19.363770
847 1 30.698768 10.902125 28.182112
848 1 0.372578 29.207283 27.920219
849 1 29.667806 11.197341 4.901344
850 1 26.974370 25.819319 31.882107
851 1 18.853344 9.945043 21.221477
852 1 17.787591 2.876809 0.369576
853 1 7.227218 28.591708 2.926948
854 1 14.313701 17.662575 8.396594
855 1 10.992978 12.622424 10.775755
856 1 18.140593 12.026072 13.394600
857 1 21.761043 6.912561 14.702478
858 1 9.104230 20.751812 1.584893
859 1 13.262212 0.525872 4.146645
860 1 29.631287 6.825629 26.824927
861 1 9.324557 2.417336 10.901428
862 1 5.773410 12.734945 11.270528
863 1 6.813315 18.454536 8.545523
864 1 26.986877 7.086234 26.541719
865 1 1.747757 3.091705 2.434831
866 1 13.256695 3.103045 8.730454
867 1 3.699400 23.154228 21.445936
868 1 22.233494 19.253642 0.907259
869 1 31.531673 0.510212 5.484378
870 1 10.788934 27.226409 26.189924
871 1 1.817110 5.162467 11.350437
872 1 2.008412 11.330471 23.466187
873 1 21.854961 20.708932 31.516780
874 1 22.312485 7.668563 31.694683
875 1 22.628543 1.613822 25.545258
876 1 20.282792 11.390416 14.536295
877 1 10.783088 23.992172 32.164462
878 1 5.371293 7.847954 14.569176
879 1 8.823125 18.983306 19.535475
880 1 25.546211 23.765746 30.599915
881 1 1.948138 30.433532 0.513822
882 1 27.428823 31.988375 2.464468
883 1 12.736115 4.701491 30.263811
884 1 0.933462 20.381303 27.292338
885 1 31.119156 9.096657 26.261586
886 1 15.087058 29.884914 31.284133
887 1 11.016239 21.441658 19.498041
888 1 11.927394 3.730765 20.867256
889 1 15.090873 27.452920 22.933153
890 1 22.156356 13.095220 13.494967
891 1 6.898105 12.291298 30.680829
892 1 23.722712 7.567501 19.696930
893 1 24.461590 31.222943 10.351265
894 1 6.146330 1.675557 20.539466
895 1 4.478480 19.759828 31.247076
896 1 5.118119 3.380500 29.930304
897 1 32.456779 4.645264 28.999361
898 1 7.734036 24.067860 10.685863
899 1 0.697849 10.231810 5.935463
900 1 22.994690 5.130694 24.754559
901 1 27.582170 11.561931 2.733391
902 1 30.305203 27.158046 13.560967
903 1 30.269630 14.133750 4.213586
904 1 7.137703 30.492138 26.362527
905 1 6.406038 21.992466 2.142041
906 1 17.661637 1.633731 17.529484
907 1 29.311821 32.320295 16.499720
908 1 20.887070 19.695333 7.982698
909 1 18.697898 20.065731 9.709868
910 1 32.127955 28.121181 22.470154
911 1 30.410273 16.700888 8.347364
912 1 27.389244 3.594460 3.461333
913 1 1.322584 19.742057 24.455103
914 1 22.506192 9.375244 0.448053
915 1 16.912418 5.426620 21.342714
916 1 14.054131 29.777917 10.694150
917 1 20.978070 12.041974 5.466382
918 1 26.138701 28.291246 21.526368
919 1 18.323614 21.383833 14.506242
920 1 1.517680 10.210503 3.229335
921 1 11.419869 9.878641 11.021052
922 1 22.232522 1.141001 17.420758
923 1 18.373680 5.085841 28.695949
924 1 30.810117 26.474429 21.213755
925 1 8.766685 0.195540 5.970328
926 1 0.239573 10.293703 8.629388
927 1 29.136317 13.692588 23.659573
928 1 10.912029 23.058256 14.105654
929 1 2.549423 1.220646 4.485823
930 1 24.958101 13.954784 7.893321
931 1 29.267063 12.596119 15.169894
932 1 7.736309 2.568896 15.161182
933 1 2.106919 10.960787 10.408154
934 1 24.680359 1.778244 18.570178
935 1 27.680680 9.991281 0.617765
936 1 15.006174 2.048580 26.249080
937 1 22.413938 12.010460 16.038180
938 1 32.531863 16.148518 6.554421
939 1 20.699707 6.109996 27.183382
940 1 19.802298 23.857410 11.884448
941 1 9.506304 17.084559 24.538188
942 1 24.804876 7.248715 8.871560
943 1 8.622776 15.371197 14.848492
944 1 15.658214 14.870230 25.545751
945 1 1.794370 15.387893 12.952196
946 1 11.391723 17.737441 9.230555
947 1 26.994142 30.496497 29.433189
948 1 1.995725 22.026687 10.874701
949 1 12.538490 5.897024 0.128110
950 1 28.726339 32.194787 7.891033
951 1 12.460594 16.237885 7.006475
952 1 9.146694 16.879411 1.551718
953 1 22.187820 2.618354 14.835267
954 1 32.102911 26.917454 0.809624
955 1 11.871150 22.893851 11.573541
956 1 22.624613 1.791746 28.672543
957 1 15.201294 17.487145 13.215458
958 1 11.470811 16.526823 21.308387
959 1 10.148077 11.811531 31.784723
960 1 30.651951 5.619507 23.560540
961 1 11.704604 13.795340 28.817018
962 1 8.515076 20.680364 29.406014
963 1 8.105232 23.007756 13.447086
964 1 30.054011 30.010554 18.048559
965 1 32.901047 5.537933 4.100185
966 1 8.739165 4.731985 29.783432
967 1 28.059410 29.044161 1.471288
968 1 23.574642 14.581245 10.383860
969 1 31.661776 8.403989 7.552333
970 1 23.811067 27.566059 13.998570
971 1 5.797042 22.168922 14.290107
972 1 5.176749 21.982466 27.705827
973 1 8.663967 13.496924 7.230114
974 1 28.244072 22.303897 9.593696
975 1 25.101959 1.875071 8.360105
976 1 26.331826 13.971742 10.323248
977 1 17.643434 32.947788 9.363277
978 1 20.326175 29.822372 12.446876
979 1 26.009789 2.911375 6.111481
980 1 7.375636 9.678308 16.278618
981 1 20.443270 3.076641 17.587284
982 1 1.034099 4.623214 6.148832
983 1 0.079220 4.355185 22.907269
984 1 29.281559 7.628643 22.363693
985 1 27.313642 24.957325 28.991795
986 1 17.287197 10.912466 15.612563
987 1 28.632310 18.920096 8.897928
988 1 13.199806 22.672822 18.541036
989 1 32.718661 17.336575 12.095444
990 1 16.585095 24.096546 15.254444
991 1 17.995797 8.085879 16.078280
992 1 8.824826 8.233055 21.636196
993 1 1.940684 4.503691 30.433664
994 1 1.009841 24.377831 25.004544
995 1 22.926962 21.961990 17.212502
996 1 27.080989 15.641557 0.181533
997 1 32.627404 20.459149 3.423554
998 1 17.163382 13.194279 6.907250
999 1 30.929212 3.660189 15.641159
1000 1 11.745159 12.737832 21.100466
1001 1 23.979262 22.900669 9.527651
1002 1 11.895614 23.743110 29.668543
1003 1 26.220455 7.502447 2.465045
1004 1 31.201173 15.171350 10.845781
1005 1 14.598460 17.118349 0.298962
1006 1 9.465958 25.308319 30.051792
1007 1 16.695719 21.708178 20.690255
1008 1 6.924815 16.914427 28.876538
1009 1 29.824346 17.752599 5.814436
1010 1 6.258229 21.044912 12.147614
1011 1 19.954064 1.309904 30.032964
1012 1 8.392382 28.448158 17.768177
1013 1 1.347732 30.028079 20.654933
1014 1 5.896455 5.793956 31.154357
1015 1 20.858521 11.951121 29.483329
1016 1 21.288958 26.604108 3.771537
1017 1 1.247935 30.621369 30.278624
1018 1 3.717163 29.968225 30.749209
1019 1 22.845762 17.472809 16.535706
1020 1 5.706971 27.444593 13.308464
1021 1 19.786980 23.463897 25.021042
1022 1 18.511683 32.793147 28.654968
1023 1 23.206030 7.267952 28.951431
1024 1 32.318876 32.342748 13.643960
1025 1 2.054513 16.300025 7.001836
1026 1 23.959521 14.841329 13.062287
1027 1 31.388180 11.758858 13.265543
1028 1 14.118580 10.521064 15.201007
1029 1 25.821197 5.490892 4.412800
1030 1 5.073747 2.647570 22.628380
1031 1 17.449000 17.102021 18.665642
1032 1 21.140503 21.102750 22.219185
1033 1 14.344050 10.894823 8.102327
1034 1 23.643392 27.494541 1.256229
1035 1 15.429886 30.221246 18.870155
1036 1 21.843240 4.492952 1.970154
1037 1 7.117945 13.811714 28.446898
1038 1 12.478495 13.215983 13.708461
1039 1 22.758776 17.787728 8.909113
1040 1 22.336655 4.724447 16.499603
1041 1 17.166639 1.084934 7.222696
1042 1 6.100717 11.570594 20.395337
1043 1 5.966715 29.737469 17.579769
1044 1 17.338525 12.564380 21.285737
1045 1 12.658178 26.788111 16.114415
1046 1 24.398858 6.718791 15.350095
1047 1 21.626313 19.934300 5.573609
1048 1 29.882135 18.412527 30.052867
1049 1 26.452032 26.135278 16.442070
1050 1 18.976542 25.533038 3.068880
1051 1 24.272223 33.142150 30.270292
1052 1 11.973963 31.939015 14.405019
1053 1 27.558028 27.778340 18.237695
1054 1 11.217039 30.894025 9.968271
1055 1 21.165410 12.944994 8.199996
1056 1 15.859751 4.774981 4.900352
1057 1 7.935761 23.590746 3.615131
1058 1 29.858753 26.697392 7.570322
1059 1 15.716526 7.160724 19.502195
1060 1 19.708133 2.727120 2.564761
1061 1 15.875326 3.161650 9.290857
1062 1 20.109315 17.080782 7.818103
1063 1 2.748796 13.879759 32.064420
1064 1 21.719886 24.152697 29.368935
1065 1 30.132663 20.100272 5.163289
1066 1 31.750088 3.149485 6.706290
1067 1 23.021151 13.264159 30.221187
1068 1 21.622931 5.596537 12.237244
1069 1 5.860815 4.370915 9.990702
1070 1 31.396672 20.111228 17.924156
1071 1 17.561025 5.395248 15.902912
1072 1 18.316225 21.757725 23.045055
1073 1 28.471881 1.954050 11.526833
1074 1 28.089972 16.979450 22.830505
1075 1 10.953677 22.568439 2.077616
1076 1 25.877135 12.552614 21.121952
1077 1 26.507416 31.639426 5.188101
1078 1 13.474437 15.741992 27.978017
1079 1 20.311387 17.415608 4.496188
1080 1 4.758288 25.869785 21.600390
1081 1 5.450205 29.738500 28.705048
1082 1 7.006802 3.803461 23.955095
1083 1 4.751684 32.533109 4.436905
1084 1 9.281841 13.627341 29.959430
1085 1 15.025666 5.276253 1.617973
1086 1 9.506827 19.237715 11.184209
1087 1 5.601963 30.732184 24.180909
1088 1 13.595213 4.402585 24.936968
1089 1 32.746137 6.598216 25.214649
1090 1 7.883919 13.987451 2.237025
1091 1 16.019392 11.227245 30.100148
1092 1 15.492938 13.023400 14.347838
1093 1 5.568727 27.864286 26.625021
1094 1 18.241941 16.467184 5.906225
1095 1 4.572883 1.795143 2.858834
1096 1 13.724902 3.422216 3.966660
1097 1 11.225776 13.868774 6.350399
1098 1 21.708237 32.096560 11.651394
1099 1 20.028900 21.748367 6.003201
1100 1 26.887228 30.679084 17.394839
1101 1 18.858138 28.923813 24.696713
1102 1 7.971427 30.556134 0.629533
1103 1 9.196861 27.454573 20.501947
1104 1 23.139474 24.731993 7.352598
1105 1 5.221233 32.635141 26.421921
1106 1 17.804586 13.504501 15.642149
1107 1 5.944524 11.015113 27.892572
1108 1 26.408194 4.744989 12.129985
1109 1 24.476009 10.885931 19.843123
1110 1 6.266410 3.463079 6.881950
1111 1 21.260260 19.241528 11.265671
1112 1 10.836954 2.346671 14.082983
1113 1 24.576686 30.417860 25.738470
1114 1 29.341556 10.462096 11.572862
1115 1 19.560643 31.593257 14.937670
1116 1 7.738479 9.195702 8.240953
1117 1 1.089662 30.557759 12.779724
1118 1 8.448096 9.360673 13.577783
1119 1 19.732094 20.130935 3.499668
1120 1 20.399042 0.377122 9.919353
1121 1 9.777369 32.777571 29.318283
1122 1 19.106150 19.230908 6.308566
1123 1 13.201124 1.323516 20.981708
1124 1 10.427284 8.727974 2.241262
1125 1 15.814446 7.333155 6.466236
1126 1 22.020307 3.310146 19.740692
1127 1 9.085290 16.189115 19.957433
1128 1 13.119760 29.676902 23.707536
1129 1 11.591449 1.899444 10.284955
1130 1 19.978689 19.739019 0.441352
1131 1 14.707804 12.559025 17.367121
1132 1 0.120160 25.202601 29.376527
1133 1 6.256043 32.399282 13.578197
1134 1 28.569426 4.483258 16.323721
1135 1 26.173060 23.508534 26.402634
1136 1 6.876534 27.419094 21.988252
1137 1 31.345061 22.388750 19.377859
1138 1 18.471130 31.683505 24.194235
1139 1 32.671698 17.476588 2.007153
1140 1 12.799813 28.202349 30.034634
1141 1 15.484350 6.561059 16.674186
1142 1 31.981647 18.876229 7.217369
1143 1 15.210968 20.664622 30.353457
1144 1 32.925070 17.927836 17.265726
1145 1 19.898488 32.335082 7.564650
1146 1 26.266596 26.946422 1.257443
1147 1 18.181946 3.361313 5.009086
1148 1 6.941982 12.605069 4.325290
1149 1 19.092094 24.515814 29.554538
1150 1 32.736539 6.818376 12.494744
1151 1 23.777032 0.323740 14.991832
1152 1 2.541627 22.212964 13.704717
1153 1 31.522980 13.185411 2.051582
1154 1 26.964778 0.501722 6.923052
1155 1 17.296019 5.962999 2.722763
1156 1 10.996546 20.512486 30.425215
1157 1 13.443750 32.152234 16.703373
1158 1 29.470470 0.962537 29.517139
1159 1 9.202566 18.365884 29.924543
1160 1 7.389927 32.600337 27.831291
1161 1 1.562087 16.679375 23.344730
1162 1 22.376540 10.167125 13.114579
1163 1 19.350621 29.639276 7.780145
1164 1 28.732736 25.131477 15.087352
1165 1 32.924397 24.450297 9.299531
1166 1 32.103699 4.213290 31.930278
1167 1 3.413473 17.034153 25.316196
1168 1 17.143919 9.129198 31.838523
1169 1 0.371184 25.214650 2.117552
1170 1 3.445686 27.799127 17.938743
1171 1 27.939574 21.665221 15.137545
1172 1 28.480592 19.399151 18.170094
1173 1 11.018742 4.303358 9.788134
1174 1 31.506499 28.058723 31.199563
1175 1 27.373989 19.346567 15.879894
1176 1 4.239507 25.310305 19.144879
1177 1 5.506997 15.612921 26.466719
1178 1 24.060656 14.376749 26.139502
1179 1 5.602369 3.301463 26.841334
1180 1 33.102729 7.699658 9.640474
1181 1 26.003836 21.266336 5.138865
1182 1 32.996414 29.303898 10.451175
1183 1 28.276166 9.029294 9.528788
1184 1 25.531414 18.376072 17.370090
1185 1 23.616975 17.185391 19.498686
1186 1 12.897176 23.495428 6.791326
1187 1 4.569262 4.219765 12.213971
1188 1 2.884008 27.432539 20.343471
1189 1 26.644333 4.018321 20.159136
1190 1 30.598253 22.489783 32.187562
1191 1 25.917115 21.680078 22.055674
1192 1 4.354977 8.959074 2.444866
1193 1 20.127593 0.142226 1.460023
1194 1 25.232860 11.073086 32.122294
1195 1 18.760105 12.466490 10.324168
1196 1 15.370971 32.279471 24.357909
1197 1 24.482610 18.489317 24.009148
1198 1 19.399758 14.051024 5.819110
1199 1 30.858050 13.753633 19.195602
1200 1 29.637823 32.243731 13.805865
1201 1 7.938466 26.090581 25.492985
1202 1 0.705057 19.044221 0.345817
1203 1 1.018075 27.502799 24.151571
1204 1 31.769136 30.121551 29.614046
1205 1 13.491404 17.664862 11.092269
1206 1 14.503636 6.836443 31.791259
1207 1 3.962239 19.795482 18.495944
1208 1 18.592016 24.103525 17.282397
1209 1 3.106267 9.393697 33.025988
1210 1 18.397103 10.047515 26.480370
1211 1 22.002628 1.873020 1.599100
1212 1 0.169878 12.446503 17.727770
1213 1 15.448347 20.019821 7.331660
1214 1 18.442021 26.484321 12.365832
1215 1 2.191789 5.798050 3.413663
1216 1 13.033900 23.828458 23.274126
1217 1 13.968356 20.717776 20.482091
1218 1 16.179814 31.280378 28.708946
1219 1 3.963135 5.957662 9.737396
1220 1 16.610416 6.840101 13.662315
1221 1 25.539890 32.170122 0.222065
1222 1 17.253862 14.572708 32.157583
1223 1 9.675903 20.179089 8.548165
1224 1 28.288445 21.501514 20.498627
1225 1 6.976644 9.879593 22.856263
1226 1 29.618178 23.995880 5.002008
1227 1 18.733749 14.792384 8.347713
1228 1 22.983455 1.103446 20.595800
1229 1 13.792886 15.026306 20.764359
1230 1 8.085454 18.676107 16.335615
1231 1 1.336663 24.993205 13.921340
1232 1 7.266676 3.232846 12.257080
1233 1 9.409034 22.842528 6.195870
1234 1 18.052345 21.142259 28.596609
1235 1 7.903055 6.458897 23.204222
1236 1 28.811051 23.276213 27.324759
1237 1 12.872770 14.245672 25.624188
1238 1 24.535365 31.676108 2.635201
1239 1 9.728131 30.385745 27.881343
1240 1 25.325889 4.320520 1.640815
1241 1 15.132002 26.418819 15.788464
1242 1 19.827931 32.915679 17.404665
1243 1 16.293527 25.760412 18.282363
1244 1 5.965274 21.665858 4.798429
1245 1 28.225635 6.430232 4.104594
1246 1 14.033815 28.511034 2.420790
1247 1 28.542280 12.232734 20.468616
1248 1 2.169724 24.591127 11.479767
1249 1 23.039281 23.156855 31.410026
1250 1 19.238767 7.801269 3.766255
1251 1 26.217650 14.674723 5.662882
1252 1 10.648421 0.108479 16.586184
1253 1 20.421888 13.671698 31.519990
1254 1 7.566138 0.118618 16.798616
1255 1 16.014920 8.872522 0.987170
1256 1 18.956468 21.265970 11.880143
1257 1 12.812771 0.799794 6.771585
1258 1 28.990291 8.738877 24.690652
1259 1 13.393241 8.287109 9.444454
1260 1 9.534393 21.630110 24.166138
1261 1 6.190535 29.133916 6.544931
1262 1 4.305973 6.722191 19.360276
1263 1 17.946233 11.034572 24.063977
1264 1 26.474646 21.340614 17.982021
1265 1 0.576222 26.792793 26.840734
1266 1 32.575074 15.406095 3.962465
1267 1 15.266306 28.202510 27.940461
1268 1 24.514793 30.564953 15.921781
1269 1 15.951868 13.322928 28.225966
1270 1 10.745429 29.402668 22.190366
1271 1 19.529848 17.248118 10.801656
1272 1 16.506419 25.565849 4.788970
1273 1 20.212097 19.747814 13.492319
1274 1 22.404550 32.013941 26.615818
1275 1 14.775199 3.287964 21.196176
1276 1 28.050562 12.179591 29.183549
1277 1 0.092591 32.888682 24.417123
1278 1 33.135135 20.690956 19.738249
1279 1 5.838116 18.834221 5.834940
1280 1 12.649216 0.837833 25.836426
1281 1 4.390419 28.343058 22.799745
1282 1 6.257553 32.012387 2.432121
1283 1 32.675670 10.810321 30.507798
1284 1 16.215567 29.707611 3.916517
1285 1 28.884032 15.175717 20.578022
1286 1 1.938433 23.548967 16.221122
1287 1 16.968470 0.808288 1.255068
1288 1 5.310520 25.233663 11.626985
1289 1 26.631685 13.641046 24.522993
1290 1 28.387750 3.338743 0.946844
1291 1 2.016931 25.659339 6.904374
1292 1 21.933894 15.508994 30.156275
1293 1 17.042914 2.369768 12.035501
1294 1 25.169160 1.435874 32.453123
1295 1 12.587585 25.097542 13.866016
1296 1 9.570652 23.570340 21.603660
1297 1 2.947485 1.727922 0.323195
1298 1 26.099484 16.679602 14.878745
1299 1 5.621757 19.474686 14.108776
1300 1 6.722888 23.815562 6.180294
1301 1 21.534317 3.670838 29.991289
1302 1 21.401597 16.769720 2.123138
1303 1 23.730969 27.224978 8.088362
1304 1 2.145375 33.023980 22.263808
1305 1 31.349801 8.687974 30.440687
1306 1 10.969495 5.573256 28.621799
1307 1 3.159716 16.210140 14.983365
1308 1 9.505884 14.677576 32.973007
1309 1 26.191008 5.663099 7.360813
1310 1 6.618132 7.844457 29.427951
1311 1 29.066569 1.853026 16.778386
1312 1 9.717356 32.576781 3.444109
1313 1 4.566864 16.712994 6.835389
1314 1 16.307819 6.615494 24.630857
1315 1 5.230516 11.483646 15.716289
1316 1 8.656919 21.025328 4.043648
1317 1 6.419032 4.806959 14.139830
1318 1 8.360286 11.592321 15.042392
1319 1 7.141186 25.780082 28.183440
1320 1 23.001425 28.105585 5.186699
1321 1 29.264003 27.497252 16.225249
1322 1 29.881993 17.475839 11.418166
1323 1 3.590458 13.917911 27.121755
1324 1 15.372609 20.117395 3.925829
1325 1 22.938807 32.523894 0.015406
1326 1 0.079540 6.748695 19.568228
1327 1 23.419426 26.786112 10.837912
1328 1 21.399130 10.688302 9.430435
1329 1 19.669615 1.534540 15.040623
1330 1 21.059741 8.290496 20.005809
1331 1 18.880240 26.954133 0.533897
1332 1 12.530418 25.995846 28.309102
1333 1 17.329219 2.492394 20.444051
1334 1 19.040705 17.151014 13.344709
1335 1 31.809769 11.064899 15.968058
1336 1 26.793588 28.838090 26.984180
1337 1 21.397103 18.322333 20.255121
1338 1 22.474499 17.808113 31.474543
1339 1 5.915334 16.411610 1.212430
1340 1 14.407111 14.654150 2.300602
1341 1 6.190226 3.635359 3.744670
1342 1 27.152839 31.516270 27.233599
1343 1 31.938997 25.361319 15.037820
1344 1 1.511650 16.111074 0.187021
1345 1 27.330003 17.247977 28.027723
1346 1 29.218380 29.250163 23.429379
1347 1 25.166126 16.625861 9.646433
1348 1 5.912382 0.300676 0.155815
1349 1 18.157672 4.596646 25.708529
1350 1 14.391821 20.009571 17.726651
1351 1 27.494629 32.665196 30.551699
1352 1 8.262575 19.190604 24.731434
1353 1 29.305271 6.825799 8.020226
1354 1 22.017123 8.765972 26.741796
1355 1 4.894615 20.184798 9.947518
1356 1 31.694145 2.267930 29.671211
1357 1 28.529203 3.994010 13.592656
1358 1 15.566768 10.404869 22.737922
1359 1 15.399122 23.364402 8.227529
1360 1 4.664286 31.331974 21.405766
1361 1 1.689910 5.762373 8.585009
1362 1 32.107886 20.695118 31.260751
1363 1 18.293312 14.685930 11.214847
1364 1 30.038871 4.933820 28.372753
1365 1 0.907536 5.970805 32.944970
1366 1 19.224766 10.539075 4.769891
1367 1 10.281612 8.531518 29.929158
1368 1 2.717478 18.249431 16.663554
1369 1 15.098273 1.127186 16.015551
1370 1 24.955496 2.431668 21.153500
1371 1 32.454444 24.989400 12.252767
1372 1 24.800259 9.260328 27.448791
1373 1 20.932318 15.381203 9.778389
1374 1 3.430286 22.171396 3.709003
1375 1 30.198478 32.062235 31.415645
1376 1 13.487079 26.200854 18.801015
1377 1 20.593142 9.149879 15.888725
1378 1 31.548091 12.616086 10.484643
1379 1 31.529727 1.323676 31.842031
1380 1 31.779743 18.912997 9.899523
1381 1 0.645940 22.376898 21.443112
1382 1 3.868200 19.499759 26.146932
1383 1 27.172048 19.418210 29.442639
1384 1 26.720087 28.979279 24.146242
1385 1 31.181139 19.029730 13.157990
1386 1 17.572632 10.850924 1.688911
1387 1 28.332271 8.250038 17.650151
1388 1 7.952848 30.158600 22.763288
1389 1 7.675366 20.390487 6.613112
1390 1 7.206149 29.962450 20.353859
1391 1 22.274576 24.915436 25.729675
1392 1 5.888255 5.507146 0.604223
1393 1 7.732739 27.134613 15.385756
1394 1 9.940639 9.398328 4.761460
1395 1 27.716841 31.127330 32.878884
1396 1 17.502071 12.902738 26.059919
1397 1 9.394856 23.426420 18.884941
1398 1 1.446935 12.128480 29.161256
1399 1 19.980898 15.550279 25.731391
1400 1 21.701917 21.708874 19.470015
1401 1 7.045241 30.892900 4.489952
1402 1 22.300373 17.416054 6.353427
1403 1 10.795804 1.857626 19.256815
1404 1 20.572656 13.733063 16.719607
1405 1 29.055212 21.362459 1.256393
1406 1 6.001241 5.349037 28.326545
1407 1 9.640057 20.846433 16.904637
1408 1 1.697869 22.922039 18.935406
1409 1 3.566043 20.330319 5.550784
1410 1 24.749891 16.499931 7.009624
1411 1 20.143184 22.237345 30.440724
1412 1 18.976164 26.308196 25.366625
1413 1 32.294182 17.957634 20.254568
1414 1 10.627940 13.520384 15.530885
1415 1 2.428112 11.659681 15.888159
1416 1 21.331139 24.560040 5.173187
1417 1 5.181726 21.275099 7.418534
1418 1 8.992625 22.026539 11.424789
1419 1 10.224524 32.570514 26.135459
1420 1 32.795330 21.666026 8.624472
1421 1 29.334823 14.396066 17.243800
1422 1 21.903412 10.084149 17.913340
1423 1 19.324607 13.164947 19.786559
1424 1 24.790683 5.217538 28.754994
1425 1 22.934337 16.524849 25.252312
1426 1 10.614890 15.883696 29.912380
1427 1 1.926941 32.951135 29.916710
1428 1 30.967528 22.829389 10.527266
1429 1 9.127722 9.457396 32.984829
1430 1 17.125026 18.591630 29.832165
1431 1 16.044865 30.003121 23.591946
1432 1 27.483180 3.416101 27.765728
1433 1 8.377879 7.526223 31.445541
1434 1 22.975971 10.709029 28.820815
1435 1 30.696797 6.116391 20.601386
1436 1 6.784203 9.954342 1.146961
1437 1 7.918856 7.995890 3.296589
1438 1 17.029863 19.728556 1.541112
1439 1 26.486366 0.305840 16.942023
1440 1 21.495842 7.327830 24.290860
1441 1 31.616884 31.291042 11.436196
1442 1 14.291792 29.131778 7.563679
1443 1 3.219102 29.346435 12.006350
1444 1 24.613006 31.301810 28.370271
1445 1 26.663584 19.858000 13.602978
1446 1 3.910162 19.054535 7.757502
1447 1 21.850697 13.787972 27.696183
1448 1 14.699751 14.382717 32.575632
1449 1 31.691128 21.673963 26.838630
1450 1 24.917053 18.282384 30.483781
1451 1 14.122050 13.788141 6.995189
1452 1 1.204606 25.458162 32.435627
1453 1 30.205715 24.680819 18.251277
1454 1 17.678827 9.646049 10.856093
1455 1 2.509819 15.544822 9.464229
1456 1 25.575024 26.434475 5.996433
1457 1 23.487207 26.697754 16.718547
1458 1 25.070994 19.069226 33.056876
1459 1 25.113750 2.058554 27.049725
1460 1 21.279153 22.287893 13.467758
1461 1 26.576664 14.165072 27.479801
1462 1 10.982403 3.544911 26.338955
1463 1 8.718028 23.396554 0.838891
1464 1 19.576944 14.603720 0.601369
1465 1 25.118485 23.751693 16.785244
1466 1 1.186293 1.888767 31.100264
1467 1 12.164970 21.820253 16.041696
1468 1 16.701898 22.865894 24.853354
1469 1 14.809953 5.666251 7.857365
1470 1 8.610540 31.430955 18.035593
1471 1 15.312330 22.449638 5.027961
1472 1 6.172817 32.208970 19.255390
1473 1 20.001131 17.364022 32.634218
1474 1 31.546728 22.050553 5.965675
1475 1 2.382655 30.444028 9.822548
1476 1 5.462895 33.177300 23.249053
1477 1 11.188602 31.794340 5.561710
1478 1 19.578102 14.054066 13.947187
1479 1 8.523633 0.440115 19.177928
1480 1 14.743728 21.649073 25.943529
1481 1 25.205109 25.878666 18.773643
1482 1 2.629314 20.887414 20.407627
1483 1 31.865024 19.394148 28.529192
1484 1 16.331504 28.430513 8.645770
1485 1 10.956865 8.748841 8.399731
1486 1 20.444429 19.545788 27.876582
1487 1 6.469171 14.066637 32.968127
1488 1 18.837949 29.055727 31.935906
1489 1 23.966969 16.664046 4.455759
1490 1 12.037401 12.426028 8.274698
1491 1 10.236737 24.325505 4.146088
1492 1 9.718664 14.609168 21.698418
1493 1 1.535321 16.022397 17.264743
1494 1 29.472553 31.327949 28.619748
1495 1 29.377495 10.404095 30.997982
1496 1 13.658498 15.211459 9.523586
1497 1 21.073471 7.243961 1.420091
1498 1 0.236078 9.792567 18.689521
1499 1 19.309168 6.791382 13.747410
1500 1 21.483789 28.691100 9.674293
1501 1 12.267511 19.442999 7.607826
1502 1 19.185912 33.008864 12.323298
1503 1 28.322683 8.811481 3.635875
1504 1 24.118669 33.109976 12.355170
1505 1 32.263968 24.243361 26.840479
1506 1 7.921196 25.168447 8.260649
1507 1 22.305028 29.613431 2.961878
1508 1 19.975695 4.424688 15.106418
1509 1 12.755778 13.279448 3.771948
1510 1 12.598961 0.901943 13.011713
1511 1 23.907456 6.279384 11.060469
1512 1 21.861553 32.376610 29.275071
1513 1 21.530294 25.578371 1.006320
1514 1 29.440365 26.299975 30.260866
1515 1 24.284561 21.740803 32.905981
1516 1 3.153386 26.839721 12.877792
1517 1 13.711264 12.505342 10.391332
1518 1 25.314886 30.051570 12.949799
1519 1 17.143942 20.016186 17.155589
1520 1 16.090727 22.408265 27.905484
1521 1 9.724671 29.976178 19.741434
1522 1 18.111088 6.238901 5.670639
1523 1 25.959426 6.195304 17.282294
1524 1 23.810514 13.934059 23.317512
1525 1 8.059375 22.494180 8.416636
1526 1 25.004535 23.819373 23.800275
1527 1 25.716629 21.341561 24.938072
1528 1 28.580615 6.516734 12.227567
1529 1 0.643464 26.773748 10.938563
1530 1 20.406341 28.853838 5.030835
1531 1 21.203627 29.055979 19.764867
1532 1 9.330362 1.845274 2.666747
1533 1 18.471081 7.331974 11.383753
1534 1 9.845546 6.576178 3.994795
1535 1 19.400554 8.979415 9.045846
1536 1 32.149304 18.041108 4.603256
1537 1 29.435871 25.178089 10.504356
1538 1 22.717138 15.174960 18.203993
1539 1 26.245956 4.844599 14.637049
1540 1 23.387885 4.558719 5.876818
1541 1 14.638154 9.862662 4.660208
1542 1 29.808815 30.892986 21.244821
1543 1 32.875448 7.122457 17.082762
1544 1 10.292200 10.126924 22.790533
1545 1 7.938467 7.426459 0.815794
1546 1 12.155101 30.020181 12.610543
1547 1 8.725675 12.062131 23.847661
1548 1 25.957232 21.837416 7.941354
1549 1 13.525477 30.446126 5.554076
1550 1 14.688451 7.304868 11.370669
1551 1 31.075848 2.769764 9.509702
1552 1 7.071692 21.483657 23.301257
1553 1 24.166444 1.217510 2.151984
1554 1 24.316336 12.514661 11.949021
1555 1 0.424582 29.834601 23.599664
1556 1 31.286926 16.161566 17.945747
1557 1 32.126447 11.554150 3.998354
1558 1 13.066656 31.832634 8.216167
1559 1 16.260984 0.868917 4.115019
1560 1 10.964453 16.373550 27.235577
1561 1 13.145446 5.836553 17.663440
1562 1 18.190520 9.180051 13.521932
1563 1 13.622178 20.151406 12.416680
1564 1 20.695048 27.876812 22.675381
1565 1 23.773710 21.114951 2.643982
1566 1 27.683270 5.707994 29.635800
1567 1 8.438669 7.855777 6.296610
1568 1 0.496479 13.657796 0.726019
1569 1 12.461473 14.951305 23.031959
1570 1 0.960798 33.042972 2.235693
1571 1 2.533449 3.400163 24.151660
1572 1 10.039850 5.962353 21.206725
1573 1 26.401654 23.626488 14.562080
1574 1 30.962121 2.752786 1.017057
1575 1 2.806799 7.322983 21.727916
1576 1 20.988046 15.234926 12.327310
1577 1 10.528191 30.791785 0.465309
1578 1 30.139986 24.184035 13.274712
1579 1 16.739403 18.923645 14.603064
1580 1 0.897630 12.838099 20.567983
1581 1 30.554195 19.287194 33.041077
1582 1 29.228710 8.761410 6.135731
1583 1 23.959394 21.424920 12.750659
1584 1 31.061635 32.459393 18.667162
1585 1 9.587789 4.708875 14.942426
1586 1 30.421905 17.748734 22.151148
1587 1 30.959665 8.876187 18.077960
1588 1 26.272191 9.187752 24.339369
1589 1 2.666736 16.194765 20.198160
1590 1 19.441050 2.086220 7.008574
1591 1 20.404124 23.646345 2.623398
1592 1 9.021902 6.753252 8.767392
1593 1 25.059490 30.490162 31.250137
1594 1 1.129951 21.367932 5.479311
1595 1 12.031460 31.381943 21.148480
1596 1 12.446423 11.208272 5.985681
1597 1 28.823141 27.366849 25.502620
1598 1 13.795014 23.635676 28.032875
1599 1 4.305870 0.796223 18.454151
1600 1 5.625184 7.830082 9.849223
1601 1 13.751862 11.905369 28.452389
1602 1 2.633600 21.746454 25.931288
1603 1 1.724173 27.132358 15.644414
1604 1 12.719844 25.644423 32.020861
1605 1 16.340456 27.896217 32.751331
1606 1 4.151332 13.638497 15.246906
1607 1 22.086673 31.451107 9.004944
1608 1 31.437330 15.915531 30.937776
1609 1 14.726461 31.957285 2.688984
1610 1 15.608351 17.234811 3.122837
1611 1 26.823589 11.161748 11.860170
1612 1 16.181226 7.798286 27.507655
1613 1 4.018233 28.341346 8.521029
1614 1 8.885823 7.360298 17.670638
1615 1 22.662309 11.013496 31.716776
1616 1 0.194816 14.616442 22.471850
1617 1 26.749630 14.409869 19.019800
1618 1 13.552540 20.936474 5.832420
1619 1 25.734675 11.698292 6.667104
1620 1 14.477586 1.778366 23.615029
1621 1 30.472857 20.528508 23.628252
1622 1 15.180440 26.344142 7.327461
1623 1 14.292663 18.562675 29.030212
1624 1 30.043454 10.600540 22.223288
1625 1 28.476322 0.535711 26.948002
1626 1 28.321777 22.104672 6.614809
1627 1 25.253919 12.171511 28.707888
1628 1 4.571222 1.707486 25.095671
1629 1 22.124200 15.534722 32.924235
1630 1 30.889439 29.750223 4.644217
1631 1 22.067616 0.159851 6.162711
1632 1 21.183750 8.998035 29.622258
1633 1 30.276200 16.336470 2.559152
1634 1 22.221251 32.569883 3.197771
1635 1 28.274708 24.829553 25.290590
1636 1 1.490868 27.924863 1.527687
1637 1 10.821923 11.311874 14.116214
1638 1 16.109770 9.108661 25.048040
1639 1 25.775184 23.568808 11.426422
1640 1 28.788465 20.720972 25.635089
1641 1 12.564258 31.226662 25.646629
1642 1 17.766896 18.469074 3.874349
1643 1 27.418000 1.935334 22.216786
1644 1 5.253695 1.978652 13.616431
1645 1 0.493646 32.527297 10.526826
1646 1 24.053902 19.076839 10.753036
1647 1 21.847406 5.198989 22.360590
1648 1 27.450049 25.417218 12.832227
1649 1 20.745056 3.918132 24.636411
1650 1 12.090335 15.969708 18.674483
1651 1 23.282079 27.765258 21.355110
1652 1 28.105106 8.021104 31.879804
1653 1 21.544526 5.190130 32.620272
1654 1 25.874840 24.015751 1.256275
1655 1 25.493797 12.036408 3.908947
1656 1 29.259431 30.221466 25.974090
1657 1 2.898651 3.197659 17.098004
1658 1 24.397067 32.083253 18.213862
1659 1 11.103916 28.012702 18.114186
1660 1 27.908754 25.899158 20.109001
1661 1 26.786526 4.010409 31.423444
1662 1 13.795208 15.825011 4.790940
1663 1 25.656160 27.579232 12.141905
1664 1 31.579755 0.683616 16.301291
1665 1 14.510548 32.970663 13.986813
1666 1 12.895718 24.328566 25.834596
1667 1 26.166982 7.868756 28.946360
1668 1 27.332136 14.403731 3.017528
1669 1 10.830008 20.814084 13.160164
1670 1 16.608810 19.395416 19.749160
1671 1 4.392840 11.859114 25.600496
1672 1 23.524261 2.849704 23.352612
1673 1 12.877999 29.265688 15.180621
1674 1 21.642035 22.084417 3.938025
1675 1 10.927409 16.410449 4.630127
1676 1 21.436523 12.960704 10.918040
1677 1 3.095666 26.303934 9.690524
1678 1 4.263477 12.287058 29.619123
1679 1 19.879631 24.703896 32.200979
1680 1 12.573107 29.105099 27.257976
1681 1 29.190541 22.116733 17.704957
1682 1 30.694065 3.334976 21.075043
1683 1 15.433333 17.764481 16.574163
1684 1 23.243127 24.008876 18.943118
1685 1 27.604906 29.673841 9.764437
1686 1 4.312181 24.932797 5.272482
1687 1 20.238604 19.699779 18.245059
1688 1 3.659974 1.489965 20.965607
1689 1 4.221911 18.507013 20.917539
1690 1 9.696861 11.166676 6.572320
1691 1 25.837994 24.021722 6.401427
1692 1 27.137899 27.413007 29.530713
1693 1 6.266759 19.450919 29.322193
1694 1 1.085078 5.259767 15.992205
1695 1 19.033122 20.316381 20.428846
1696 1 22.056743 13.269827 21.301656
1697 1 9.630946 29.952329 3.068391
1698 1 0.444218 2.655325 4.658776
1699 1 28.297628 12.433971 26.420266
1700 1 5.767312 7.789093 32.371782
1701 1 18.636360 20.875826 26.024834
1702 1 20.731401 25.247933 8.116955
1703 1 20.492342 25.419884 23.302921
1704 1 26.498807 3.382872 17.654351
1705 1 22.774239 24.215410 11.871114
1706 1 25.064195 28.897536 9.686968
1707 1 11.796038 20.937091 22.918450
1708 1 18.994190 15.752389 30.597127
1709 1 28.225065 27.507588 10.857080
1710 1 26.847146 1.161472 4.319258
1711 1 21.915551 2.554622 4.560065
1712 1 24.630863 17.642030 27.340557
1713 1 5.230732 24.071173 2.965142
1714 1 17.288739 4.226860 7.488310
1715 1 16.223903 16.719116 10.205336
1716 1 17.489415 33.101422 14.638984
1717 1 4.812139 1.512542 5.973143
1718 1 6.122505 24.227015 0.364548
1719 1 24.833229 2.933081 3.832182
1720 1 16.916773 8.846343 3.718924
1721 1 24.772538 25.631816 21.262285
1722 1 22.416490 21.378983 28.945014
1723 1 5.686962 14.907039 9.653122
1724 1 4.992537 19.718579 3.246042
1725 1 26.751040 14.855336 22.192137
1726 1 12.151958 2.739364 23.567226
1727 1 16.091477 20.824784 12.830715
1728 1 13.127092 12.127134 0.852055
1729 1 8.238516 5.409335 11.009234
1730 1 32.743277 31.897899 21.846747
1731 1 11.089454 30.718972 16.708226
1732 1 23.591405 12.175307 9.604927
1733 1 31.821182 19.411088 25.701474
1734 1 32.207240 29.932589 1.866068
1735 1 11.650662 28.088346 1.194214
1736 1 11.576266 19.044562 0.711759
1737 1 0.293564 14.205881 10.775761
1738 1 24.627638 16.106450 32.069588
1739 1 27.379421 17.712729 31.291279
1740 1 29.250081 26.712834 0.043139
1741 1 22.144920 31.825947 16.506570
1742 1 31.345966 0.105913 27.693414
1743 1 30.543435 14.093420 26.247425
1744 1 3.757046 20.378845 15.811962
1745 1 8.677293 28.867424 5.414048
1746 1 32.581645 23.437481 17.122207
1747 1 14.003714 9.405896 32.160780
1748 1 10.849386 25.640653 19.422823
1749 1 28.566295 21.849569 4.010887
1750 1 11.048834 8.025480 23.989941
1751 1 32.507112 20.019545 22.283821
1752 1 24.489290 5.509038 21.287273
1753 1 2.713149 25.642074 23.329463
1754 1 18.925727 8.641837 23.726588
1755 1 29.481748 23.947555 20.491457
1756 1 20.970182 21.185287 24.981661
1757 1 6.901938 0.767329 30.511902
1758 1 10.803790 16.389506 15.321853
1759 1 13.179363 4.207262 27.471561
1760 1 21.610090 9.085727 4.107476
1761 1 4.592474 15.275516 12.602500
1762 1 31.187765 32.844739 9.068956
1763 1 23.661113 0.764589 10.023957
1764 1 14.983674 29.909726 25.986272
1765 1 27.153887 18.926388 24.303023
1766 1 8.000348 11.977224 0.330033
1767 1 17.563713 28.633295 29.596849
1768 1 26.581066 30.401472 19.867787
1769 1 0.901913 17.796711 26.149061
1770 1 17.250467 30.205111 10.594456
1771 1 18.954784 18.052036 21.348342
1772 1 12.242461 25.823315 11.291577
1773 1 14.578520 28.504554 17.300737
1774 1 31.235225 11.277977 19.818656
1775 1 12.904256 3.775083 12.435407
1776 1 27.529715 31.961253 21.598909
1777 1 15.133337 4.582535 18.924344
1778 1 28.440366 17.959700 13.444621
1779 1 14.438657 33.042852 30.384273
1780 1 12.755257 29.957155 18.675313
1781 1 29.408493 18.715105 27.539109
1782 1 6.578161 23.848863 17.881515
1783 1 13.712410 8.922699 19.434195
1784 1 19.095027 30.006930 21.964064
1785 1 0.690627 4.131783 26.356509
1786 1 0.534002 22.630661 2.763746
1787 1 25.386149 10.692852 14.214684
1788 1 5.228916 27.925072 10.772800
1789 1 17.882047 16.687914 15.635755
1790 1 24.371424 14.256904 3.143490
1791 1 18.568201 8.645007 6.559331
1792 1 29.449048 28.550958 28.190135
1793 1 23.505591 3.603804 0.019226
1794 1 0.479584 9.569217 27.697237
1795 1 28.810292 0.024582 23.481950
1796 1 32.954261 22.398663 28.743958
1797 1 2.205788 5.287177 18.633129
1798 1 30.634571 6.017619 5.670227
1799 1 19.859051 12.122236 22.428193
1800 1 30.594520 25.167059 2.280674
1801 1 8.155158 26.714289 12.484205
1802 1 23.263133 20.526730 8.801066
1803 1 31.585602 28.408358 16.095194
1804 1 28.261591 6.949382 15.023008
1805 1 27.140058 2.465549 15.293380
1806 1 26.730470 13.619434 16.519092
1807 1 7.431675 30.884563 15.747677
1808 1 15.004762 24.031309 19.798420
1809 1 19.232656 15.180136 3.358228
1810 1 26.552994 0.772733 13.522902
1811 1 14.389750 12.978270 22.776195
1812 1 18.037691 22.447561 2.290041
1813 1 7.408924 2.589017 28.760602
1814 1 27.367421 3.852762 8.659789
1815 1 20.959190 12.222184 0.461723
1816 1 22.820077 29.512707 11.840676
1817 1 19.450367 16.921618 28.348418
1818 1 9.483911 16.524330 11.281372
1819 1 29.359552 16.866886 33.116672
1820 1 31.125609 0.723462 11.837682
1821 1 8.352232 28.243569 26.985455
1822 1 8.725457 31.402492 9.882362
1823 1 20.596543 24.306382 19.121136
1824 1 17.989846 23.827336 20.185008
1825 1 8.223571 15.813474 26.577469
1826 1 19.811705 29.735649 17.255783
1827 1 32.397405 5.149739 10.765570
1828 1 4.456881 23.012642 16.455481
1829 1 2.574371 13.640520 18.418882
1830 1 26.505886 0.189709 9.701163
1831 1 9.259041 11.056237 9.350043
1832 1 9.835164 4.148932 23.466958
1833 1 22.072055 8.096564 8.948755
1834 1 26.067396 9.406397 4.758364
1835 1 28.330623 11.100921 7.398586
1836 1 6.501625 10.371320 25.312676
1837 1 18.858264 4.769696 31.330884
1838 1 4.673535 12.261401 5.882125
1839 1 8.978483 27.411699 0.501412
1840 1 3.007928 23.047657 1.297797
1841 1 32.465634 32.936956 30.043118
1842 1 32.343850 7.118065 27.830913
1843 1 13.466340 7.438467 25.086298
1844 1 29.085296 17.195632 16.884206
1845 1 32.787540 27.334699 3.331509
1846 1 24.868291 15.793404 16.704711
1847 1 31.430715 2.069501 18.545136
1848 1 25.538261 18.892281 2.812214
1849 1 32.931666 0.809601 20.583405
1850 1 25.710875 17.391260 21.701354
1851 1 16.879971 11.413735 9.053420
1852 1 22.893109 11.586075 26.396964
1853 1 2.537861 2.521982 13.204548
1854 1 0.995042 7.789252 1.728680
1855 1 21.176012 6.994971 6.043198
1856 1 29.298888 4.496348 10.888291
1857 1 23.501277 29.642909 7.400760
1858 1 21.995904 15.237483 4.635585
1859 1 6.056011 6.299592 7.712169
1860 1 14.933216 7.344733 3.499061
1861 1 28.113585 29.749615 4.178711
1862 1 9.342824 13.279220 19.642999
1863 1 16.824904 7.766984 22.205042
1864 1 7.333121 1.431183 25.937050
1865 1 9.716789 18.599390 3.832139
1866 1 24.144946 11.145237 1.222920
1867 1 2.040323 33.122536 12.935249
1868 1 27.167394 5.803812 0.395610
1869 1 1.810111 12.377882 6.153783
1870 1 25.575225 4.479176 26.016057
1871 1 12.618209 6.506354 13.068455
1872 1 15.355058 1.556364 18.612367
1873 1 24.534384 13.049694 15.102086
1874 1 26.928515 6.861188 20.794484
1875 1 11.376491 2.742465 29.038006
1876 1 3.339300 11.772272 21.237072
1877 1 30.738186 12.116030 32.786063
1878 1 16.857799 16.392334 27.973439
1879 1 11.761744 19.069039 20.811540
1880 1 19.097577 28.529971 14.186290
1881 1 6.061039 7.904417 21.545097
1882 1 17.851678 29.336554 1.728896
1883 1 32.392384 21.136500 0.781551
1884 1 2.080162 1.707864 26.177899
1885 1 1.280968 13.538227 3.460533
1886 1 0.560083 0.862447 6.518853
1887 1 29.430093 14.206110 31.774211
1888 1 29.261572 20.343671 11.326284
1889 1 28.568079 20.332021 31.288536
1890 1 30.201527 6.606205 16.979438
1891 1 8.391389 13.572324 10.164641
1892 1 13.226903 16.404938 31.051719
1893 1 24.578209 6.873379 23.380091
1894 1 0.994437 13.986859 15.526998
1895 1 13.220732 32.714346 11.037357
1896 1 20.293946 9.896863 32.026859
1897 1 2.050831 20.794659 32.609702
1898 1 23.376431 6.425483 3.626882
1899 1 32.914706 10.739221 1.202041
1900 1 16.157798 30.679133 15.530680
1901 1 18.675648 10.313011 29.685509
1902 1 8.077728 23.169782 28.779536
1903 1 28.876905 15.416855 6.062638
1904 1 8.436171 25.271020 32.317706
1905 1 30.005701 5.184828 0.215052
1906 1 22.150798 25.950250 31.672569
1907 1 31.673937 13.771968 15.791410
1908 1 27.271476 16.871861 7.975920
1909 1 7.582765 30.795168 11.888416
1910 1 15.755043 9.177953 17.722716
1911 1 3.569197 3.989432 4.748256
1912 1 3.817512 1.464975 30.775892
1913 1 26.360516 21.264083 1.972250
1914 1 1.627327 8.462067 11.900709
1915 1 18.133981 24.510879 7.423211
1916 1 1.873973 23.772105 27.636820
1917 1 5.066678 32.393137 29.644667
1918 1 16.240841 19.441020 24.824060
1919 1 32.185876 8.256007 14.917176
1920 1 24.225867 14.674243 20.607205
1921 1 22.364321 29.584665 30.603148
1922 1 10.931178 8.228538 27.362140
1923 1 19.960641 1.220769 19.755771
1924 1 18.001624 11.503941 32.030461
1925 1 2.934474 13.374352 11.032849
1926 1 24.310889 0.408645 4.751516
1927 1 13.295626 16.238316 14.287345
1928 1 29.029155 8.893816 20.033424
1929 1 27.887457 27.803203 13.893098
1930 1 26.676258 13.470002 13.385952
1931 1 5.121868 29.678522 1.238113
1932 1 23.478487 9.202674 15.504696
1933 1 24.745818 20.975432 30.480015
1934 1 20.476593 18.178834 25.820217
1935 1 31.825345 27.179444 28.630135
1936 1 9.511347 13.627210 12.924760
1937 1 2.908901 31.455210 17.029638
1938 1 11.995628 14.981373 11.914293
1939 1 22.775188 18.864678 3.507789
1940 1 10.051588 28.256216 15.495605
1941 1 24.924636 30.703041 23.086272
1942 1 0.001016 1.476465 13.991965
1943 1 1.128487 17.767829 28.675979
1944 1 32.491616 14.729293 28.492049
1945 1 3.337378 0.853554 15.466272
1946 1 3.114702 18.029237 1.491576
1947 1 22.258642 23.212702 23.515409
1948 1 1.209301 28.056016 8.611849
1949 1 2.711139 21.697262 23.402420
1950 1 21.947081 31.942180 19.361932
1951 1 30.704299 28.238551 11.088172
1952 1 26.199751 0.714001 28.738325
1953 1 27.851284 19.329181 6.031470
1954 1 7.397355 12.005519 17.615299
1955 1 19.038517 7.081492 21.134284
1956 1 13.618138 2.379378 30.782285
1957 1 7.053295 19.338458 1.558736
1958 1 2.693009 22.645014 29.912685
1959 1 25.825218 23.658795 20.154454
1960 1 29.794504 0.789297 21.069272
1961 1 13.824520 19.988264 1.025281
1962 1 28.685609 23.951604 31.081852
1963 1 30.189783 28.100024 2.406030
1964 1 27.200993 6.508125 23.535778
1965 1 19.571762 24.236356 14.804805
1966 1 15.925892 10.400253 13.258126
1967 1 32.955496 6.988779 22.161732
1968 1 19.817243 19.161110 30.441565
1969 1 18.015274 4.154355 18.150780
1970 1 13.888046 24.719504 4.045354
1971 1 6.751440 14.163644 19.263108
1972 1 30.838541 31.006225 23.752773
1973 1 16.481884 14.435358 22.800067
1974 1 7.999344 21.353177 18.808324
1975 1 28.098197 25.873907 5.925590
1976 1 2.989411 14.518007 29.394586
1977 1 27.418289 2.115784 24.952105
1978 1 21.346180 30.234186 25.117353
1979 1 1.360342 20.960791 17.121957
1980 1 31.585278 31.245047 15.867603
1981 1 17.056263 15.211089 13.586651
1982 1 16.005045 15.154025 16.815109
1983 1 3.059616 32.272265 6.490152
1984 1 8.618741 22.568147 31.555135
1985 1 17.013333 6.199809 33.091509
1986 1 28.018443 19.584074 3.259852
1987 1 24.855124 32.921424 26.119548
1988 1 10.631563 25.140192 1.442711
1989 1 8.452869 32.956244 0.976132
1990 1 13.722701 27.195420 25.973698
1991 1 13.199769 6.654158 27.542870
1992 1 13.298019 5.999615 20.546012
1993 1 3.547423 28.262407 32.935533
1994 1 27.651217 12.885287 5.143437
1995 1 4.267110 14.503049 24.378467
1996 1 11.940770 20.022447 3.212665
1997 1 30.921518 22.733395 3.127209
1998 1 3.527656 20.025218 12.194301
1999 1 8.209404 4.826350 2.070666
2000 1 11.973000 13.040055 18.200958
2001 1 0.932775 32.283674 15.677330
2002 1 22.052755 17.671167 13.990122
2003 1 30.636994 23.730815 7.807670
2004 1 0.694566 32.805119 32.633295
2005 1 8.501892 27.422354 7.507189
2006 1 17.737969 31.207257 17.652781
2007 1 14.002871 13.918490 30.040309
2008 1 8.782398 23.278816 15.859981
2009 1 17.904212 26.442358 15.076407
2010 1 30.079001 24.908401 23.082443
2011 1 9.956007 26.066788 9.634815
2012 1 9.634645 2.486725 16.904793
2013 1 21.567410 27.299224 25.639806
2014 1 5.990651 26.579782 17.528436
2015 1 16.333967 12.469605 11.477274
2016 1 24.290458 2.783618 16.209093
2017 1 22.857750 18.925683 28.985644
2018 1 3.059720 0.027156 9.122142
2019 1 17.335760 1.528667 24.785726
2020 1 30.479163 7.660647 10.409022
2021 1 25.378438 0.471711 23.393851
2022 1 11.824765 3.341917 1.669349
2023 1 19.987815 31.557626 4.128029
2024 1 15.090592 32.600982 6.176848
2025 1 12.025297 10.662995 3.171455
2026 1 32.731282 4.631159 1.729311
2027 1 23.294739 13.305377 33.055116
2028 1 0.190119 2.240092 0.416703
2029 1 26.992166 18.421983 11.051070
2030 1 11.915883 22.475262 4.731790
2031 1 0.255124 6.609371 30.494162
2032 1 31.996515 14.185557 8.438851
2033 1 17.696904 20.316714 31.849750
2034 1 16.215493 31.130375 8.139161
2035 1 16.049938 3.722787 24.101354
2036 1 16.431732 22.371333 18.110577
2037 1 6.354795 14.514164 16.203598
2038 1 0.722663 32.419309 26.868713
2039 1 7.519048 0.259955 11.203472
2040 1 23.766625 8.999414 2.788928
2041 1 7.937570 16.182030 8.772658
2042 1 9.561606 28.961115 10.750342
2043 1 15.535553 11.536869 32.766995
2044 1 2.416071 2.147285 7.405427
2045 1 23.919747 30.904234 5.198333
2046 1 0.157382 0.988832 8.805634
2047 1 31.420599 25.556898 31.955589
2048 1 5.501023 5.037416 21.133052
