2048
Time=120000.00000010 pbc="T T T" Lattice="32.6652662 0 0 0 32.6652662 0 0 0 32.6652662" energy=-7957.15166 virial="-210.389584 -4.55406556 13.0577521 -4.55406556 -179.408723 -13.1812856 13.0577521 -13.1812856 -192.225601" stress="-0.00144931403 -3.75960249e-05 0.000268036334 -3.75960249e-05 -0.000254742499 -0.000378242646 0.000268036334 -0.000378242646 -0.000754464399" Properties=species:S:1:pos:R:3
Al 32.6562817 32.6103367 0.32851348
Al 32.6342753 2.13247364 2.03075388
Al 2.15015679 32.605804 2.06248505
Al 2.06548849 2.51037232 32.5285196
Al 32.4797166 0.140842431 4.12155527
Al 32.4907847 2.08823981 5.86767011
Al 2.30861323 32.5987304 6.07036648
Al 2.12775537 1.84698166 4.17331134
Al 0.192882953 32.4538283 8.08212269
Al 32.3936039 1.76783217 9.97915223
Al 1.88187513 0.0898777209 10.2834825
Al 1.6324249 2.18018235 8.27695888
Al 0.136287292 32.0766078 12.035526
Al 32.4732629 2.01578632 14.1883935
Al 1.69362888 0.0512603181 14.3277964
Al 2.19619024 2.26059498 12.4065771
Al 0.0426405121 32.6327628 16.2328784
Al 0.0198643681 2.30807949 18.0787811
Al 1.78355498 32.5679373 18.5004851
Al 1.91490729 2.36547489 15.9173784
Al 32.4464518 0.522926447 20.6649669
Al 32.3620019 2.21146214 22.4978455
Al 2.06411258 0.189336179 22.3546162
Al 1.68775454 2.058227 20.1734033
Al 0.271340051 0.0130286337 24.7136599
Al 32.5792745 2.00087949 26.6707267
Al 2.30844004 0.088939269 26.4446808
Al 2.13122274 2.06988381 24.4855864
Al 0.232460445 0.0843582084 28.1648893
Al 32.3600191 1.91347187 30.4121398
Al 1.88829387 0.261037497 30.8296763
Al 1.95165628 1.83760679 28.4814692
Al 32.362778 4.14652647 0.00371236991
Al 32.656551 6.3976152 2.15516057
Al 1.95562145 4.31742717 2.06089843
Al 2.04469067 6.07703336 32.5678568
Al 0.161153536 4.58710706 4.13151371
Al 0.0581465431 6.61822074 6.4508841
Al 2.0377015 4.193117 6.19946882
Al 2.04461404 6.40305565 4.36596408
Al 32.5380221 4.42182693 8.06072246
Al 32.5208356 6.34267137 10.3655873
Al 2.05641062 3.92568221 10.2308597
Al 1.76584842 6.01453894 8.42582152
Al 32.4082966 3.91162763 11.8386683
Al 32.4807443 5.90996051 14.1466137
Al 2.23653327 4.41015508 14.191496
Al 1.97007676 5.75218448 11.9638267
Al 32.3475881 4.37318651 16.2007333
Al 32.3358875 6.22014385 18.592922
Al 1.68996753 4.27894463 18.3471143
Al 2.10430155 6.27111162 16.3556637
Al 32.5152695 3.84224269 20.0963213
Al 32.5358334 6.3948416 22.6639513
Al 1.75211664 4.33471969 22.3028691
Al 1.86775487 6.29298173 20.6180198
Al 0.0136103258 4.26185157 24.1536739
Al 0.371271096 5.99268443 26.4868934
Al 2.401889 4.11048454 26.1450146
Al 2.01186321 6.21807604 24.3184864
Al 32.6005188 3.99231511 28.5247188
Al 0.149625688 6.27355044 30.8421985
Al 1.91767074 3.90432759 30.5364329
Al 2.33015402 5.95666847 28.5267294
Al 0.223712609 8.56549233 0.127271963
Al 0.266818453 10.3274625 2.30514823
Al 2.00018531 8.21833008 2.15833275
Al 2.38574779 10.1873546 0.136436105
Al 32.503734 8.299028 4.23585913
Al 32.6401535 10.0709019 6.26198772
Al 2.22036721 8.18170092 6.54614395
Al 2.03614313 10.4522992 4.33099362
Al 32.3108149 8.2066164 8.46221267
Al 32.4164382 10.2337642 10.5031382
Al 1.99225457 8.35209025 10.385348
Al 2.00132476 10.2709073 8.3162314
Al 32.4090348 8.24121001 12.4442003
Al 32.2898593 10.4436554 14.4526888
Al 1.94242082 8.4473626 14.1716904
Al 1.55342525 10.2450097 12.1767306
Al 32.4872095 8.01622279 16.416178
Al 32.2317105 10.3685393 18.5505186
Al 1.73697688 8.09998664 18.6115837
Al 1.53594591 10.1786267 16.5087419
Al 32.0746297 8.20302507 20.5130361
Al 32.6547367 10.6080382 22.6609959
Al 1.66725763 8.37596842 22.5501586
Al 1.74631526 10.150058 20.4401916
Al 32.5277921 8.11958519 24.7784593
Al 32.4675295 10.202886 26.6449643
Al 2.21742234 8.10484112 26.2718498
Al 1.92245686 10.0875992 24.5754184
Al 32.5186242 8.28690743 28.3826443
Al 32.5713423 10.2286215 30.289849
Al 1.97567412 8.15047102 30.435788
Al 2.12346463 10.0067005 28.3840205
Al 32.6376155 12.0271097 32.6641637
Al 0.0924891382 14.1512048 1.96893154
Al 1.9107285 12.2622002 2.03214486
Al 2.23016271 14.0592638 0.182164743
Al 0.0650559114 12.371382 4.0903441
Al 0.0509001724 14.3749787 5.96323032
Al 1.69368642 12.2896137 6.30923456
Al 1.92013052 14.3979264 4.260786
Al 32.4640381 12.1132996 8.34624508
Al 32.5874955 14.1654463 10.4785774
Al 1.74781842 12.2409053 10.1961622
Al 1.58793957 14.406444 8.23456365
Al 32.6459275 12.2614558 12.4270751
Al 0.0581702877 14.2676563 14.4630913
Al 1.79317968 12.1561327 14.3394865
Al 2.24377698 13.9753944 12.2017031
Al 0.0761678628 12.4225397 16.3401267
Al 0.0783409756 14.7219836 18.14444
Al 1.58258445 12.4144135 18.7211832
Al 2.0424487 14.6256532 16.4003822
Al 32.6028325 12.3013087 20.6584391
Al 0.14464927 14.288852 22.5482546
Al 1.9493146 12.3043948 22.3453725
Al 2.34970218 14.509208 20.667393
Al 32.4062831 12.3715196 24.5293458
Al 32.5340699 13.9325912 26.8843529
Al 1.93174225 12.3186768 26.4186393
Al 1.79123628 14.1692057 24.6988833
Al 32.646771 12.0315602 28.580177
Al 0.0316731215 14.3055418 30.780353
Al 2.12542973 12.0157441 30.5399575
Al 2.34460515 14.1921202 28.9143201
Al 0.134197263 16.15894 0.180468362
Al 32.3844409 18.3364224 2.13157274
Al 1.86528953 16.1924742 2.19661663
Al 1.77338467 18.1335132 0.369528387
Al 32.6229008 16.4353324 4.13405169
Al 0.302414774 18.4681265 6.0728866
Al 2.14954228 16.595975 5.927719
Al 1.79237536 18.3914235 3.80490437
Al 0.166752538 16.5816244 8.34988485
Al 0.0784721935 18.1940346 10.4839818
Al 2.05523796 16.2209364 10.6839949
Al 2.21217797 18.6633949 8.24570101
Al 32.6363615 16.2843608 12.3556062
Al 32.5766688 18.5580078 14.1049303
Al 2.10207758 16.3945246 14.1960785
Al 2.24458613 18.480473 12.0853008
Al 32.4806464 16.5491185 16.0853438
Al 0.304017905 18.3801621 18.2059749
Al 2.13128291 16.6157948 18.2765909
Al 2.15613344 18.422077 16.1555805
Al 0.293159029 16.2435051 20.6085683
Al 0.128776979 18.4117522 22.9596939
Al 2.13970404 16.416795 22.5368553
Al 1.76962725 18.3242567 20.5156965
Al 0.038403799 16.2160634 24.7557244
Al 0.245118628 18.2934782 26.7895473
Al 2.09132378 16.2736792 26.6391093
Al 2.26820765 18.2783539 25.0178048
Al 0.281760427 15.9123052 28.7208067
Al 0.329671375 18.1927207 30.6314051
Al 2.22732532 16.2719738 31.1133296
Al 2.39324111 17.9555322 28.5287262
Al 32.5943028 20.3149956 0.0132069388
Al 32.6554667 22.1314164 2.08638491
Al 1.96309933 20.3241507 2.28456373
Al 1.56012633 22.6194968 0.207616484
Al 32.459368 20.5257323 4.35585274
Al 32.4390079 22.3948223 6.29300315
Al 2.09848238 20.4347688 6.06182203
Al 2.04722563 22.2129955 4.10336138
Al 0.128834692 20.2770352 8.6336886
Al 0.171111435 22.3924222 10.2352773
Al 2.1338388 20.5183444 10.1432609
Al 2.34671719 22.1927378 8.11648964
Al 32.5243014 20.5621966 11.7366362
Al 0.282046618 22.242683 14.0727356
Al 2.1225856 20.468772 14.2944303
Al 2.13127387 22.3560543 11.9935818
Al 0.211922654 20.7117525 16.6205656
Al 32.5784293 22.9585128 18.447973
Al 2.49491536 20.0356987 18.1320489
Al 2.18424507 22.3644002 16.3442809
Al 0.224538201 20.5619423 19.7222744
Al 0.261158719 22.5989414 22.5580094
Al 2.25698092 20.4913633 22.6824384
Al 1.90632108 22.5673644 20.3411949
Al 0.312803107 20.2261262 24.8850489
Al 32.3609609 22.3151124 26.6975741
Al 2.24842854 20.2221679 26.7908545
Al 2.11913408 22.3560589 24.7653337
Al 0.19105391 20.4774671 28.6096793
Al 0.117968106 22.8546259 30.5349646
Al 1.69315966 20.6438967 30.6151127
Al 2.10398914 22.4446694 28.3115635
Al 32.6365768 24.6056861 0.0485830421
Al 32.585592 26.5016947 2.26349122
Al 1.8794898 24.4458323 2.30706826
Al 1.62418776 26.7749235 0.371275478
Al 32.5848003 24.2445597 3.80835299
Al 0.130698183 26.1658448 5.97109545
Al 2.29023964 24.3667417 5.81519904
Al 2.07576972 26.5348749 3.93005018
Al 0.0108691002 24.2367436 8.1970583
Al 32.648952 26.6216138 10.4167527
Al 2.22063736 24.5074985 10.2607212
Al 1.79549739 26.3399126 8.00390857
Al 0.338438315 24.5959353 12.2934397
Al 0.174851894 26.3199452 14.0558842
Al 2.25008656 24.1115088 14.0629182
Al 2.20119383 26.5817087 12.2284654
Al 0.338103434 24.2519418 16.1594526
Al 32.5298181 26.3761641 18.1914192
Al 2.28379871 24.2767334 18.0235161
Al 2.48529059 26.719723 16.180599
Al 32.5099311 24.4686778 20.4421484
Al 0.00850568182 26.6168033 22.2128394
Al 2.03562187 24.5173919 22.8343169
Al 1.81399713 26.2588815 20.2796488
Al 32.5806367 24.4161958 24.6595045
Al 32.4868853 26.4215557 26.454677
Al 2.02934174 24.9171731 26.1788258
Al 2.16772252 26.8608583 24.2442184
Al 32.4991521 24.6124602 28.6168362
Al 32.5066243 26.5215872 30.8860295
Al 2.40663255 24.4153556 30.5789551
Al 1.84138791 26.2803863 28.260354
Al 32.5360916 28.7453294 0.12112066
Al 0.0453748789 30.696439 2.1275559
Al 2.22148049 28.5756664 2.0092729
Al 2.23650845 30.5061944 0.164228755
Al 0.19277304 28.4135131 3.98311002
Al 0.153158796 30.5933263 6.194138
Al 2.28009791 28.4525915 6.0763739
Al 2.05469454 30.7658348 3.92166813
Al 0.419563395 28.4247662 8.21360885
Al 0.318753334 30.4282596 9.88672504
Al 2.18050286 28.2588976 10.0800028
Al 2.33120315 30.6488121 8.05088375
Al 0.174403833 28.4801843 12.177961
Al 0.0119203898 30.2776524 14.0016956
Al 2.24794516 28.4370066 14.2882524
Al 2.31509431 30.528657 11.842111
Al 0.142052025 28.2532864 16.2281887
Al 32.5499159 30.3827468 18.1194623
Al 1.93194507 28.6552659 18.5268453
Al 2.0386761 30.5585551 16.2496687
Al 0.044829001 28.6569049 20.6670072
Al 32.479829 31.0045902 22.2905151
Al 1.92963449 29.0744912 22.6764277
Al 1.8815131 30.8693224 20.6432041
Al 0.171516032 28.7707597 24.7908044
Al 0.150983338 30.6328024 26.721745
Al 2.00621981 28.3641502 26.5509241
Al 2.11033205 30.7304941 24.4406915
Al 32.5023209 28.0246857 28.7525849
Al 32.6637168 30.9213759 30.4002992
Al 1.63952492 28.7542833 30.8675339
Al 2.20677151 30.2091275 28.4309472
Al 4.08108729 32.5848342 32.564648
Al 4.00748322 2.02506698 1.73534993
Al 6.21380641 32.5836155 1.90348215
Al 5.84294023 2.44333161 0.170629149
Al 4.18883836 32.5326732 3.92898841
Al 4.35234116 1.9005243 5.99821016
Al 6.21263205 32.1458057 5.77529241
Al 6.25975391 1.84411104 4.09915258
Al 4.17907803 32.4107521 7.95103224
Al 3.85333228 1.94407749 10.1236104
Al 6.15851647 32.5861961 9.86626488
Al 5.80572131 2.07600263 8.20639537
Al 4.25385414 0.306610509 12.2343733
Al 3.96485747 1.68540915 14.3301194
Al 6.19383591 0.218791458 14.2571102
Al 5.857182 2.18906358 12.6246288
Al 3.55402483 0.15682967 16.5972232
Al 3.50964722 2.25882587 18.4439497
Al 6.10152743 0.26888279 18.464302
Al 5.55518835 2.03610526 16.6921108
Al 4.12601405 0.166039356 20.2307734
Al 4.01315943 1.92504802 22.4526763
Al 5.78700183 0.0962212829 22.3393424
Al 6.06340518 1.84441588 20.6145038
Al 4.40575425 32.3357848 24.5121145
Al 4.29256858 1.78468567 26.5169647
Al 6.10810525 32.5955696 27.0436369
Al 6.20564894 1.91991623 24.5844166
Al 3.67051697 32.2804089 28.5904439
Al 3.87278055 1.84771128 30.6083373
Al 6.12297861 32.6600099 30.4644978
Al 5.75968474 2.30951995 28.7521757
Al 3.98448484 4.17078694 0.0546265282
Al 4.17728096 6.12416804 2.44640342
Al 6.21422702 4.10242671 2.62021021
Al 5.86066484 6.2016514 0.248921306
Al 4.0313108 4.04943983 4.38308188
Al 4.23246316 6.25826708 6.29528362
Al 5.98989201 4.04516646 6.2397373
Al 5.9983022 6.17641268 4.31267985
Al 3.95597742 4.1436737 8.21831767
Al 4.20946864 6.18197992 10.3510241
Al 6.57672044 3.99532824 10.2785978
Al 6.29715799 6.13853813 8.23098175
Al 4.07357841 4.14225312 12.198528
Al 3.74817966 6.71493533 14.0271031
Al 5.98142801 4.2295335 14.3976438
Al 6.20224683 6.43563826 12.4117276
Al 3.85913926 4.22847959 16.2917217
Al 3.90469216 6.09136336 18.235465
Al 5.63020726 4.02912121 18.5556262
Al 5.96995359 6.20071841 16.2749224
Al 3.64786148 4.32055622 20.3519322
Al 4.03786093 6.17808072 22.5215631
Al 5.96524006 3.96797213 22.3161585
Al 5.62467771 6.06528985 20.3227917
Al 4.24555077 4.0138602 24.5267017
Al 4.1332315 6.29557164 26.4397916
Al 5.98235624 3.95347211 26.5899603
Al 6.01920631 6.28059652 24.4995441
Al 3.70941264 3.90153864 28.4423144
Al 4.0431576 6.11178214 30.7509774
Al 5.64516793 4.19264532 30.6218595
Al 6.26238579 6.35274559 28.5513119
Al 4.185617 8.23173461 0.382882108
Al 4.02892677 9.72998966 2.31145888
Al 6.05759217 7.89206356 2.31388728
Al 6.20311847 10.2101276 32.6185566
Al 3.9182992 8.1791129 4.24459181
Al 3.82107212 10.5053511 6.59790883
Al 6.42079145 8.33070229 6.24243706
Al 5.9173933 10.1514986 4.26722931
Al 4.3785873 7.824651 8.25426934
Al 4.07332515 10.2381443 10.0348145
Al 5.98487158 8.20292885 10.3653182
Al 6.24201047 10.1504335 7.95439212
Al 4.18995206 8.76697214 12.2017195
Al 3.82227736 10.3825079 14.9152755
Al 6.02935795 8.25156974 14.2522226
Al 6.24188077 10.5106332 12.7004869
Al 4.25578029 8.09947433 16.2514295
Al 3.68156638 9.96336084 18.095931
Al 6.14901551 8.19568392 18.7108118
Al 6.16065287 10.1079309 16.5884373
Al 4.03136249 8.44646563 20.6822962
Al 3.96708567 10.2720184 22.6828368
Al 6.26900994 7.93381363 22.456263
Al 5.90118509 10.3548249 20.033559
Al 4.26639436 8.26074725 24.3588572
Al 4.10139331 10.3250626 26.5764782
Al 6.15247915 8.11075565 26.4932009
Al 6.20832532 10.084649 24.2463006
Al 4.19817324 7.9223957 28.79041
Al 4.00582683 9.95757698 30.7508058
Al 5.89257942 7.95581453 30.8679752
Al 6.04903839 9.93678016 28.5849435
Al 4.14494671 12.0733897 0.150762533
Al 3.88842309 13.7860813 2.2522402
Al 6.15638374 12.1878345 2.0448055
Al 5.81390149 14.1247541 0.0317342103
Al 4.01607625 12.0901801 4.27307799
Al 3.86322736 14.2180118 6.30226836
Al 5.9190322 12.3343016 6.41782602
Al 5.98810972 14.0137582 3.8890341
Al 4.18267346 12.7024648 8.33336497
Al 4.19311946 14.1891943 10.5699898
Al 6.34584934 12.3670259 10.2543573
Al 6.04914671 14.4883796 8.3465692
Al 3.71451513 11.9407325 12.490311
Al 3.76468928 14.2452658 14.3795193
Al 6.42530219 12.0490353 14.8501364
Al 6.2997611 14.1697453 12.3527699
Al 3.9759976 12.5986542 16.7243184
Al 3.93758572 14.6944297 18.3790125
Al 6.14636011 12.3408756 18.1781123
Al 6.05556763 14.4771259 16.3740867
Al 4.09234899 12.3906378 19.7871595
Al 4.17973123 14.6513457 22.6254923
Al 5.49016502 12.2089649 22.4046318
Al 5.76201244 14.3372959 20.2894843
Al 3.95829429 12.3610975 24.5945078
Al 4.02917368 14.1270474 26.8266392
Al 6.35542329 12.2949238 26.1497682
Al 5.91617091 14.2056007 24.5382036
Al 4.15173157 11.9452644 28.4996795
Al 4.12091576 14.0946575 31.0062122
Al 5.78189565 11.9437486 30.6054442
Al 5.91906105 14.2516639 28.5903192
Al 4.0848152 16.0806222 0.40130115
Al 3.85060316 18.201715 2.12006793
Al 6.08113578 16.136545 2.1829633
Al 6.07370042 18.3852303 0.079991439
Al 4.15600246 16.3002756 4.05300151
Al 3.88164117 18.2800502 6.1547258
Al 5.81950279 16.5619507 6.28956521
Al 6.3430875 18.3358669 3.8444545
Al 3.79510079 16.3070036 8.35524607
Al 4.03958213 18.103055 10.3193929
Al 6.01490174 16.435469 10.2860915
Al 6.18686792 18.3691036 7.92264919
Al 3.98568682 16.0239962 12.3726149
Al 3.89096301 18.3649856 13.9254358
Al 5.87900879 16.534437 14.1454605
Al 5.94138371 18.3752877 12.1777522
Al 4.16219675 16.1757274 16.1288838
Al 4.47901599 18.4801165 18.2146559
Al 6.32428411 16.6331514 18.1528046
Al 6.14501878 18.3162683 16.0576724
Al 3.95805032 16.6129626 20.2592614
Al 4.22958681 18.4261841 22.6551743
Al 6.43725718 16.6006812 22.0704684
Al 6.20810515 18.4940319 20.3078917
Al 3.83551287 16.2445551 24.8103663
Al 4.46346799 18.1946845 26.8171059
Al 5.90265006 16.0289492 26.8529114
Al 6.23187363 18.3036013 24.2662433
Al 4.25836326 16.0665227 28.9076514
Al 4.09015469 18.4452574 30.9007202
Al 6.08042379 16.2935133 30.9671641
Al 6.03274256 18.5174364 28.8474665
Al 4.17862365 20.3134308 0.0865850763
Al 4.00353003 22.6151129 1.89066765
Al 6.18009402 20.4371483 1.83816515
Al 6.13522855 22.3985427 32.3426073
Al 4.18011018 20.1344057 4.09842982
Al 4.03474671 22.2780005 6.06860413
Al 6.24253768 20.1081362 5.86526348
Al 6.12272753 22.522698 4.02613839
Al 4.33820866 20.2386407 8.21074705
Al 4.23460126 22.3565755 10.0898903
Al 6.16277848 20.3514827 10.272811
Al 6.12207306 22.0387427 7.8099235
Al 4.09055552 20.3150844 11.8614076
Al 4.09281029 22.1769259 13.7008268
Al 6.35913374 20.3214589 14.0335823
Al 6.31202534 22.2310172 12.5222111
Al 4.32012456 20.2456586 16.0745965
Al 4.02300405 22.3808619 18.4754838
Al 6.03018386 20.5440764 18.2897186
Al 5.94688646 22.3962991 16.3009836
Al 3.85603613 20.2836643 20.4770931
Al 4.00713349 22.4620027 22.1345161
Al 6.21957487 20.3229806 22.1620227
Al 6.19482149 22.4491517 20.2115543
Al 4.33984651 20.7016553 24.6793714
Al 4.1473869 22.5324593 26.7428192
Al 6.7526471 20.08595 26.3635137
Al 6.57017962 22.4404822 24.1730715
Al 4.10977489 20.3092614 28.7397254
Al 4.04475388 22.4908016 30.9406955
Al 6.1109242 20.4309648 30.6072226
Al 6.1821512 22.268219 28.5113498
Al 4.03634209 24.5401925 0.493426448
Al 4.40734849 26.4884345 2.0452531
Al 6.3628006 24.6701005 1.85326166
Al 6.20225657 26.165211 32.3901726
Al 4.2494539 24.8814573 4.14751005
Al 3.92017994 26.3835126 6.51728061
Al 6.22340054 24.4656379 6.11707335
Al 6.29526963 26.7010417 3.90273344
Al 4.37385327 24.3400168 8.13603022
Al 4.1129217 26.3497925 10.1797906
Al 6.0601063 24.1324435 10.161726
Al 6.3546418 26.4483468 8.20591318
Al 4.24341158 24.4133435 12.1689301
Al 4.124212 26.3975981 14.1462238
Al 6.20627793 24.2509678 14.3359678
Al 6.23985931 26.4683655 12.098134
Al 4.00382699 24.5842541 15.8928479
Al 3.74640654 26.4343056 18.3353873
Al 6.02337418 24.3901089 17.9080365
Al 5.93029362 26.7396101 16.5477223
Al 3.69456085 24.5489653 20.4594552
Al 3.68202012 26.7033181 22.0681819
Al 6.1644108 24.3259014 22.0862538
Al 6.22672604 26.3986425 20.1217996
Al 4.24716214 24.3768121 24.3546434
Al 4.18776359 26.4205565 26.2955997
Al 6.06276621 24.5211473 26.588016
Al 5.9886759 26.5175484 24.2316597
Al 4.12441761 24.4242232 28.5755791
Al 3.80461668 26.7459976 31.0980493
Al 6.40181135 24.4310752 30.4750495
Al 6.05295639 26.3706436 28.72258
Al 4.38352666 28.3957801 0.209665273
Al 4.3353367 30.5408103 2.02702332
Al 6.37000064 28.4826236 1.89487166
Al 6.03951861 30.6080456 32.5997464
Al 4.25872862 28.6098065 3.79022187
Al 4.25283505 30.4912265 5.97714473
Al 6.36129363 28.2011193 6.0823581
Al 6.28148562 30.4346863 3.9275392
Al 4.09508972 28.5681858 8.16480316
Al 4.167198 30.4607045 10.2063436
Al 6.28905071 28.7292213 10.18451
Al 6.05778994 30.236207 7.93559409
Al 4.41810015 28.5244962 12.3897696
Al 3.81003701 30.6625238 14.2768707
Al 6.16867271 28.2739745 14.3372293
Al 6.5776761 30.7664105 12.392174
Al 4.07614652 28.9418197 16.4732226
Al 3.70021135 30.6550767 18.5056302
Al 6.00906478 28.5598645 18.3589181
Al 6.04530661 30.916707 16.3834234
Al 4.06597071 28.504339 20.3836139
Al 3.98437473 30.6899967 22.389586
Al 6.05861281 28.504512 22.5848464
Al 5.98251163 30.5886293 20.5168112
Al 4.12089622 28.7505424 24.665569
Al 4.37486808 30.6747861 26.398454
Al 6.26171701 28.5111978 26.7671657
Al 6.35715483 30.487462 24.7531367
Al 3.88993741 27.9776536 28.7838926
Al 3.90051053 30.5854332 30.8603311
Al 6.08656472 28.3395693 30.5701924
Al 5.49197946 30.4642083 28.654775
Al 8.30103618 32.6414371 32.6154799
Al 8.04957279 2.05873455 1.95231033
Al 10.3354395 32.2382262 2.1219609
Al 10.3478834 1.99285571 0.0307136833
Al 8.34909388 32.3755567 4.29689314
Al 7.80396856 1.89392171 5.99183062
Al 10.4649936 32.5680002 6.09790591
Al 10.1689481 2.04974268 3.73388785
Al 7.94086127 32.1814242 7.82671081
Al 8.22670865 1.93368797 9.47542514
Al 9.96462292 0.155170547 10.193013
Al 9.85885212 1.94628433 7.47165805
Al 8.03918829 0.378788613 12.1082972
Al 7.97099173 2.22160712 14.7247634
Al 9.89033129 0.182071914 14.0137156
Al 9.97523766 2.19447054 12.170059
Al 8.18194837 0.303990291 16.6586346
Al 7.94697983 2.28511392 18.285664
Al 10.294081 32.6491241 18.3537263
Al 10.1810868 2.02208842 16.3055652
Al 8.25978087 32.4098872 20.3813468
Al 7.94853329 2.21383148 22.6784026
Al 9.87976536 0.0125016688 22.3058021
Al 9.94243744 2.0626849 20.5335658
Al 7.73945549 32.6125797 24.4594598
Al 8.02010635 2.19657247 26.6495851
Al 10.0951108 0.0415191032 26.3210156
Al 10.0836175 2.1124742 24.4816194
Al 8.61064821 32.4745543 28.8473055
Al 8.00469277 1.82372674 30.5040595
Al 10.5129456 0.0799605798 30.6788078
Al 9.89937883 2.38647583 28.6224672
Al 8.21232504 3.83667388 32.3337194
Al 8.44971551 6.08126824 1.42597786
Al 10.3156271 4.07650921 1.88623426
Al 10.496668 6.29004665 0.0623419421
Al 8.35380336 3.95845958 3.9563147
Al 8.22852589 6.21605889 6.05060485
Al 10.2643026 4.05723274 5.96164879
Al 10.5943622 5.9963472 4.11987695
Al 8.02899042 3.75073483 7.78518376
Al 7.96824489 6.38386655 10.392491
Al 9.89414326 4.08980762 10.0528045
Al 9.7448417 5.83089529 8.2786035
Al 7.95950324 4.29999668 12.5603916
Al 8.10520833 6.25478763 14.3325494
Al 10.0761094 4.22530932 14.3085089
Al 9.94801896 6.22443343 12.2830606
Al 8.09467216 4.29539315 16.576843
Al 7.779662 6.2143669 18.5631609
Al 10.2630938 3.96984266 18.3361471
Al 10.1563728 6.23511269 16.8535489
Al 8.304366 4.03602038 20.4776418
Al 8.05041325 6.10929671 22.596177
Al 9.96407621 4.20202915 22.8653771
Al 10.0096149 6.02598768 20.6277
Al 7.89261031 4.48549444 24.621533
Al 8.41033866 6.426401 26.5181538
Al 10.0733645 4.21084455 26.4168874
Al 10.608342 6.11479516 24.5745266
Al 8.09801072 4.21093377 28.8219703
Al 7.94655967 6.204601 30.5865539
Al 10.226965 4.14059857 30.8258117
Al 10.2936368 5.92793039 28.6206029
Al 8.24365305 8.3274507 0.346588261
Al 8.08288996 10.009995 2.30599445
Al 10.290834 8.26609367 2.20689362
Al 10.2273284 10.0799035 32.6344039
Al 8.34492513 7.55319295 3.84984536
Al 8.10290776 10.10745 6.13776171
Al 9.95625619 7.97098681 6.23691297
Al 10.1205232 10.3836938 3.92389572
Al 8.0304391 8.092412 8.44594097
Al 8.09508429 10.046903 10.261145
Al 10.2556364 8.13531314 9.96820847
Al 9.748378 10.1346127 7.98694033
Al 8.23231886 8.24141097 12.2190012
Al 8.32807315 9.9883807 14.4603237
Al 9.96151447 8.05131336 14.4680258
Al 10.8007095 9.78367175 12.0912105
Al 8.05277511 8.07609238 16.7747745
Al 8.19265579 10.2667159 18.3788312
Al 10.1539936 8.10331559 19.0159387
Al 10.2234984 10.3208716 16.5259731
Al 8.01249246 8.63839359 20.6341759
Al 8.02554694 10.5792641 22.3454459
Al 10.2907799 8.30492939 22.8185276
Al 10.1155497 10.1103823 20.7884754
Al 8.19437397 8.33232629 24.3721494
Al 8.00599681 10.3394154 26.5876396
Al 9.91598377 8.57830353 26.6063865
Al 10.1224535 10.3111699 24.3585414
Al 7.89112646 8.24260138 28.5741302
Al 8.17470821 9.87144787 30.8564336
Al 10.05029 8.01807548 30.4288858
Al 10.0153369 10.2481186 28.5698733
Al 8.19736142 12.0995729 0.0284458911
Al 7.95100011 14.2889949 2.0065258
Al 10.1104572 12.0557429 1.96460231
Al 10.1243025 14.1439434 0.11068094
Al 8.10904601 12.0221428 4.25153279
Al 7.77825759 14.7484153 5.91520017
Al 9.92957471 12.1410597 6.27233489
Al 10.0288115 13.9488322 3.9926935
Al 7.99408022 12.1859643 8.15634874
Al 8.26819535 14.4051366 9.83910802
Al 10.0754822 12.2359881 10.1250597
Al 9.98574236 14.2880718 8.03256584
Al 8.37401424 12.3710548 12.5271113
Al 8.18269058 14.706154 14.2012224
Al 10.3218843 11.972952 14.1861846
Al 9.98935702 14.8377151 12.1261161
Al 8.39275799 12.3966757 16.4727565
Al 8.08685254 14.5773995 18.157544
Al 10.2437579 12.4160574 18.2823132
Al 10.333821 14.2169925 16.1881979
Al 8.13940294 12.5160441 20.174062
Al 7.70390257 14.1147429 22.6091488
Al 10.2282912 12.422833 22.1890486
Al 10.1776303 14.373737 20.3541404
Al 8.44231267 12.1200236 24.7944391
Al 8.08341007 14.3587723 26.4384229
Al 10.1715911 12.3018127 26.8241887
Al 10.2372955 14.3552071 24.7804635
Al 7.67644692 12.2040825 28.4336468
Al 8.048245 14.0097682 30.9935561
Al 10.2519618 12.0671353 30.4773456
Al 10.3049455 14.2369493 28.9481765
Al 8.09666189 16.1240154 32.6205815
Al 8.11511973 18.4092684 2.02646703
Al 9.84708192 16.3300276 1.93997201
Al 10.1474721 18.4641017 0.260396622
Al 8.22960884 16.2685577 3.91395554
Al 8.34157152 18.3068096 6.08861032
Al 10.395037 16.2208121 5.92395219
Al 9.8254802 18.2894626 4.01396989
Al 7.98693713 16.2564744 8.07824017
Al 8.34641321 18.2760581 9.92040657
Al 10.4900121 16.3494317 10.0456824
Al 10.6009816 18.3855652 8.30248018
Al 7.95924224 16.486447 12.1534188
Al 8.2671843 18.2133118 14.2235008
Al 10.3928567 16.5544015 14.520528
Al 10.64975 18.0094993 12.3154779
Al 8.16104723 16.5489839 16.1576266
Al 8.43317535 18.3600238 18.2595861
Al 10.7855718 16.4374038 17.8391162
Al 10.6028526 18.524706 16.3764295
Al 7.93968585 16.2613523 20.1805496
Al 8.40003103 18.1537018 22.0604051
Al 10.0016376 16.06979 22.1186377
Al 10.2135861 18.1153835 20.3768493
Al 8.16098623 16.3493164 24.3823957
Al 8.12714066 17.9166555 26.6742306
Al 10.1150718 15.9343933 26.8728365
Al 10.3988422 18.1890442 24.5055963
Al 8.10618592 16.1687077 29.0648987
Al 8.22934647 17.9805023 30.7695149
Al 10.450341 16.3568576 30.6446098
Al 10.3780095 18.044866 28.6831593
Al 8.22355471 20.2929946 32.3610571
Al 8.14432854 22.6325519 1.73265816
Al 10.2203919 20.5183249 2.11230758
Al 9.97648381 22.0936837 32.6171621
Al 8.07738431 20.4882701 4.076026
Al 8.49235207 22.4446119 6.14060979
Al 10.2153458 20.4747628 6.11017397
Al 10.4221879 22.3128618 4.22628958
Al 8.16197728 20.592768 8.2769764
Al 7.97864354 22.4143993 10.1584924
Al 10.4950379 20.5629439 9.84667789
Al 10.5316776 22.270153 8.12558525
Al 8.54256502 20.0179717 12.1987534
Al 8.53190651 22.3288339 14.6679294
Al 10.2405434 20.0305323 14.233145
Al 9.92289563 22.2512982 12.2342522
Al 8.08246303 20.3006119 16.1840719
Al 8.1151344 22.772473 17.916479
Al 10.4487617 20.2626524 18.5151457
Al 10.6137659 22.4840479 16.5451311
Al 8.20749095 20.5138594 19.8980374
Al 8.55444768 22.179296 22.0563485
Al 10.3579119 20.1067194 22.3699405
Al 10.2771172 22.5492605 20.1017942
Al 8.49617051 19.9267468 24.6534101
Al 8.45945976 22.3869918 26.8169877
Al 10.0401609 20.1711372 26.7338142
Al 10.3139396 22.6478026 24.2222546
Al 8.4102572 20.0655092 28.7271206
Al 8.40772899 22.3349509 30.4549696
Al 10.307778 20.4486448 30.4730661
Al 10.3016304 22.367288 28.4259433
Al 8.2599125 24.7689839 32.5322205
Al 8.23910669 26.504045 2.0463425
Al 10.2131429 24.7832828 1.75357394
Al 10.0282003 26.66313 32.3818177
Al 8.45520174 24.304913 3.90732171
Al 8.40783241 26.2083667 6.15491799
Al 10.4726502 24.3519715 5.90947447
Al 10.5361334 26.2404451 4.10001874
Al 8.5713693 24.0660777 8.17380493
Al 8.23087517 26.7231343 10.2503379
Al 10.2491621 24.4363939 10.6150766
Al 10.0766591 26.4184932 8.17101543
Al 8.03480466 24.2906821 12.1253137
Al 8.15751127 26.1790843 14.2969487
Al 10.5294034 24.240859 14.244045
Al 9.85877995 26.8870355 12.5017197
Al 8.62137843 24.5280662 16.2755679
Al 7.90730035 26.314524 18.2939456
Al 10.2120075 24.5318332 18.2482195
Al 10.4280527 26.7826665 16.5426434
Al 8.01809166 24.366665 20.2903652
Al 8.26643677 26.5084088 22.2762903
Al 9.80221262 24.4585917 22.422741
Al 9.97892463 26.2966575 20.3545223
Al 7.99118033 24.7644296 24.5964632
Al 7.97121167 26.6131832 26.8733592
Al 10.3231665 24.7249484 26.7259917
Al 10.1017843 26.5190095 24.5676912
Al 8.25144007 24.3875494 28.4651474
Al 8.23958576 26.3864758 30.2951144
Al 10.4003373 24.6505986 30.4099889
Al 10.1309605 26.6758675 28.4446852
Al 8.33680192 28.5721924 32.6093683
Al 8.19761019 30.3895347 2.05436951
Al 10.3196925 28.8352951 1.85838647
Al 10.1080579 30.520425 32.6332973
Al 8.64633166 28.4097553 4.16659152
Al 8.45109096 30.1202627 6.02320702
Al 10.3448559 28.2741986 6.29901233
Al 10.4802486 30.3476623 4.26453929
Al 8.30865989 28.3750305 8.33554833
Al 8.38576023 30.667983 10.2018855
Al 10.1669671 28.5264142 10.2082665
Al 10.3049027 30.9456097 8.02686629
Al 8.10512121 28.9259469 12.4232984
Al 8.20829242 30.8343878 14.41755
Al 10.3586089 28.7793791 14.4099735
Al 10.1638634 30.7966303 12.3265068
Al 8.19117505 28.815148 15.9299907
Al 8.1344083 30.5385077 18.0538264
Al 9.88431387 28.5477627 18.2880847
Al 10.497736 30.9317188 16.41207
Al 8.10070559 28.6578708 20.5357081
Al 7.89271574 30.6029331 22.4687699
Al 9.90586023 28.6729304 22.4686703
Al 10.0078635 30.4838778 20.0422344
Al 8.04931847 28.5612092 24.6211012
Al 7.97595853 30.6567284 26.8392181
Al 10.6257225 28.3607897 26.4946617
Al 10.2019625 30.4102813 24.8971891
Al 7.88242156 28.6759262 28.6784026
Al 8.12972532 30.4484616 30.7053941
Al 10.1790307 28.7232883 30.2036713
Al 10.0499235 30.1814989 28.2867962
Al 12.1983626 32.5908347 32.6230056
Al 12.2816836 2.06425377 1.95143687
Al 14.1393982 0.114642498 2.01867369
Al 14.1557741 2.19917172 32.5941911
Al 12.0930697 32.5354491 4.09616527
Al 12.4655443 1.67016996 6.07041287
Al 14.5911834 32.3514466 6.55463456
Al 14.1895801 2.1681517 4.17988236
Al 12.1073329 0.144468544 8.22210164
Al 12.1578016 2.35486164 10.2370093
Al 14.2799694 0.442750604 10.2410981
Al 14.542999 2.20542297 8.38658959
Al 12.2157816 0.287572686 12.5790947
Al 12.2026935 2.3123869 14.0760748
Al 14.3987818 32.497447 14.4120389
Al 14.5172099 2.04633123 12.1298452
Al 12.0194774 0.18609137 15.899308
Al 12.2722254 1.80215608 18.4754258
Al 14.0260312 32.4714665 18.2895066
Al 14.0220819 2.07125044 16.5883659
Al 11.8216807 32.3838384 20.6538481
Al 11.970088 2.08626476 22.2472967
Al 13.744741 0.0383038121 22.4509122
Al 14.2046977 2.01107123 20.4011154
Al 12.0451352 0.214616542 24.640949
Al 11.9463102 2.2295054 26.5936269
Al 14.026044 0.672952107 26.7724006
Al 14.4629196 2.09902668 24.4841814
Al 11.9756518 0.434101091 28.5240251
Al 12.0968186 2.14713667 30.7031782
Al 14.1815468 32.6532079 30.4084476
Al 13.9687993 2.06357569 28.9390978
Al 12.3188506 4.05402402 0.0668023747
Al 12.4522347 5.96344022 2.18093191
Al 14.5398641 4.23749402 2.09676905
Al 14.2631067 6.38835633 0.0923325437
Al 12.3157041 3.82651653 4.02832001
Al 12.1597911 6.33886773 6.23203718
Al 13.7945184 3.83153086 6.30087004
Al 14.0375397 5.82420276 4.33234256
Al 11.9057976 4.32378149 8.06785453
Al 11.9004287 6.25843804 10.097203
Al 13.8127743 4.25891881 10.2613619
Al 14.3589364 6.13814641 8.14325656
Al 12.5626424 4.27746095 12.4586152
Al 11.8831439 6.23934899 14.0718046
Al 14.6953484 4.32708266 14.0047613
Al 14.2317135 6.35901286 12.2124562
Al 12.2841614 4.13849519 16.4291835
Al 12.1194976 6.16570506 18.6215463
Al 13.7911211 4.12420377 18.574933
Al 14.1386769 6.05628635 16.0560811
Al 11.9577955 3.85421636 20.3351588
Al 12.3220763 6.09650613 22.707553
Al 14.3563661 4.20508211 22.3497933
Al 14.2619465 5.96014167 20.4426041
Al 12.3226394 3.86947126 24.4459696
Al 12.3665808 5.8704498 26.6185027
Al 14.3769261 3.74683677 26.7470957
Al 14.2116594 5.60750439 24.6901502
Al 12.2042672 4.02691524 28.5991543
Al 12.3903013 5.96867205 30.4564337
Al 14.2655888 4.01152399 30.6419622
Al 14.3529553 5.79504313 28.4253405
Al 12.3608209 8.19605126 0.106881206
Al 12.0714283 10.2669269 2.09027104
Al 14.2594315 7.97493867 2.19323646
Al 14.5130688 10.0713864 0.245607604
Al 12.2502681 8.24487026 4.27086444
Al 11.9632354 9.85475488 6.07143019
Al 14.6346099 8.09713294 6.08071532
Al 14.1065939 10.2973102 4.15596631
Al 12.3014686 8.21744383 8.33654981
Al 12.3045968 10.2652392 9.86608275
Al 14.4086007 8.16385408 10.1585296
Al 13.9546465 10.1850705 7.67992474
Al 12.2032707 7.78954191 12.1874718
Al 11.8580308 9.96204971 14.1688437
Al 14.0308937 8.31157518 14.0988999
Al 13.9608388 10.2012464 11.9906221
Al 11.9496874 7.93288513 16.1701814
Al 11.9928722 10.4368013 18.2478254
Al 13.7746128 8.53552343 18.1388882
Al 13.8933411 10.1685361 15.9730486
Al 12.4657837 8.29085052 20.5859644
Al 12.4056119 10.2816631 22.5581183
Al 14.2376016 7.73773545 22.6985776
Al 14.2583941 10.0274894 20.4475233
Al 12.7206477 8.0722356 24.6804627
Al 12.2636503 10.4712492 26.8115006
Al 14.4721606 8.0409501 26.4132285
Al 14.3668436 10.1176425 24.5425029
Al 12.0060178 8.06970675 28.300898
Al 12.6839915 10.5202148 30.7982534
Al 14.3297369 8.19547425 30.5984238
Al 14.3556229 10.4453608 28.3074175
Al 12.3704132 12.2141554 0.200886163
Al 12.0413003 14.5265052 1.93830779
Al 14.3369359 12.4872316 1.77723688
Al 14.3906454 14.3682236 32.5849673
Al 12.1177172 12.3093621 3.76590524
Al 12.0083843 14.130814 5.77823301
Al 14.2534663 12.5178989 5.65153267
Al 14.2540998 14.3543636 3.86507356
Al 11.9962346 12.4496496 7.97487221
Al 12.2029635 14.257389 9.80090594
Al 14.0547579 12.2424007 9.9958632
Al 14.0337557 14.3488151 7.93423066
Al 11.8019179 13.0831314 12.0456809
Al 12.0986433 14.3298447 13.9638294
Al 13.8802831 12.1528254 13.9323878
Al 14.3107034 14.1491272 12.242081
Al 12.3162621 12.194043 16.0836516
Al 12.4509055 14.122508 18.2883339
Al 14.1295135 12.036176 18.3682569
Al 14.0692865 14.195863 16.0091
Al 12.1449182 11.9822667 20.5255717
Al 12.0684419 14.297193 22.6206947
Al 14.4783486 12.0670132 22.3643686
Al 14.324474 14.0188463 20.508648
Al 12.3249907 12.4889539 24.353461
Al 12.4360899 14.0537347 26.3238677
Al 14.4348654 12.3100768 26.3926976
Al 14.4529761 14.1047011 24.0692343
Al 12.0970803 12.4801327 28.5365988
Al 12.1940269 13.8337757 30.9237394
Al 14.6490021 12.3168083 30.6099959
Al 14.1343696 14.1920182 28.8891075
Al 12.206082 16.3107821 32.5885695
Al 12.048393 18.3591085 1.76659171
Al 14.4086363 16.3998845 1.76793559
Al 14.0242835 18.631633 32.4575239
Al 12.0244895 16.4669519 3.59288427
Al 12.3587033 18.2312537 5.98802434
Al 14.2156554 16.3113775 5.92774758
Al 13.9605412 18.1694055 3.85021285
Al 12.3675317 16.6254866 7.93863503
Al 12.4325012 18.2008101 10.3447258
Al 14.9273292 16.3145733 10.1711353
Al 14.6094096 18.2432076 8.25520929
Al 12.540676 16.234973 12.2688535
Al 12.5729373 18.7210654 14.4662693
Al 14.7188746 16.289397 14.0219545
Al 14.5739522 18.8181492 12.1151835
Al 12.6447056 16.4128947 16.0377406
Al 12.5609281 18.1510276 18.6744647
Al 14.2483346 16.2633913 18.2031211
Al 14.4830034 18.3326649 16.2838285
Al 12.137001 15.9678611 20.6038062
Al 12.2309385 18.4317927 22.2390737
Al 14.0543561 16.3966269 22.580012
Al 14.5023216 18.0951717 20.3468202
Al 12.2983048 16.2336621 24.6954455
Al 12.1989998 18.4693332 26.4388094
Al 14.4943329 16.443544 26.532441
Al 14.2309339 18.6664441 24.310026
Al 12.3798505 16.1725906 28.2759079
Al 12.6077322 18.3701291 30.3673804
Al 14.1556043 15.9594938 30.5713747
Al 14.4121597 18.4949669 28.2940284
Al 12.1719883 20.582595 32.6002354
Al 12.367894 22.4390373 2.01403349
Al 14.4039251 20.6182091 2.00622636
Al 14.4143432 22.6817947 32.3949212
Al 12.2883083 20.1586192 4.22122582
Al 12.5067814 22.3162888 6.12069256
Al 14.2654306 20.3674249 6.30131603
Al 14.3326016 22.4096787 4.02156324
Al 12.8916063 20.3722595 8.7385154
Al 12.5002523 22.5737463 10.6370404
Al 14.9871746 20.5544414 10.3752632
Al 14.7148422 22.5151113 8.25672277
Al 12.3757046 20.4425036 12.1269412
Al 12.570239 22.5646362 13.7141672
Al 14.6714259 20.6955514 14.11321
Al 14.9197013 22.980032 12.6687212
Al 12.3903571 20.7254991 16.2790127
Al 12.4998083 22.5966692 18.5995532
Al 14.414209 20.5403481 18.083016
Al 14.8978298 22.2905579 16.2771116
Al 12.3162593 20.5806212 20.1649404
Al 12.0091948 22.0290718 22.5323308
Al 14.1512911 20.5200724 22.4396299
Al 14.1131196 22.5377655 20.5347413
Al 12.1709091 20.2514278 24.647316
Al 12.3101509 22.217268 26.3963953
Al 14.6264001 20.5152839 26.6734222
Al 14.4151387 22.6733258 24.164381
Al 12.2432472 20.391997 28.6878835
Al 12.315123 22.7430728 30.5060067
Al 14.3746677 20.3824939 30.3708795
Al 14.4499305 22.569381 28.2931801
Al 12.2038043 24.3703707 32.5564852
Al 12.0239569 26.575599 2.0574877
Al 13.8440673 24.6143587 1.9291999
Al 14.6097191 26.7090946 32.5364803
Al 12.4447082 24.4764533 4.08471409
Al 12.4941268 26.3084987 6.25978531
Al 14.8052911 24.1158214 6.37145368
Al 14.1667469 26.2974031 4.23649158
Al 12.5039601 24.610225 8.44180748
Al 11.9257033 26.8393681 10.1058351
Al 14.7601731 24.5212238 10.4578186
Al 14.504191 26.6662487 8.25878349
Al 12.2837765 24.8193537 12.292027
Al 12.1865783 26.7452689 14.3217201
Al 14.2977099 24.8700543 14.5676001
Al 14.5766007 26.549921 12.522651
Al 12.2156765 24.5381809 16.2856216
Al 12.2564178 26.392331 18.6544762
Al 14.4119852 24.3772402 18.1369988
Al 14.3791714 26.7898404 16.8209366
Al 12.105683 24.4988774 20.7627932
Al 12.2580012 26.7951685 22.0823636
Al 14.0385843 24.6833406 22.4168745
Al 14.5993078 26.5392377 20.1505512
Al 12.0980811 24.764412 24.0459562
Al 12.294715 26.4112167 26.1255876
Al 14.5324391 24.3337189 26.5620565
Al 14.3171329 26.6627614 24.4181584
Al 12.6831938 24.6763635 28.4977889
Al 12.3287626 26.9699718 30.7816544
Al 14.4694156 24.6522748 30.6284651
Al 14.2931539 26.8148356 28.2847286
Al 12.2423307 28.8709969 32.6487297
Al 12.4274713 30.7623099 1.91180863
Al 14.0724504 28.4886011 2.14100416
Al 14.3016178 30.5506082 32.4380448
Al 12.396282 28.5757766 4.46791811
Al 12.4603776 30.7585413 6.26114259
Al 14.2250774 28.6065276 6.4777221
Al 14.1742884 30.8739451 4.23738412
Al 12.3138482 28.6320648 8.30058496
Al 11.906359 30.5488052 10.3768046
Al 14.6589388 28.4110807 10.4306674
Al 14.1438914 30.6552938 8.81439284
Al 12.3981835 28.6546822 12.1807992
Al 12.1361367 30.9981263 14.1906532
Al 14.1057889 29.0217918 14.0164099
Al 14.0456709 30.9167257 12.0055195
Al 12.449941 28.6093077 16.6634816
Al 12.1765152 30.4666561 18.3692021
Al 14.0202251 28.6553908 18.7629948
Al 14.1417485 30.654292 16.39525
Al 12.1288674 29.0352613 20.4046748
Al 12.0515876 30.7358997 22.9591055
Al 14.2877881 28.4244429 22.3035872
Al 14.399757 30.5751914 20.886341
Al 12.3418847 28.410663 24.1391422
Al 12.2374831 31.2131654 26.6980891
Al 14.543115 28.7177622 26.4442631
Al 13.9959913 31.0352006 24.7469084
Al 12.4071393 28.6662739 28.647559
Al 12.1962352 30.4059414 30.5558648
Al 14.5483685 28.5182423 30.3024956
Al 14.3767109 30.7588696 28.4688723
Al 16.1495958 32.6333206 0.0629769711
Al 16.2216649 2.06027854 1.96733128
Al 18.6113953 0.065775334 1.97420147
Al 18.2426201 2.03764477 32.3454096
Al 16.4039693 32.6279152 3.5874259
Al 16.175309 2.01509579 6.24141967
Al 18.4330412 0.227139664 6.36215527
Al 18.3660897 1.99942777 4.0727066
Al 16.7844469 0.21395423 8.40963605
Al 16.8319864 2.33502286 10.1691693
Al 18.5397264 0.102376611 10.5972918
Al 18.733481 2.27538341 8.14535527
Al 16.3051191 0.106179522 12.435846
Al 15.8279769 1.91834581 14.4345511
Al 18.2253058 0.18528173 14.3284919
Al 18.293053 2.37014035 12.6649664
Al 16.2605972 0.176969421 16.4343368
Al 16.2466553 2.48562435 18.2673454
Al 18.2305256 0.201352418 18.3671028
Al 18.0464956 1.91470965 16.011381
Al 16.0151396 0.17620656 20.665399
Al 16.0808877 2.29744616 22.3266183
Al 18.143986 32.5937285 22.2062469
Al 18.294788 2.08558359 20.5065432
Al 16.4409067 0.419045864 24.4065256
Al 16.3282048 1.89305759 26.6176019
Al 18.6105889 0.439062774 26.4777383
Al 18.2418456 2.08352184 24.3057032
Al 16.2609863 0.173243879 28.5040819
Al 16.2830832 1.9616566 30.4920142
Al 18.4899073 32.5602531 30.677294
Al 18.5585482 1.8008056 28.8122505
Al 16.3681686 3.7520896 32.5231723
Al 16.1451298 6.31295019 2.05992078
Al 18.257685 3.97349113 1.99878839
Al 17.8975362 6.05682312 32.538813
Al 16.063642 3.95511923 4.1123871
Al 16.1425689 5.82935005 6.12660331
Al 18.0500652 4.06950972 6.22275379
Al 18.3311899 5.93639604 3.98577128
Al 16.4516984 4.28260756 8.35316897
Al 16.2415972 6.2061923 9.8861825
Al 18.3974432 4.08075316 10.0318828
Al 18.6985763 6.26189539 8.27129171
Al 16.4640965 4.25988291 12.0581506
Al 16.521699 6.38415635 14.0381335
Al 17.9701087 4.32190198 14.5019934
Al 18.4453599 6.25857392 12.0490487
Al 16.1268936 3.94858722 16.3194842
Al 15.8604677 6.09137809 18.313549
Al 18.1120786 4.25923853 18.1447643
Al 18.0512763 6.27392525 16.4194679
Al 16.3587234 3.98839415 20.3889682
Al 16.3707329 6.18670965 22.1526257
Al 18.510216 4.2032067 22.3327111
Al 18.4975221 5.86605257 20.414991
Al 16.3119512 3.86634019 24.5569796
Al 16.2241186 6.07243524 26.664123
Al 18.491434 4.04098874 26.5421742
Al 17.9828621 6.0415641 24.7563627
Al 16.4741957 3.82817055 28.7045196
Al 16.3346418 5.98250669 30.5709673
Al 18.5059246 4.17805375 30.7402338
Al 18.2327703 5.95586656 28.313533
Al 16.3896315 8.13688826 0.181589215
Al 16.2621599 10.3016552 2.18239084
Al 18.4050208 8.4487032 2.30790283
Al 18.4260226 10.1238004 0.224879658
Al 16.0908128 8.18876586 4.14657115
Al 16.2205808 10.4177866 5.83827828
Al 18.3502996 8.01629406 5.83376266
Al 18.3359834 10.3512558 4.00876095
Al 16.5480621 8.21234069 8.13596569
Al 15.9157423 10.2705056 9.85384352
Al 19.1770592 8.36761869 9.89507179
Al 18.0645449 10.4716714 7.78567288
Al 16.4192513 8.26770594 12.0634023
Al 16.2707958 10.4861081 14.1556126
Al 18.1848337 8.57060206 14.3502577
Al 18.3814916 10.2646349 12.11519
Al 15.8303052 8.01246952 15.9685449
Al 16.3527249 9.69825771 18.0505314
Al 18.2901105 7.8988206 18.4468178
Al 18.2456746 10.5011244 16.2204374
Al 16.2917305 8.14607215 20.2557159
Al 16.1770353 10.0676631 22.350283
Al 18.0174035 8.18124479 22.4221956
Al 18.155828 10.105871 20.5348013
Al 16.1953441 8.24100443 24.2993353
Al 16.3809398 9.97130529 26.6318843
Al 18.4277788 8.09543279 26.1750191
Al 18.5269484 10.2708053 24.3817046
Al 16.0350105 8.06681755 28.6173387
Al 16.2313826 9.99219893 30.64631
Al 18.3055483 8.29328314 30.8260692
Al 18.375182 10.1644115 28.7379193
Al 16.1778865 12.0574991 0.0651913002
Al 16.516001 14.2453844 2.08254325
Al 18.2475579 12.2935322 1.98309114
Al 18.2111468 14.6074722 32.6606053
Al 16.3087838 12.6700552 3.94554009
Al 16.255942 14.4644852 5.87266534
Al 18.4531814 12.617704 5.87183208
Al 18.519491 14.4126336 4.13560467
Al 16.008336 12.4594841 7.92953698
Al 16.2330548 14.0720512 10.103268
Al 18.556831 12.1063311 9.83146223
Al 18.4543636 14.3318319 7.81189648
Al 16.1237401 11.9992071 11.9114413
Al 16.5612994 14.4814804 14.458083
Al 18.3841147 12.3891397 13.7691323
Al 18.4043886 14.0679567 11.5442371
Al 16.1193164 12.4162525 16.1609002
Al 16.0848126 14.1494154 18.1672994
Al 18.4973258 12.2420479 18.3891698
Al 18.6250915 14.3776234 16.4624308
Al 16.1819384 11.8656661 19.9282876
Al 16.5659996 14.3395054 22.4112422
Al 18.4486778 12.6067792 23.0040109
Al 18.4177479 14.102853 20.3211466
Al 16.3265984 12.1103366 24.3074736
Al 16.195265 14.0878279 26.4463939
Al 18.3447905 12.2500419 26.3365935
Al 18.2153854 14.7292196 24.5819322
Al 16.4375751 12.4357607 28.4103006
Al 16.4970537 14.283917 30.6825238
Al 18.2078556 12.3728473 30.7692257
Al 18.5972861 14.4198925 28.4395505
Al 16.3799766 16.4817967 32.4377573
Al 16.3539662 18.4177251 2.02031494
Al 18.5072845 16.4088947 1.91015041
Al 18.2858218 18.5620103 0.133881483
Al 16.1209328 16.3581533 3.82074133
Al 16.2103243 18.1669211 5.89385388
Al 18.1720601 16.4420708 6.15868131
Al 18.3041624 18.6412451 3.97220825
Al 16.3246821 15.9299266 8.11622488
Al 16.5206147 18.3872624 9.92698598
Al 18.4293941 16.44868 10.1186219
Al 18.5205416 18.4564288 7.92147289
Al 16.4445324 16.5401131 12.2010037
Al 16.7107246 18.8326976 14.2143469
Al 18.5746318 16.4707156 14.4215106
Al 18.5683357 18.2344833 11.9668092
Al 16.3771791 16.4042219 16.6253532
Al 16.4256953 18.2476211 18.6311688
Al 18.4958537 16.2047779 18.7554144
Al 18.2185105 18.1157894 16.2878377
Al 16.3581186 16.2823625 20.3352352
Al 16.1655007 18.5055458 22.2883114
Al 18.3460753 16.4480652 22.5761547
Al 18.6142782 18.2652654 20.824763
Al 16.0098848 16.4917433 24.3825627
Al 16.3343398 18.3795982 26.4268813
Al 18.3908596 16.6154964 26.4633172
Al 18.3834323 18.4873751 24.4849339
Al 16.1137799 16.0639556 28.5476733
Al 16.4070275 18.4374874 30.4121947
Al 18.6669426 16.6649469 30.6052177
Al 18.6593644 18.5403449 28.4554562
Al 16.1388931 20.3360818 32.3776621
Al 16.2770465 22.7752485 2.03240605
Al 18.0530769 20.9090894 2.28399032
Al 18.1929839 22.5312167 32.4752489
Al 16.0057233 20.1092628 3.92214351
Al 16.2938466 22.3424863 5.66258651
Al 18.1726047 20.4326207 6.07861126
Al 18.5378001 22.5586264 4.44903384
Al 16.6554436 20.5031901 8.34114372
Al 16.6499466 22.9810066 10.4486399
Al 18.4462874 20.2605941 10.2475229
Al 18.4175651 22.5147235 7.86775989
Al 16.8607646 20.6466126 12.4475615
Al 16.979929 22.5055667 14.7456283
Al 18.7060744 20.8543075 14.6373244
Al 18.9916343 22.5029276 12.3969488
Al 16.6640655 20.3622246 16.5097023
Al 16.361284 22.4197141 18.3433213
Al 18.6728305 20.0752998 18.2492539
Al 18.7825525 22.2302095 16.6752533
Al 16.692446 20.421313 20.3206928
Al 16.1700384 22.6794047 21.9957618
Al 18.4445181 20.3909501 22.4646319
Al 18.4489994 22.4244491 20.0072061
Al 16.2751727 20.6819274 24.4981459
Al 16.4178742 22.6076539 26.2738199
Al 18.3898288 20.669951 26.2224572
Al 18.4397594 22.7475563 24.506321
Al 16.6232144 20.491422 28.4034167
Al 16.3278995 22.1541043 30.3506096
Al 18.4460244 20.2409215 30.5809039
Al 18.5033741 22.5308677 28.3800998
Al 16.6594437 24.6208519 32.5494738
Al 16.0508224 26.3135755 2.21580872
Al 18.4245785 24.3876529 2.30373478
Al 18.3817903 26.546158 32.5226255
Al 16.4275263 24.3562855 3.91315855
Al 16.3788105 26.2472249 5.83926805
Al 18.4479935 24.4359136 6.14840024
Al 18.5845544 26.5443931 4.28748445
Al 16.7482653 24.7393987 8.47231459
Al 16.4156143 26.6414925 10.5983196
Al 18.8380624 24.8233758 10.8280244
Al 18.7332093 26.4208999 8.12503624
Al 16.7904676 24.4724703 12.5700587
Al 16.6136922 26.937236 14.4902561
Al 18.6974215 24.6299442 14.327506
Al 18.5825167 26.9076549 12.9149535
Al 16.3055266 24.8217905 16.2146646
Al 16.6576848 26.8455823 18.64907
Al 18.5416574 24.6806559 18.1007835
Al 18.600057 27.0616323 16.4188742
Al 16.5474741 24.3067381 20.1715726
Al 16.528993 26.7276155 22.4005516
Al 18.502587 24.4078928 22.2763778
Al 18.5548408 26.6557558 20.6262012
Al 16.5979284 24.8243446 24.4009067
Al 16.3634711 26.7480769 26.4997243
Al 18.4241444 24.7832163 26.5941889
Al 18.6348474 26.5423485 24.4385901
Al 16.7995198 24.4378944 28.3307216
Al 16.4966345 26.5201747 30.4081597
Al 18.3416583 24.2229686 30.5485295
Al 18.4868851 26.7274293 28.4584288
Al 16.4498694 28.5908339 32.2430756
Al 15.955407 30.5328869 1.84940217
Al 18.1566573 28.2564334 2.21984427
Al 18.2554388 30.8867283 32.5357572
Al 15.7898649 28.5137287 3.9220317
Al 16.4322948 30.3422145 6.69119813
Al 18.1888919 28.2913128 6.08700579
Al 18.280838 30.5807912 4.33687963
Al 16.5935357 28.4848342 8.44033163
Al 16.3692318 30.861305 10.6526817
Al 18.2820054 28.4524403 10.3573186
Al 18.2564887 30.798274 8.80971358
Al 16.5841544 28.8644353 12.3140984
Al 16.2978339 30.6142828 14.4891554
Al 18.636546 29.0583339 14.3862291
Al 18.4741367 30.828398 12.6375178
Al 16.4967415 28.8128576 16.489781
Al 16.0402135 30.2528519 18.53675
Al 18.4223086 29.0129201 18.3594026
Al 18.107913 30.7706924 16.6043304
Al 16.6144062 28.6454525 20.7427293
Al 16.0491937 30.6765365 22.7530106
Al 18.6195811 28.9268227 22.8055483
Al 18.1059864 30.7497444 20.3246215
Al 16.3378439 28.5351963 24.2354976
Al 16.0467849 30.7499346 25.9503216
Al 18.1685452 28.6469835 26.3864278
Al 18.4763255 30.845968 24.8293783
Al 16.2954526 28.8831391 28.2790137
Al 16.2352933 30.8247042 30.6224022
Al 18.595059 28.5081042 30.3107774
Al 18.0335604 30.9212822 28.0183082
Al 20.4437665 0.0331185188 0.176102247
Al 20.3355472 2.09806621 2.14462108
Al 22.4078117 0.392111801 2.40984479
Al 22.6798589 1.79200103 0.0342853818
Al 20.2862174 32.5537128 4.17378166
Al 20.7276029 2.31948175 6.05631196
Al 22.5468685 0.0895502956 6.00248367
Al 22.746144 2.2180274 4.07563243
Al 20.5464985 0.0399258358 7.9378127
Al 20.2842243 2.31789175 10.2764194
Al 22.0977546 32.6385002 10.0367081
Al 22.3816524 1.89943315 8.14948738
Al 20.2024755 0.111321966 12.5207378
Al 20.190539 2.27234321 14.6013734
Al 22.7380675 0.733652383 14.4980506
Al 22.2650097 1.86779352 12.1048078
Al 20.4096442 0.224034152 16.7725487
Al 20.0477444 2.27705816 18.399162
Al 22.562613 32.6602687 18.4241606
Al 22.3448306 2.32833173 16.7659724
Al 20.3524722 0.0881412207 20.3419179
Al 20.374656 1.79802508 22.2074391
Al 22.6232231 0.135853153 22.5140729
Al 22.4649534 2.10163197 20.6501482
Al 20.6680713 0.383672504 24.4404046
Al 20.4822689 2.34449081 26.5183524
Al 22.6098958 32.4417533 26.7653587
Al 22.6097695 2.41000917 24.3704388
Al 20.5794725 0.125200268 28.3063057
Al 20.8740406 2.076204 30.5470229
Al 22.5621097 32.5511922 30.9089857
Al 22.6725944 2.08419853 28.3793125
Al 20.872903 4.11477373 32.5877123
Al 20.0041546 5.74303922 1.74225233
Al 22.4877762 3.724163 2.14422183
Al 22.5681591 6.36557412 32.5796466
Al 20.3654825 4.11604048 3.99336989
Al 20.2820301 6.06576116 5.88237234
Al 22.3425165 4.48467498 5.9101164
Al 22.6459912 5.99079232 3.74710333
Al 20.709564 4.1728585 8.29290013
Al 20.6502128 5.97899307 10.3099956
Al 22.4402649 3.74760634 10.121967
Al 22.738549 5.81875903 8.23327228
Al 20.2397737 4.16587013 12.4768899
Al 20.2642463 6.30523783 14.3885534
Al 22.5380076 3.59613927 14.2762891
Al 22.3722658 5.74164783 12.3430806
Al 20.2764494 4.32284876 16.4716983
Al 20.4630154 6.23266207 18.3527569
Al 22.3861012 3.82687802 18.8085515
Al 22.4819216 6.34437081 16.3365037
Al 20.534516 4.11344799 20.4731957
Al 19.997524 6.3091516 22.6973665
Al 22.5331645 4.23727023 22.3063069
Al 22.4953111 6.25397011 20.4616755
Al 20.3305911 4.37507829 24.399758
Al 20.6307312 6.31079036 26.6198037
Al 22.7479969 4.22629979 26.3030698
Al 22.4101139 6.07402592 24.5108452
Al 20.4420774 4.1570629 28.6768853
Al 20.2929126 6.05670916 30.4905821
Al 22.3941834 4.48847207 30.3206673
Al 22.367539 6.45349686 28.6891242
Al 20.0777583 7.82077744 0.169531432
Al 20.2035466 10.1947538 2.09504693
Al 22.1172912 8.16808902 1.72466109
Al 22.200178 10.4060375 0.0322917204
Al 20.2982551 7.95126011 3.92615662
Al 20.3278511 10.2237666 5.75303398
Al 22.5579614 8.23483574 5.80668708
Al 22.453268 10.4449477 3.89713205
Al 20.7694684 8.26301116 7.76400176
Al 20.8352587 10.3456819 9.64929009
Al 22.1268748 8.0696862 10.342196
Al 22.7219231 10.8633413 7.62455211
Al 20.2719006 8.38729815 12.5657009
Al 20.2014339 10.6269082 14.0417275
Al 22.3178389 8.23776532 14.4309638
Al 22.3733801 10.0169223 12.0272997
Al 20.1791485 8.08593073 16.3535717
Al 20.1269809 9.99271124 18.377772
Al 22.6298051 8.32609289 18.3620877
Al 22.301886 10.1741186 16.4102154
Al 20.415874 8.58065142 20.5605725
Al 20.1312955 10.358985 22.4350616
Al 22.6026706 8.37258999 22.5253522
Al 22.4864028 10.2049714 20.2550396
Al 20.7783195 8.17564786 24.5388122
Al 20.4156183 10.2915657 26.4633778
Al 22.3523008 8.28628312 26.587422
Al 22.5265535 10.3523903 24.4974062
Al 20.1354432 8.17429326 28.326896
Al 20.3636141 10.2685969 30.8410683
Al 22.1648019 8.22283708 30.3205215
Al 22.0158818 10.2361916 28.6973261
Al 20.2131797 12.4763627 0.102019312
Al 20.5662288 14.2725933 1.83931173
Al 22.142293 12.2845632 1.9350541
Al 22.2969816 14.6287215 32.6424657
Al 20.3825281 12.4217044 4.10198824
Al 20.2758014 14.5359819 6.02444412
Al 22.5578185 12.6796995 5.55391663
Al 22.5532789 14.4380747 3.76502906
Al 20.3254578 12.2200743 7.8760325
Al 20.5116724 14.1669425 9.91825769
Al 22.7178071 12.3893922 10.0537624
Al 22.4299451 13.981858 8.03579095
Al 20.7598887 12.2018201 11.875949
Al 20.4710857 13.9332749 14.3103388
Al 22.4828505 12.218803 14.1837834
Al 22.2559691 14.2046485 11.9872739
Al 20.3351466 12.1720988 16.2630896
Al 20.2966501 14.1730882 18.6754345
Al 22.4060629 12.3842864 18.6251246
Al 22.3014427 14.143908 16.2919773
Al 20.2716174 12.1236373 20.3819451
Al 20.474611 14.3120447 22.6510199
Al 22.3949899 12.1126545 22.4616736
Al 22.4744928 14.4028993 20.6791448
Al 20.7156888 12.0542824 24.4630362
Al 20.2878844 13.9028177 26.4997592
Al 22.4963437 12.2812404 26.9376159
Al 22.3635309 14.0491228 24.3435153
Al 20.3628732 12.3605189 28.8688952
Al 20.2046036 14.5125446 30.8982821
Al 22.5034617 12.3254622 31.0843696
Al 22.4374561 14.2142596 28.8923608
Al 20.2636499 16.3161987 0.158962997
Al 20.2813129 18.4963505 1.86869588
Al 22.2880014 16.5273744 2.22668449
Al 22.3219242 18.4694832 0.101395128
Al 20.2528912 16.6120766 4.04830423
Al 20.4916664 18.4903315 5.88002124
Al 22.6559297 16.021351 5.86381713
Al 22.5645423 18.2537564 4.21099946
Al 20.2702048 16.6707695 7.97383003
Al 20.2991901 18.3310669 9.97293625
Al 22.3846603 16.2185473 9.8077376
Al 22.4769539 18.3993411 7.98695292
Al 20.2730113 15.9587555 12.3035547
Al 20.3695865 18.5688728 14.3941878
Al 22.3412226 16.3099167 14.0408207
Al 22.6904577 17.9091165 11.735628
Al 20.6649886 16.6413323 15.9969084
Al 20.4657345 18.0955145 18.3279277
Al 22.4687054 16.0480607 18.2179927
Al 22.5011292 18.2186903 16.3256366
Al 20.6742424 16.2689674 20.6224263
Al 20.6063038 18.0521132 22.39938
Al 22.6314874 16.4123501 22.6510516
Al 22.4965835 18.3066643 20.498076
Al 20.4250112 16.1382951 24.682062
Al 20.5258903 18.2314682 26.0875958
Al 22.811135 16.3624354 26.2635308
Al 22.7382475 18.1790289 24.2956885
Al 20.4994729 16.2360878 28.2782417
Al 20.6443821 18.6644766 30.7302382
Al 22.0970448 16.723465 30.4989503
Al 22.4709986 18.1037459 28.0335198
Al 20.0702442 20.6599437 0.208104451
Al 20.2774363 22.3912313 2.34076751
Al 22.3942923 20.3728589 2.09513621
Al 22.2305914 22.274383 0.0350213224
Al 20.480873 20.3681933 4.21621225
Al 20.5978885 22.5050119 6.19194611
Al 22.8974433 20.2818875 6.26543487
Al 22.7610262 22.2271163 4.1392288
Al 20.3096853 20.407371 7.77717337
Al 20.3987184 22.2704496 10.0636143
Al 22.2436609 20.2891673 9.81637366
Al 22.3904371 22.3092481 7.95844321
Al 20.8851784 19.9601009 12.0276249
Al 20.8613311 22.1437647 14.2137487
Al 22.4539067 20.3115641 14.3725117
Al 22.660638 21.9567752 11.8903768
Al 20.7551305 20.3473187 16.4154561
Al 20.7256064 22.5767873 18.6991491
Al 22.7809095 20.3697909 18.7211218
Al 22.5843578 22.3643933 16.5218415
Al 20.1410262 20.2981203 20.1342594
Al 20.5098325 22.5384482 22.8010577
Al 22.1825247 20.3668711 22.4075715
Al 22.7521603 22.5806927 20.3501624
Al 20.4159972 20.635861 24.5559506
Al 20.7477117 22.3975133 26.691825
Al 22.5741894 20.2662861 26.2063344
Al 22.7483861 22.6988263 24.5769789
Al 20.5274586 20.3463366 28.2700377
Al 20.3781321 22.2791075 30.6225073
Al 22.3461479 20.3963114 30.4996423
Al 22.3657567 22.4712721 28.6645688
Al 20.5284386 24.5382298 32.6305855
Al 20.4034849 26.6525943 2.10029731
Al 22.355319 24.1261017 2.05097654
Al 22.3247833 26.3207602 0.0506572543
Al 20.7555013 24.5416792 4.00413467
Al 20.6512727 26.5449364 6.02976569
Al 22.594509 24.2207308 6.04441738
Al 22.5775908 26.1944051 4.1891131
Al 20.3152556 24.4854421 7.71139169
Al 20.4524302 26.6850139 10.2377278
Al 22.2990869 24.2518692 10.0304168
Al 22.6155194 26.3122298 8.08084065
Al 20.7803788 24.6484823 12.2885835
Al 20.727667 26.6527934 14.5280436
Al 22.4869635 24.4178519 14.404362
Al 22.3123277 26.5208497 12.3222215
Al 20.5539538 24.4606339 16.2588624
Al 20.6442161 27.0205267 18.4885955
Al 22.42351 24.757419 18.3164898
Al 23.0220951 27.0341054 16.0477718
Al 20.6242834 24.5285659 20.423408
Al 20.230565 26.3842265 22.4739093
Al 22.6649873 24.1818082 22.3396441
Al 22.6460076 26.5661953 20.5856955
Al 20.4979398 24.5280684 24.5016707
Al 20.6314101 26.3491464 26.6985467
Al 22.8527293 24.5078101 26.5880518
Al 22.7162013 26.563163 24.6233221
Al 20.6946001 24.3792864 28.4552298
Al 20.4192292 26.304412 30.1995683
Al 22.5850782 24.3614008 31.0204977
Al 22.7717554 26.4007284 28.4753259
Al 20.3413336 28.6740054 32.624067
Al 20.4130479 30.6998986 1.86422293
Al 22.2739128 28.215509 2.01381569
Al 22.3587092 30.9203354 0.272457804
Al 20.113854 28.4939251 4.23546452
Al 20.0322943 30.426236 6.35674216
Al 22.5128841 28.2539571 6.4214519
Al 22.3054091 30.3233504 4.26620915
Al 20.4405762 28.4176413 8.1905397
Al 20.482305 30.4066581 10.5138165
Al 22.4448795 28.4489105 9.86975333
Al 22.2340252 30.6677518 7.8877273
Al 20.3485869 28.7499404 12.4136004
Al 20.4815594 31.0235718 14.4528304
Al 22.604369 28.9420719 14.2907374
Al 22.368075 30.9780269 12.499644
Al 20.7839419 28.8254156 16.3781607
Al 20.6345216 30.5272972 18.4786237
Al 22.7128385 28.3787401 18.7819682
Al 22.9426143 30.9410088 16.228067
Al 20.1764012 28.9138767 20.6406455
Al 20.4447841 31.2378735 22.6454349
Al 22.1505201 28.3997277 22.8028716
Al 22.3002079 30.6621672 20.6393476
Al 20.4937309 28.519662 24.6981915
Al 20.379873 30.9881699 26.2788279
Al 22.3630337 28.6477018 26.8219571
Al 22.3687432 30.5829595 24.4556705
Al 20.1277872 28.8558855 28.1182399
Al 20.537426 30.66543 30.4400828
Al 22.4317638 28.6691003 31.0324841
Al 22.5161704 30.5380741 28.5814792
Al 24.3304776 32.4929852 0.485769663
Al 24.8987582 1.94314514 1.61722214
Al 26.4292348 32.1766066 2.25300165
Al 26.7517182 2.20620248 32.4546878
Al 24.4680593 32.0836668 4.32306785
Al 24.5713309 1.82050921 6.19930079
Al 26.6604407 32.4213776 6.11222305
Al 26.1577195 2.02286781 3.95311543
Al 24.3529324 32.4338977 8.03404471
Al 24.3261152 1.82763861 10.0535871
Al 26.6152704 0.234478166 10.0239401
Al 26.7760777 1.95493034 8.05899998
Al 24.4065721 32.530337 12.2748146
Al 24.8155282 2.13163741 14.2511074
Al 26.4755686 0.13150394 14.4271758
Al 26.3950321 1.79748567 11.9731444
Al 24.3390425 0.593386321 16.5080456
Al 24.4156841 2.19717002 18.6803729
Al 26.3854099 0.120018488 18.3296594
Al 26.6653944 2.14262 16.5227413
Al 24.4516321 32.6612912 20.46503
Al 24.7947991 2.30260427 22.4765556
Al 26.7703252 0.0633046331 22.3302691
Al 26.6244344 2.45507317 20.152234
Al 24.5579296 32.5120202 24.5784664
Al 24.5052129 2.43998409 26.484562
Al 26.6491644 32.6181833 26.4819941
Al 26.6712895 1.9663608 24.4973335
Al 24.3873767 0.177314157 28.7112575
Al 24.1855223 2.11172843 30.6259634
Al 26.3048739 32.5675582 30.8006624
Al 26.4458506 2.00258626 28.4120814
Al 24.5603039 4.05151719 32.6306449
Al 24.4046537 6.10313323 1.88495609
Al 26.6025798 4.13165875 2.09700522
Al 26.5621285 6.03527545 0.0175132473
Al 24.5747163 4.17969394 3.74432523
Al 24.696383 6.40837968 6.2834495
Al 26.4121539 3.97364554 6.13046315
Al 26.2555468 6.05731712 4.03926402
Al 24.665832 3.69012116 8.24106234
Al 24.3897552 5.96762831 10.3974554
Al 26.5967667 4.08551404 10.3867673
Al 26.5992234 5.69474265 8.25376322
Al 24.4734563 3.97959117 12.1916627
Al 24.2416248 6.1556498 14.430175
Al 26.3543825 4.3843713 14.2908584
Al 26.3184017 5.98902186 12.2563314
Al 24.5516272 3.96370482 16.4279268
Al 24.4804001 6.27743567 18.63142
Al 26.5314126 4.76116364 18.6227306
Al 26.0263242 6.33155226 16.5964901
Al 24.6609036 4.1506495 20.3403336
Al 24.2048569 6.37046129 22.7330716
Al 26.4637377 4.15123835 22.6815513
Al 26.2500649 6.16048074 20.9419658
Al 24.7315767 4.33354507 24.5829644
Al 24.4026544 6.12266678 26.7035216
Al 26.6211971 4.15685006 26.7264567
Al 26.5467726 6.39981363 24.7432038
Al 24.1493178 4.1413079 28.5465122
Al 24.4863774 6.21888359 30.7746189
Al 26.4667137 3.96841121 30.6281178
Al 26.5689307 6.18511777 28.6422025
Al 24.5534164 8.16967503 0.0955674692
Al 24.3655499 9.99585192 1.96150671
Al 26.6076394 8.14387767 1.91471112
Al 26.7806414 10.0910498 0.171989948
Al 24.6304024 8.28464574 4.10315613
Al 24.7021347 10.3823022 6.16745345
Al 26.846253 8.15353855 5.9713611
Al 26.5576798 9.95502876 4.01286303
Al 24.1180446 8.17663499 8.24671402
Al 24.3306158 9.95852575 10.1553034
Al 26.1760657 8.05630663 10.2713814
Al 26.4933815 10.3912485 8.02417008
Al 24.4065623 8.05296707 12.3437967
Al 24.5193579 9.76029223 14.2619969
Al 26.4744663 7.80741898 14.5235043
Al 26.6688195 9.84801855 12.1386275
Al 24.3985163 8.3888049 16.4401538
Al 24.225806 10.1865809 18.5663393
Al 26.6016382 8.30490254 18.7736399
Al 26.2813267 10.3194912 16.1732116
Al 24.5477146 8.22255296 20.7592114
Al 24.4252328 10.4097979 22.3717212
Al 26.0191616 8.25020929 22.9019946
Al 26.4857392 10.5932729 20.478254
Al 24.5219685 8.73748436 25.100853
Al 24.4826252 10.370423 27.1214832
Al 26.395258 8.3651662 26.6866771
Al 26.5515255 10.6004079 24.3324183
Al 24.7901802 8.34340379 28.8614747
Al 24.6016804 9.98018153 30.6314585
Al 26.6348333 7.97154644 30.7645871
Al 26.7030988 10.1913689 28.7784005
Al 24.4801916 11.945751 0.315055318
Al 24.3477002 14.3380554 1.55961406
Al 26.8645334 12.0641261 2.22931492
Al 26.764147 13.9920754 32.5226969
Al 24.4798023 12.4890137 3.60341457
Al 24.6455898 14.1680938 5.67729811
Al 26.6237618 12.5588865 5.75306122
Al 26.5545074 14.4506047 3.66902869
Al 24.9441445 12.7000975 7.88630365
Al 24.5758584 14.1766057 10.0651264
Al 26.4108247 11.995855 10.7619707
Al 26.7966003 14.4042493 8.3131971
Al 24.2209583 11.7766677 12.3739136
Al 24.1729563 14.0779024 14.1228805
Al 26.3237121 12.2861914 13.963867
Al 26.1617144 14.2694665 12.2066396
Al 24.2055033 12.0382232 16.0690041
Al 24.412492 14.0136181 18.032503
Al 26.4512596 12.235613 18.2667013
Al 26.2822803 14.4421169 15.9717756
Al 24.5618509 12.5045361 20.5809476
Al 24.6383405 14.8113417 21.9680331
Al 26.4986658 12.9843965 22.7948548
Al 26.7575 14.255391 20.2467307
Al 24.4174867 12.49923 24.7550015
Al 24.1550498 14.2635557 26.7343188
Al 26.6881583 12.0759862 27.117439
Al 26.7534519 13.8666558 25.4512835
Al 24.6142765 12.2902105 28.8121814
Al 24.301839 14.2316525 30.7071307
Al 26.2140217 11.9533231 30.7927383
Al 26.3671406 14.3533318 29.0965774
Al 24.1756803 16.4959734 32.5141611
Al 24.6727506 18.5585867 1.62972855
Al 26.2984124 16.1121175 1.81165284
Al 26.4536037 18.2863132 32.5738707
Al 24.5655849 16.5165714 3.91149307
Al 24.7574325 18.120497 6.35424688
Al 26.4032938 15.885465 6.31118567
Al 26.5912058 18.3844713 3.619241
Al 24.2229285 15.9298535 8.02700477
Al 24.4869361 18.3653321 9.84537229
Al 26.3922545 16.3667555 10.2342107
Al 26.6696484 18.0814648 8.05343222
Al 24.3206101 15.981207 12.13703
Al 24.3301948 18.3134646 13.8224834
Al 26.2991022 16.2606871 14.0468559
Al 26.7711168 18.1779871 12.0535407
Al 24.1570056 16.3164865 16.2239857
Al 24.6862777 18.2963364 18.0643809
Al 26.3850547 15.94854 18.1042167
Al 26.2437816 18.3264908 16.0794452
Al 24.6145271 16.3137367 20.1128446
Al 24.7332013 18.2970914 22.5335931
Al 26.7537977 16.2650475 22.5206463
Al 26.6708755 18.4197121 20.248935
Al 24.8683423 15.4574853 24.6044257
Al 24.9141653 18.2246458 26.3264562
Al 26.5946616 15.9710051 26.8421318
Al 26.6377104 18.3756326 24.3701709
Al 24.738893 16.572003 28.7017866
Al 24.3617234 18.3149839 30.6068648
Al 26.2108831 16.3564767 30.7641122
Al 26.5438958 18.4543418 28.7030861
Al 24.1581168 20.4776836 32.4928944
Al 24.5661963 22.3340532 1.99340089
Al 26.4669545 20.4623305 1.73661963
Al 26.1148579 22.1807139 32.4915872
Al 24.6586079 20.1959261 3.83395229
Al 24.6000495 22.3531532 6.26539254
Al 26.3359456 20.0286569 6.06583133
Al 26.7308622 22.4987844 4.20664046
Al 24.5592007 20.4117065 8.10279042
Al 24.7407246 22.5442506 10.0325352
Al 26.4190778 20.2770358 9.97324397
Al 26.7347431 22.4216317 7.82925664
Al 24.3962332 20.3064842 11.913241
Al 24.4050744 22.5928745 14.1833718
Al 26.1165354 20.1765791 13.9410281
Al 26.6738004 22.2850808 12.2379782
Al 24.4566359 20.4297192 16.1639335
Al 24.6297686 22.5263894 18.2430308
Al 26.5949967 20.5116333 18.2449251
Al 26.5353306 22.3671649 16.2718526
Al 24.671326 20.2732434 20.5283333
Al 24.5430012 22.4440983 22.4809276
Al 26.5516351 20.2650118 22.2203738
Al 26.3858546 22.5404616 20.3366832
Al 24.7921076 20.3601122 24.550337
Al 24.7717435 22.3246427 26.5736895
Al 26.9198344 20.4703419 26.5294402
Al 26.4368303 22.3294136 24.3411827
Al 24.5008198 19.9991305 28.5007367
Al 24.6053841 22.3450617 30.4960492
Al 26.531988 20.2753293 30.4974105
Al 26.8917606 22.2172445 28.5302938
Al 24.6691184 24.4605924 32.467925
Al 24.4332954 26.2016323 1.70971813
Al 26.5260694 24.2730896 2.19769122
Al 26.6713534 26.4161949 0.179971665
Al 24.6841545 24.406097 4.14770623
Al 24.6942043 26.1426211 6.20439325
Al 26.9085978 24.5917337 6.41759844
Al 26.5695185 26.47606 4.15448097
Al 24.4129445 24.4268373 8.1394624
Al 24.3626486 26.4155933 10.3655423
Al 26.6127772 24.3424712 10.1543282
Al 26.4756057 26.49588 8.28614178
Al 24.0938366 24.2388481 12.1705188
Al 24.424473 26.181676 13.9462629
Al 26.635604 24.3578401 14.1993774
Al 26.4890916 26.2876812 12.0619881
Al 24.4248964 24.4794159 16.2628617
Al 24.957243 26.9001136 18.3268342
Al 26.3806771 24.4406589 18.2813237
Al 26.4102116 26.7875458 15.9947794
Al 24.6151852 24.5184798 20.6433596
Al 24.6516488 26.4270959 22.7056213
Al 26.5663164 24.6862168 22.5629723
Al 26.5901079 26.6341394 20.5135322
Al 24.5760389 24.4353841 24.5056197
Al 24.8947151 26.6192721 26.2038709
Al 26.4640968 24.2485493 26.4634017
Al 26.878131 26.4691754 24.5682828
Al 24.5090912 24.3518479 28.6556473
Al 24.753242 26.3419066 30.7653051
Al 26.8229118 24.3522887 30.832608
Al 26.271642 26.6120281 28.6630228
Al 24.6136291 28.5730918 32.5225316
Al 24.4877004 30.0798954 2.0859704
Al 26.4182701 28.1538906 2.22015405
Al 26.4812943 30.5519983 0.0440353101
Al 24.3833451 28.1152326 4.13294336
Al 24.5065006 30.4031175 6.43093797
Al 26.4313787 28.3697348 6.27688777
Al 26.3787752 30.1831081 4.25158327
Al 24.6175814 28.5340315 8.68741548
Al 24.2574698 30.5902093 10.2512736
Al 26.6570618 28.3102947 10.3601978
Al 26.3285717 30.6415082 8.30431505
Al 24.6742351 28.3636841 12.511987
Al 24.8836173 30.9361015 14.1569443
Al 26.687047 28.8871991 14.4158486
Al 26.6102981 30.632327 11.9254733
Al 24.808811 28.9773073 16.1340445
Al 24.5030435 30.5823041 18.4148187
Al 26.6858313 28.7239106 18.397578
Al 26.5851653 30.7139465 16.3467517
Al 24.5830894 28.4651566 20.5848007
Al 24.4598842 30.580401 22.4570115
Al 26.6301248 28.5596922 22.414819
Al 26.3515204 30.5447354 20.5400719
Al 24.6802839 28.5732629 24.4884703
Al 24.7890472 30.9580987 26.4271629
Al 26.3794941 28.5876181 26.6976738
Al 26.6171329 30.5815939 24.4732877
Al 24.1853825 28.6007212 28.8275579
Al 24.3345738 30.7055445 30.8314652
Al 26.2941317 28.7846982 30.4754859
Al 26.4825249 30.6843192 28.7272461
Al 28.5230076 32.6549313 32.6242332
Al 28.139914 1.72124332 1.97968479
Al 30.6352305 0.0569768527 2.16003816
Al 30.2318776 2.18856316 0.212750105
Al 28.5319764 32.3897293 3.86850874
Al 28.4779542 1.90066446 6.08431728
Al 30.6676861 32.3591612 6.29897053
Al 30.4307543 2.04754101 3.95673548
Al 28.5339195 32.5995424 8.0043924
Al 28.9369026 1.94607631 10.2611461
Al 30.3587318 32.4288683 10.005389
Al 30.7468071 2.16647712 8.07703161
Al 28.819396 32.0650384 12.1211878
Al 28.6461769 1.726401 13.8328373
Al 30.602523 32.3673912 14.4040594
Al 31.0947587 1.56939005 12.217212
Al 28.6755577 0.267307196 16.4743898
Al 28.6488245 2.41706639 18.4583636
Al 31.1056831 0.36880902 18.4400834
Al 30.7572803 2.10467575 16.2928998
Al 28.286667 0.0357452549 20.3397098
Al 28.5614355 2.21900418 22.2755772
Al 30.5156445 0.311625398 22.0922266
Al 30.5526509 2.18194514 20.4232208
Al 28.6750624 32.6480778 24.6553575
Al 28.8262675 2.02438156 26.4824628
Al 30.4689675 32.351458 26.5732712
Al 30.8652033 1.79198469 24.4577963
Al 28.5902831 32.4915688 28.5119204
Al 28.823377 1.56156399 30.5478061
Al 30.7089399 32.5119029 30.7067475
Al 30.4625322 1.52787897 28.494843
Al 28.6283349 4.31201252 32.6109141
Al 28.366127 6.38039647 2.11465305
Al 30.4902089 4.15279203 2.04473859
Al 31.0432768 6.41950031 0.103495337
Al 28.3132156 3.91727803 3.98413405
Al 28.648367 6.10980991 6.39042364
Al 30.4702931 4.09123152 6.08854848
Al 30.4128788 6.15093782 3.79834356
Al 28.6871878 3.75410859 8.15048927
Al 28.5589243 6.15350421 10.2658585
Al 30.2931573 4.12151412 10.360547
Al 30.4881979 6.41104066 8.18953697
Al 28.3646874 3.75509845 12.3801978
Al 28.6057243 6.01729946 14.0989163
Al 30.3362881 3.85233194 14.2519708
Al 30.622382 6.1316278 12.1556012
Al 27.8614381 4.33986042 16.2082885
Al 28.5629963 6.52189006 18.4533549
Al 30.5321084 4.24066432 18.3993211
Al 30.1622451 6.2354162 16.3472683
Al 28.4566193 4.27692036 20.8463938
Al 28.3393275 6.29510172 22.4314015
Al 30.5638374 4.06635529 22.3902007
Al 30.6023381 5.84633243 20.6087872
Al 28.6261891 3.94025461 24.509865
Al 28.6392505 6.0947658 26.4673657
Al 30.6417393 4.00928475 27.112826
Al 30.4326625 6.19903074 24.4800709
Al 28.4354313 4.34009959 28.5703279
Al 28.674633 6.32874179 30.6920008
Al 30.4501315 3.98407789 30.6140603
Al 30.6512395 6.18435531 28.8951467
Al 28.6437822 7.94303151 0.0414386579
Al 28.7251341 10.5065608 2.09587524
Al 30.688234 8.34362518 2.27051103
Al 30.504024 10.2337502 0.0614140406
Al 28.5164045 8.3661737 4.07473775
Al 28.5105181 10.2209106 6.25762444
Al 30.5272944 8.48047367 5.99414934
Al 30.6481149 10.3710662 4.09783134
Al 28.5197228 8.33275805 8.13869914
Al 28.4862017 10.1563355 10.2977202
Al 30.4180751 8.25770495 10.4455769
Al 30.4988339 10.440566 8.12897034
Al 28.3415102 8.2165048 12.2920028
Al 28.5642646 10.2318267 14.7292796
Al 30.3273373 8.12752883 14.3013832
Al 30.4757588 10.3044683 12.4270239
Al 28.2837224 8.23742134 16.5202478
Al 28.4526477 10.1994677 18.687154
Al 30.6339178 8.15855529 18.2616223
Al 30.5229243 10.3145141 16.4813965
Al 28.8571502 8.14235655 20.6192392
Al 28.6823937 10.1313732 22.4880547
Al 30.5692161 8.2743663 22.7295752
Al 30.5600752 10.5033424 20.7159572
Al 28.275717 8.49349701 24.4646575
Al 28.50086 10.074584 26.4996751
Al 30.5363205 8.10703675 26.7717
Al 30.6440811 10.1726619 24.6265635
Al 28.4558147 8.05451426 28.6194279
Al 28.5446229 10.256392 30.8107682
Al 30.6878208 8.30981659 30.9471167
Al 30.3144608 9.91467262 28.8084278
Al 28.6745189 12.273485 32.5541559
Al 28.4969786 14.329373 1.96057253
Al 30.6862294 12.3183693 1.86572557
Al 30.5283289 14.2236607 32.5636531
Al 28.9337071 12.4680302 4.16581649
Al 28.7177202 14.1712459 6.0559218
Al 30.6483895 12.418872 6.06951233
Al 30.7648177 14.611385 4.11540743
Al 28.508636 12.4353903 8.17919395
Al 28.6330838 14.4817495 10.5244769
Al 30.2599837 12.3768927 10.0476308
Al 31.1037702 14.4613445 8.02949455
Al 28.2879308 12.3722678 12.3135009
Al 28.413746 14.0844782 14.1561201
Al 30.4115488 12.2214331 14.389736
Al 30.4730807 13.7844631 12.3124732
Al 28.7597784 12.2560026 16.5443393
Al 28.8423038 14.3598886 18.4110311
Al 30.6612595 12.5353599 18.7995794
Al 30.6905127 14.37516 16.4056294
Al 28.5189494 12.3185111 20.907311
Al 28.7216226 14.5676851 22.3742657
Al 30.5506183 12.4789154 22.5633397
Al 30.6255235 14.6235559 20.571893
Al 28.5161273 12.4373986 24.4891003
Al 28.8604863 14.4256376 26.9173152
Al 30.5143114 11.9678563 26.622131
Al 30.5805568 14.3463926 24.6878039
Al 28.8258417 12.2783871 28.7109701
Al 28.5054392 13.993131 30.5323776
Al 30.9112892 12.2904446 30.707595
Al 30.8122223 14.4188081 28.7463154
Al 28.6038392 16.2779589 0.0565196928
Al 28.5961816 18.492235 1.99270525
Al 30.8541508 16.3197631 1.85043456
Al 30.4670554 18.0571898 32.2259296
Al 28.4921646 16.3121429 3.98095876
Al 28.3350166 18.1237347 5.92136137
Al 30.9533822 16.5509488 5.97372541
Al 30.6303542 18.3412452 3.98601682
Al 28.8919015 16.1012911 8.15071734
Al 29.033444 18.2594936 10.1248441
Al 30.8228021 16.1191505 10.4159541
Al 30.6054201 18.5192033 8.03403662
Al 28.9383715 16.2903668 12.2215417
Al 28.5936844 18.3870376 14.275957
Al 30.5013696 16.1449145 14.369532
Al 30.5081822 18.5099418 12.4231912
Al 28.3656701 16.3351363 16.2787222
Al 28.4683363 18.2794327 18.164574
Al 30.9401006 16.69448 18.3531907
Al 30.6593686 18.7688536 16.4714182
Al 28.5037593 16.4873444 20.1927672
Al 28.6939022 18.7969316 22.2603478
Al 30.6132166 16.3117189 22.6575945
Al 31.119625 18.3752126 20.3385705
Al 28.3202589 15.919807 24.8029158
Al 28.7339166 18.1616612 26.7422894
Al 30.9145255 16.1006624 26.7270211
Al 30.4204074 18.2017021 24.8207154
Al 28.3441676 16.3881301 28.9614298
Al 28.3046935 18.397901 30.6788955
Al 30.2918783 16.0662616 30.5823792
Al 30.6762454 17.9660448 28.8671957
Al 28.5654206 20.4905473 32.384148
Al 28.1189531 22.3314861 2.01983724
Al 30.5538562 20.2380314 2.07122261
Al 30.9945127 22.4608154 32.5326099
Al 28.6258447 20.5182084 4.00821127
Al 28.6558181 22.4305761 6.05547279
Al 30.5204515 20.2934234 6.03252514
Al 30.1929896 22.5073776 4.01141889
Al 28.5292419 20.2321662 7.77626415
Al 28.2443915 22.3117953 10.2263508
Al 30.3890551 20.4834799 10.3889554
Al 30.5775394 22.1082444 8.33065133
Al 28.5815373 20.1982786 12.2651937
Al 28.4195189 22.65648 13.965723
Al 30.9519565 20.5333328 14.0719509
Al 30.72935 22.5728869 12.1881342
Al 28.8864721 20.9909295 15.7036602
Al 28.4323659 22.3794868 18.1800036
Al 30.3687567 20.3717483 18.2789101
Al 30.8215677 22.6923378 16.2675196
Al 28.8933068 20.7342937 20.4500368
Al 28.9028752 22.7005854 22.2822903
Al 30.909223 20.4330263 22.3847085
Al 30.8834802 22.4642456 20.3905996
Al 28.9357909 20.3740098 24.4749411
Al 28.586624 22.299802 26.6442679
Al 30.8172235 20.2327596 26.6567511
Al 30.9929692 22.0157985 24.5272188
Al 28.6006055 20.2127727 28.6812552
Al 28.8683533 22.4683347 30.6860761
Al 30.7137288 20.5859548 30.543785
Al 30.4253671 22.292704 28.7443874
Al 28.7914876 24.4114648 0.0571887659
Al 28.5148064 26.3171973 2.00994703
Al 30.6544085 24.3576351 1.98801297
Al 30.3054758 26.8031754 0.0745167771
Al 28.8052095 24.719282 4.41987906
Al 28.8351515 26.6879034 6.46200694
Al 30.4202525 24.4953224 6.4876372
Al 30.4005248 26.7220532 4.04086584
Al 28.5945854 24.4478675 8.36306396
Al 28.7498422 26.5094886 9.99496467
Al 30.6480433 24.4693699 10.2588764
Al 30.8619971 26.5965945 8.32119893
Al 28.4905708 24.4259225 11.9565082
Al 28.4580139 26.9149393 14.242254
Al 30.8992037 24.4280496 14.1343704
Al 30.4077745 26.6697342 12.2972682
Al 28.5086026 24.5669553 15.9667567
Al 28.6087677 26.5320136 18.3405822
Al 30.229271 24.3180706 18.4839157
Al 30.6190319 26.1612961 16.178417
Al 28.1232528 24.382005 20.6609194
Al 28.9403954 26.2086801 22.7980006
Al 30.7045919 24.3791644 22.7649077
Al 30.4782236 26.2742204 20.3319454
Al 28.6002033 24.2992577 24.7819403
Al 28.2044818 26.5882683 26.6399601
Al 30.5997153 24.3450548 26.5808922
Al 30.5477206 26.4796512 24.7988939
Al 28.5932982 24.1918292 28.5388997
Al 28.5140733 26.5972939 30.4596593
Al 30.6352864 24.5665463 30.6250748
Al 30.5016616 26.5197118 28.7504553
Al 28.2117839 28.3383918 32.5186987
Al 28.5021149 30.4709162 1.94624375
Al 30.413729 28.448847 2.06971633
Al 30.7330905 30.4787536 0.154214897
Al 28.5205977 28.6110797 4.22427834
Al 28.7518379 30.535193 6.23559886
Al 31.0361025 28.3113938 5.98899307
Al 30.7519063 30.3639319 4.43375798
Al 28.5128641 28.4778728 8.16620816
Al 28.5888125 30.2487566 10.1004589
Al 30.8007382 28.5785961 9.91861629
Al 30.8980654 30.3832186 7.98702698
Al 28.1834605 28.5861629 12.2729643
Al 28.9938596 30.3225794 14.3501146
Al 31.1924287 28.1412539 14.2528439
Al 30.6402556 29.8883883 12.2316021
Al 28.4638559 28.4775794 16.4402316
Al 28.6128883 30.5361156 18.524486
Al 30.6062502 28.5656006 18.6380067
Al 30.5528778 30.4209936 16.2842166
Al 28.662183 28.481274 20.7814205
Al 28.6358152 30.6129579 22.5994067
Al 30.737912 28.8925312 22.7099953
Al 30.5466579 30.9496564 20.2669305
Al 28.697299 28.6217815 24.5853079
Al 28.2421309 30.4923195 26.4626128
Al 30.8414026 28.7450583 26.6104047
Al 30.7295823 30.9928675 24.43019
Al 28.5990174 28.6756968 28.5903737
Al 28.4713043 30.4507054 30.4928738
Al 30.6614585 28.6414974 30.626825
Al 30.629824 30.7547914 28.6075613
