frame 0 of H_solid_920/prod.xyz

2048 atoms
1 atom types

0 32.66526620 xlo xhi
0 32.66526620 ylo yhi
0 32.66526620 zlo zhi

Masses

1 26.982

Atoms # atomic

1 1 32.656282 32.610337 0.328513
2 1 32.634275 2.132474 2.030754
3 1 2.150157 32.605804 2.062485
4 1 2.065488 2.510372 32.528520
5 1 32.479717 0.140842 4.121555
6 1 32.490785 2.088240 5.867670
7 1 2.308613 32.598730 6.070366
8 1 2.127755 1.846982 4.173311
9 1 0.192883 32.453828 8.082123
10 1 32.393604 1.767832 9.979152
11 1 1.881875 0.089878 10.283482
12 1 1.632425 2.180182 8.276959
13 1 0.136287 32.076608 12.035526
14 1 32.473263 2.015786 14.188394
15 1 1.693629 0.051260 14.327796
16 1 2.196190 2.260595 12.406577
17 1 0.042641 32.632763 16.232878
18 1 0.019864 2.308079 18.078781
19 1 1.783555 32.567937 18.500485
20 1 1.914907 2.365475 15.917378
21 1 32.446452 0.522926 20.664967
22 1 32.362002 2.211462 22.497846
23 1 2.064113 0.189336 22.354616
24 1 1.687755 2.058227 20.173403
25 1 0.271340 0.013029 24.713660
26 1 32.579274 2.000879 26.670727
27 1 2.308440 0.088939 26.444681
28 1 2.131223 2.069884 24.485586
29 1 0.232460 0.084358 28.164889
30 1 32.360019 1.913472 30.412140
31 1 1.888294 0.261037 30.829676
32 1 1.951656 1.837607 28.481469
33 1 32.362778 4.146526 0.003712
34 1 32.656551 6.397615 2.155161
35 1 1.955621 4.317427 2.060898
36 1 2.044691 6.077033 32.567857
37 1 0.161154 4.587107 4.131514
38 1 0.058147 6.618221 6.450884
39 1 2.037701 4.193117 6.199469
40 1 2.044614 6.403056 4.365964
41 1 32.538022 4.421827 8.060722
42 1 32.520836 6.342671 10.365587
43 1 2.056411 3.925682 10.230860
44 1 1.765848 6.014539 8.425822
45 1 32.408297 3.911628 11.838668
46 1 32.480744 5.909961 14.146614
47 1 2.236533 4.410155 14.191496
48 1 1.970077 5.752184 11.963827
49 1 32.347588 4.373187 16.200733
50 1 32.335887 6.220144 18.592922
51 1 1.689968 4.278945 18.347114
52 1 2.104302 6.271112 16.355664
53 1 32.515270 3.842243 20.096321
54 1 32.535833 6.394842 22.663951
55 1 1.752117 4.334720 22.302869
56 1 1.867755 6.292982 20.618020
57 1 0.013610 4.261852 24.153674
58 1 0.371271 5.992684 26.486893
59 1 2.401889 4.110485 26.145015
60 1 2.011863 6.218076 24.318486
61 1 32.600519 3.992315 28.524719
62 1 0.149626 6.273550 30.842198
63 1 1.917671 3.904328 30.536433
64 1 2.330154 5.956668 28.526729
65 1 0.223713 8.565492 0.127272
66 1 0.266818 10.327462 2.305148
67 1 2.000185 8.218330 2.158333
68 1 2.385748 10.187355 0.136436
69 1 32.503734 8.299028 4.235859
70 1 32.640153 10.070902 6.261988
71 1 2.220367 8.181701 6.546144
72 1 2.036143 10.452299 4.330994
73 1 32.310815 8.206616 8.462213
74 1 32.416438 10.233764 10.503138
75 1 1.992255 8.352090 10.385348
76 1 2.001325 10.270907 8.316231
77 1 32.409035 8.241210 12.444200
78 1 32.289859 10.443655 14.452689
79 1 1.942421 8.447363 14.171690
80 1 1.553425 10.245010 12.176731
81 1 32.487209 8.016223 16.416178
82 1 32.231710 10.368539 18.550519
83 1 1.736977 8.099987 18.611584
84 1 1.535946 10.178627 16.508742
85 1 32.074630 8.203025 20.513036
86 1 32.654737 10.608038 22.660996
87 1 1.667258 8.375968 22.550159
88 1 1.746315 10.150058 20.440192
89 1 32.527792 8.119585 24.778459
90 1 32.467529 10.202886 26.644964
91 1 2.217422 8.104841 26.271850
92 1 1.922457 10.087599 24.575418
93 1 32.518624 8.286907 28.382644
94 1 32.571342 10.228621 30.289849
95 1 1.975674 8.150471 30.435788
96 1 2.123465 10.006701 28.384020
97 1 32.637616 12.027110 32.664164
98 1 0.092489 14.151205 1.968932
99 1 1.910729 12.262200 2.032145
100 1 2.230163 14.059264 0.182165
101 1 0.065056 12.371382 4.090344
102 1 0.050900 14.374979 5.963230
103 1 1.693686 12.289614 6.309235
104 1 1.920131 14.397926 4.260786
105 1 32.464038 12.113300 8.346245
106 1 32.587496 14.165446 10.478577
107 1 1.747818 12.240905 10.196162
108 1 1.587940 14.406444 8.234564
109 1 32.645927 12.261456 12.427075
110 1 0.058170 14.267656 14.463091
111 1 1.793180 12.156133 14.339486
112 1 2.243777 13.975394 12.201703
113 1 0.076168 12.422540 16.340127
114 1 0.078341 14.721984 18.144440
115 1 1.582584 12.414414 18.721183
116 1 2.042449 14.625653 16.400382
117 1 32.602832 12.301309 20.658439
118 1 0.144649 14.288852 22.548255
119 1 1.949315 12.304395 22.345372
120 1 2.349702 14.509208 20.667393
121 1 32.406283 12.371520 24.529346
122 1 32.534070 13.932591 26.884353
123 1 1.931742 12.318677 26.418639
124 1 1.791236 14.169206 24.698883
125 1 32.646771 12.031560 28.580177
126 1 0.031673 14.305542 30.780353
127 1 2.125430 12.015744 30.539957
128 1 2.344605 14.192120 28.914320
129 1 0.134197 16.158940 0.180468
130 1 32.384441 18.336422 2.131573
131 1 1.865290 16.192474 2.196617
132 1 1.773385 18.133513 0.369528
133 1 32.622901 16.435332 4.134052
134 1 0.302415 18.468127 6.072887
135 1 2.149542 16.595975 5.927719
136 1 1.792375 18.391423 3.804904
137 1 0.166753 16.581624 8.349885
138 1 0.078472 18.194035 10.483982
139 1 2.055238 16.220936 10.683995
140 1 2.212178 18.663395 8.245701
141 1 32.636361 16.284361 12.355606
142 1 32.576669 18.558008 14.104930
143 1 2.102078 16.394525 14.196079
144 1 2.244586 18.480473 12.085301
145 1 32.480646 16.549118 16.085344
146 1 0.304018 18.380162 18.205975
147 1 2.131283 16.615795 18.276591
148 1 2.156133 18.422077 16.155580
149 1 0.293159 16.243505 20.608568
150 1 0.128777 18.411752 22.959694
151 1 2.139704 16.416795 22.536855
152 1 1.769627 18.324257 20.515697
153 1 0.038404 16.216063 24.755724
154 1 0.245119 18.293478 26.789547
155 1 2.091324 16.273679 26.639109
156 1 2.268208 18.278354 25.017805
157 1 0.281760 15.912305 28.720807
158 1 0.329671 18.192721 30.631405
159 1 2.227325 16.271974 31.113330
160 1 2.393241 17.955532 28.528726
161 1 32.594303 20.314996 0.013207
162 1 32.655467 22.131416 2.086385
163 1 1.963099 20.324151 2.284564
164 1 1.560126 22.619497 0.207616
165 1 32.459368 20.525732 4.355853
166 1 32.439008 22.394822 6.293003
167 1 2.098482 20.434769 6.061822
168 1 2.047226 22.212996 4.103361
169 1 0.128835 20.277035 8.633689
170 1 0.171111 22.392422 10.235277
171 1 2.133839 20.518344 10.143261
172 1 2.346717 22.192738 8.116490
173 1 32.524301 20.562197 11.736636
174 1 0.282047 22.242683 14.072736
175 1 2.122586 20.468772 14.294430
176 1 2.131274 22.356054 11.993582
177 1 0.211923 20.711752 16.620566
178 1 32.578429 22.958513 18.447973
179 1 2.494915 20.035699 18.132049
180 1 2.184245 22.364400 16.344281
181 1 0.224538 20.561942 19.722274
182 1 0.261159 22.598941 22.558009
183 1 2.256981 20.491363 22.682438
184 1 1.906321 22.567364 20.341195
185 1 0.312803 20.226126 24.885049
186 1 32.360961 22.315112 26.697574
187 1 2.248429 20.222168 26.790854
188 1 2.119134 22.356059 24.765334
189 1 0.191054 20.477467 28.609679
190 1 0.117968 22.854626 30.534965
191 1 1.693160 20.643897 30.615113
192 1 2.103989 22.444669 28.311563
193 1 32.636577 24.605686 0.048583
194 1 32.585592 26.501695 2.263491
195 1 1.879490 24.445832 2.307068
196 1 1.624188 26.774923 0.371275
197 1 32.584800 24.244560 3.808353
198 1 0.130698 26.165845 5.971095
199 1 2.290240 24.366742 5.815199
200 1 2.075770 26.534875 3.930050
201 1 0.010869 24.236744 8.197058
202 1 32.648952 26.621614 10.416753
203 1 2.220637 24.507499 10.260721
204 1 1.795497 26.339913 8.003909
205 1 0.338438 24.595935 12.293440
206 1 0.174852 26.319945 14.055884
207 1 2.250087 24.111509 14.062918
208 1 2.201194 26.581709 12.228465
209 1 0.338103 24.251942 16.159453
210 1 32.529818 26.376164 18.191419
211 1 2.283799 24.276733 18.023516
212 1 2.485291 26.719723 16.180599
213 1 32.509931 24.468678 20.442148
214 1 0.008506 26.616803 22.212839
215 1 2.035622 24.517392 22.834317
216 1 1.813997 26.258882 20.279649
217 1 32.580637 24.416196 24.659505
218 1 32.486885 26.421556 26.454677
219 1 2.029342 24.917173 26.178826
220 1 2.167723 26.860858 24.244218
221 1 32.499152 24.612460 28.616836
222 1 32.506624 26.521587 30.886029
223 1 2.406633 24.415356 30.578955
224 1 1.841388 26.280386 28.260354
225 1 32.536092 28.745329 0.121121
226 1 0.045375 30.696439 2.127556
227 1 2.221480 28.575666 2.009273
228 1 2.236508 30.506194 0.164229
229 1 0.192773 28.413513 3.983110
230 1 0.153159 30.593326 6.194138
231 1 2.280098 28.452592 6.076374
232 1 2.054695 30.765835 3.921668
233 1 0.419563 28.424766 8.213609
234 1 0.318753 30.428260 9.886725
235 1 2.180503 28.258898 10.080003
236 1 2.331203 30.648812 8.050884
237 1 0.174404 28.480184 12.177961
238 1 0.011920 30.277652 14.001696
239 1 2.247945 28.437007 14.288252
240 1 2.315094 30.528657 11.842111
241 1 0.142052 28.253286 16.228189
242 1 32.549916 30.382747 18.119462
243 1 1.931945 28.655266 18.526845
244 1 2.038676 30.558555 16.249669
245 1 0.044829 28.656905 20.667007
246 1 32.479829 31.004590 22.290515
247 1 1.929634 29.074491 22.676428
248 1 1.881513 30.869322 20.643204
249 1 0.171516 28.770760 24.790804
250 1 0.150983 30.632802 26.721745
251 1 2.006220 28.364150 26.550924
252 1 2.110332 30.730494 24.440691
253 1 32.502321 28.024686 28.752585
254 1 32.663717 30.921376 30.400299
255 1 1.639525 28.754283 30.867534
256 1 2.206772 30.209128 28.430947
257 1 4.081087 32.584834 32.564648
258 1 4.007483 2.025067 1.735350
259 1 6.213806 32.583616 1.903482
260 1 5.842940 2.443332 0.170629
261 1 4.188838 32.532673 3.928988
262 1 4.352341 1.900524 5.998210
263 1 6.212632 32.145806 5.775292
264 1 6.259754 1.844111 4.099153
265 1 4.179078 32.410752 7.951032
266 1 3.853332 1.944077 10.123610
267 1 6.158516 32.586196 9.866265
268 1 5.805721 2.076003 8.206395
269 1 4.253854 0.306611 12.234373
270 1 3.964857 1.685409 14.330119
271 1 6.193836 0.218791 14.257110
272 1 5.857182 2.189064 12.624629
273 1 3.554025 0.156830 16.597223
274 1 3.509647 2.258826 18.443950
275 1 6.101527 0.268883 18.464302
276 1 5.555188 2.036105 16.692111
277 1 4.126014 0.166039 20.230773
278 1 4.013159 1.925048 22.452676
279 1 5.787002 0.096221 22.339342
280 1 6.063405 1.844416 20.614504
281 1 4.405754 32.335785 24.512114
282 1 4.292569 1.784686 26.516965
283 1 6.108105 32.595570 27.043637
284 1 6.205649 1.919916 24.584417
285 1 3.670517 32.280409 28.590444
286 1 3.872781 1.847711 30.608337
287 1 6.122979 32.660010 30.464498
288 1 5.759685 2.309520 28.752176
289 1 3.984485 4.170787 0.054627
290 1 4.177281 6.124168 2.446403
291 1 6.214227 4.102427 2.620210
292 1 5.860665 6.201651 0.248921
293 1 4.031311 4.049440 4.383082
294 1 4.232463 6.258267 6.295284
295 1 5.989892 4.045166 6.239737
296 1 5.998302 6.176413 4.312680
297 1 3.955977 4.143674 8.218318
298 1 4.209469 6.181980 10.351024
299 1 6.576720 3.995328 10.278598
300 1 6.297158 6.138538 8.230982
301 1 4.073578 4.142253 12.198528
302 1 3.748180 6.714935 14.027103
303 1 5.981428 4.229533 14.397644
304 1 6.202247 6.435638 12.411728
305 1 3.859139 4.228480 16.291722
306 1 3.904692 6.091363 18.235465
307 1 5.630207 4.029121 18.555626
308 1 5.969954 6.200718 16.274922
309 1 3.647861 4.320556 20.351932
310 1 4.037861 6.178081 22.521563
311 1 5.965240 3.967972 22.316159
312 1 5.624678 6.065290 20.322792
313 1 4.245551 4.013860 24.526702
314 1 4.133231 6.295572 26.439792
315 1 5.982356 3.953472 26.589960
316 1 6.019206 6.280597 24.499544
317 1 3.709413 3.901539 28.442314
318 1 4.043158 6.111782 30.750977
319 1 5.645168 4.192645 30.621859
320 1 6.262386 6.352746 28.551312
321 1 4.185617 8.231735 0.382882
322 1 4.028927 9.729990 2.311459
323 1 6.057592 7.892064 2.313887
324 1 6.203118 10.210128 32.618557
325 1 3.918299 8.179113 4.244592
326 1 3.821072 10.505351 6.597909
327 1 6.420791 8.330702 6.242437
328 1 5.917393 10.151499 4.267229
329 1 4.378587 7.824651 8.254269
330 1 4.073325 10.238144 10.034814
331 1 5.984872 8.202929 10.365318
332 1 6.242010 10.150434 7.954392
333 1 4.189952 8.766972 12.201719
334 1 3.822277 10.382508 14.915275
335 1 6.029358 8.251570 14.252223
336 1 6.241881 10.510633 12.700487
337 1 4.255780 8.099474 16.251430
338 1 3.681566 9.963361 18.095931
339 1 6.149016 8.195684 18.710812
340 1 6.160653 10.107931 16.588437
341 1 4.031362 8.446466 20.682296
342 1 3.967086 10.272018 22.682837
343 1 6.269010 7.933814 22.456263
344 1 5.901185 10.354825 20.033559
345 1 4.266394 8.260747 24.358857
346 1 4.101393 10.325063 26.576478
347 1 6.152479 8.110756 26.493201
348 1 6.208325 10.084649 24.246301
349 1 4.198173 7.922396 28.790410
350 1 4.005827 9.957577 30.750806
351 1 5.892579 7.955815 30.867975
352 1 6.049038 9.936780 28.584944
353 1 4.144947 12.073390 0.150763
354 1 3.888423 13.786081 2.252240
355 1 6.156384 12.187834 2.044805
356 1 5.813901 14.124754 0.031734
357 1 4.016076 12.090180 4.273078
358 1 3.863227 14.218012 6.302268
359 1 5.919032 12.334302 6.417826
360 1 5.988110 14.013758 3.889034
361 1 4.182673 12.702465 8.333365
362 1 4.193119 14.189194 10.569990
363 1 6.345849 12.367026 10.254357
364 1 6.049147 14.488380 8.346569
365 1 3.714515 11.940732 12.490311
366 1 3.764689 14.245266 14.379519
367 1 6.425302 12.049035 14.850136
368 1 6.299761 14.169745 12.352770
369 1 3.975998 12.598654 16.724318
370 1 3.937586 14.694430 18.379013
371 1 6.146360 12.340876 18.178112
372 1 6.055568 14.477126 16.374087
373 1 4.092349 12.390638 19.787160
374 1 4.179731 14.651346 22.625492
375 1 5.490165 12.208965 22.404632
376 1 5.762012 14.337296 20.289484
377 1 3.958294 12.361097 24.594508
378 1 4.029174 14.127047 26.826639
379 1 6.355423 12.294924 26.149768
380 1 5.916171 14.205601 24.538204
381 1 4.151732 11.945264 28.499679
382 1 4.120916 14.094658 31.006212
383 1 5.781896 11.943749 30.605444
384 1 5.919061 14.251664 28.590319
385 1 4.084815 16.080622 0.401301
386 1 3.850603 18.201715 2.120068
387 1 6.081136 16.136545 2.182963
388 1 6.073700 18.385230 0.079991
389 1 4.156002 16.300276 4.053002
390 1 3.881641 18.280050 6.154726
391 1 5.819503 16.561951 6.289565
392 1 6.343088 18.335867 3.844454
393 1 3.795101 16.307004 8.355246
394 1 4.039582 18.103055 10.319393
395 1 6.014902 16.435469 10.286091
396 1 6.186868 18.369104 7.922649
397 1 3.985687 16.023996 12.372615
398 1 3.890963 18.364986 13.925436
399 1 5.879009 16.534437 14.145461
400 1 5.941384 18.375288 12.177752
401 1 4.162197 16.175727 16.128884
402 1 4.479016 18.480117 18.214656
403 1 6.324284 16.633151 18.152805
404 1 6.145019 18.316268 16.057672
405 1 3.958050 16.612963 20.259261
406 1 4.229587 18.426184 22.655174
407 1 6.437257 16.600681 22.070468
408 1 6.208105 18.494032 20.307892
409 1 3.835513 16.244555 24.810366
410 1 4.463468 18.194685 26.817106
411 1 5.902650 16.028949 26.852911
412 1 6.231874 18.303601 24.266243
413 1 4.258363 16.066523 28.907651
414 1 4.090155 18.445257 30.900720
415 1 6.080424 16.293513 30.967164
416 1 6.032743 18.517436 28.847466
417 1 4.178624 20.313431 0.086585
418 1 4.003530 22.615113 1.890668
419 1 6.180094 20.437148 1.838165
420 1 6.135229 22.398543 32.342607
421 1 4.180110 20.134406 4.098430
422 1 4.034747 22.278001 6.068604
423 1 6.242538 20.108136 5.865263
424 1 6.122728 22.522698 4.026138
425 1 4.338209 20.238641 8.210747
426 1 4.234601 22.356576 10.089890
427 1 6.162778 20.351483 10.272811
428 1 6.122073 22.038743 7.809924
429 1 4.090556 20.315084 11.861408
430 1 4.092810 22.176926 13.700827
431 1 6.359134 20.321459 14.033582
432 1 6.312025 22.231017 12.522211
433 1 4.320125 20.245659 16.074596
434 1 4.023004 22.380862 18.475484
435 1 6.030184 20.544076 18.289719
436 1 5.946886 22.396299 16.300984
437 1 3.856036 20.283664 20.477093
438 1 4.007133 22.462003 22.134516
439 1 6.219575 20.322981 22.162023
440 1 6.194821 22.449152 20.211554
441 1 4.339847 20.701655 24.679371
442 1 4.147387 22.532459 26.742819
443 1 6.752647 20.085950 26.363514
444 1 6.570180 22.440482 24.173071
445 1 4.109775 20.309261 28.739725
446 1 4.044754 22.490802 30.940696
447 1 6.110924 20.430965 30.607223
448 1 6.182151 22.268219 28.511350
449 1 4.036342 24.540192 0.493426
450 1 4.407348 26.488435 2.045253
451 1 6.362801 24.670101 1.853262
452 1 6.202257 26.165211 32.390173
453 1 4.249454 24.881457 4.147510
454 1 3.920180 26.383513 6.517281
455 1 6.223401 24.465638 6.117073
456 1 6.295270 26.701042 3.902733
457 1 4.373853 24.340017 8.136030
458 1 4.112922 26.349792 10.179791
459 1 6.060106 24.132444 10.161726
460 1 6.354642 26.448347 8.205913
461 1 4.243412 24.413343 12.168930
462 1 4.124212 26.397598 14.146224
463 1 6.206278 24.250968 14.335968
464 1 6.239859 26.468366 12.098134
465 1 4.003827 24.584254 15.892848
466 1 3.746407 26.434306 18.335387
467 1 6.023374 24.390109 17.908037
468 1 5.930294 26.739610 16.547722
469 1 3.694561 24.548965 20.459455
470 1 3.682020 26.703318 22.068182
471 1 6.164411 24.325901 22.086254
472 1 6.226726 26.398643 20.121800
473 1 4.247162 24.376812 24.354643
474 1 4.187764 26.420556 26.295600
475 1 6.062766 24.521147 26.588016
476 1 5.988676 26.517548 24.231660
477 1 4.124418 24.424223 28.575579
478 1 3.804617 26.745998 31.098049
479 1 6.401811 24.431075 30.475050
480 1 6.052956 26.370644 28.722580
481 1 4.383527 28.395780 0.209665
482 1 4.335337 30.540810 2.027023
483 1 6.370001 28.482624 1.894872
484 1 6.039519 30.608046 32.599746
485 1 4.258729 28.609807 3.790222
486 1 4.252835 30.491226 5.977145
487 1 6.361294 28.201119 6.082358
488 1 6.281486 30.434686 3.927539
489 1 4.095090 28.568186 8.164803
490 1 4.167198 30.460704 10.206344
491 1 6.289051 28.729221 10.184510
492 1 6.057790 30.236207 7.935594
493 1 4.418100 28.524496 12.389770
494 1 3.810037 30.662524 14.276871
495 1 6.168673 28.273975 14.337229
496 1 6.577676 30.766410 12.392174
497 1 4.076147 28.941820 16.473223
498 1 3.700211 30.655077 18.505630
499 1 6.009065 28.559864 18.358918
500 1 6.045307 30.916707 16.383423
501 1 4.065971 28.504339 20.383614
502 1 3.984375 30.689997 22.389586
503 1 6.058613 28.504512 22.584846
504 1 5.982512 30.588629 20.516811
505 1 4.120896 28.750542 24.665569
506 1 4.374868 30.674786 26.398454
507 1 6.261717 28.511198 26.767166
508 1 6.357155 30.487462 24.753137
509 1 3.889937 27.977654 28.783893
510 1 3.900511 30.585433 30.860331
511 1 6.086565 28.339569 30.570192
512 1 5.491979 30.464208 28.654775
513 1 8.301036 32.641437 32.615480
514 1 8.049573 2.058735 1.952310
515 1 10.335439 32.238226 2.121961
516 1 10.347883 1.992856 0.030714
517 1 8.349094 32.375557 4.296893
518 1 7.803969 1.893922 5.991831
519 1 10.464994 32.568000 6.097906
520 1 10.168948 2.049743 3.733888
521 1 7.940861 32.181424 7.826711
522 1 8.226709 1.933688 9.475425
523 1 9.964623 0.155171 10.193013
524 1 9.858852 1.946284 7.471658
525 1 8.039188 0.378789 12.108297
526 1 7.970992 2.221607 14.724763
527 1 9.890331 0.182072 14.013716
528 1 9.975238 2.194471 12.170059
529 1 8.181948 0.303990 16.658635
530 1 7.946980 2.285114 18.285664
531 1 10.294081 32.649124 18.353726
532 1 10.181087 2.022088 16.305565
533 1 8.259781 32.409887 20.381347
534 1 7.948533 2.213831 22.678403
535 1 9.879765 0.012502 22.305802
536 1 9.942437 2.062685 20.533566
537 1 7.739455 32.612580 24.459460
538 1 8.020106 2.196572 26.649585
539 1 10.095111 0.041519 26.321016
540 1 10.083618 2.112474 24.481619
541 1 8.610648 32.474554 28.847306
542 1 8.004693 1.823727 30.504060
543 1 10.512946 0.079961 30.678808
544 1 9.899379 2.386476 28.622467
545 1 8.212325 3.836674 32.333719
546 1 8.449716 6.081268 1.425978
547 1 10.315627 4.076509 1.886234
548 1 10.496668 6.290047 0.062342
549 1 8.353803 3.958460 3.956315
550 1 8.228526 6.216059 6.050605
551 1 10.264303 4.057233 5.961649
552 1 10.594362 5.996347 4.119877
553 1 8.028990 3.750735 7.785184
554 1 7.968245 6.383867 10.392491
555 1 9.894143 4.089808 10.052805
556 1 9.744842 5.830895 8.278603
557 1 7.959503 4.299997 12.560392
558 1 8.105208 6.254788 14.332549
559 1 10.076109 4.225309 14.308509
560 1 9.948019 6.224433 12.283061
561 1 8.094672 4.295393 16.576843
562 1 7.779662 6.214367 18.563161
563 1 10.263094 3.969843 18.336147
564 1 10.156373 6.235113 16.853549
565 1 8.304366 4.036020 20.477642
566 1 8.050413 6.109297 22.596177
567 1 9.964076 4.202029 22.865377
568 1 10.009615 6.025988 20.627700
569 1 7.892610 4.485494 24.621533
570 1 8.410339 6.426401 26.518154
571 1 10.073365 4.210845 26.416887
572 1 10.608342 6.114795 24.574527
573 1 8.098011 4.210934 28.821970
574 1 7.946560 6.204601 30.586554
575 1 10.226965 4.140599 30.825812
576 1 10.293637 5.927930 28.620603
577 1 8.243653 8.327451 0.346588
578 1 8.082890 10.009995 2.305994
579 1 10.290834 8.266094 2.206894
580 1 10.227328 10.079904 32.634404
581 1 8.344925 7.553193 3.849845
582 1 8.102908 10.107450 6.137762
583 1 9.956256 7.970987 6.236913
584 1 10.120523 10.383694 3.923896
585 1 8.030439 8.092412 8.445941
586 1 8.095084 10.046903 10.261145
587 1 10.255636 8.135313 9.968208
588 1 9.748378 10.134613 7.986940
589 1 8.232319 8.241411 12.219001
590 1 8.328073 9.988381 14.460324
591 1 9.961514 8.051313 14.468026
592 1 10.800709 9.783672 12.091211
593 1 8.052775 8.076092 16.774774
594 1 8.192656 10.266716 18.378831
595 1 10.153994 8.103316 19.015939
596 1 10.223498 10.320872 16.525973
597 1 8.012492 8.638394 20.634176
598 1 8.025547 10.579264 22.345446
599 1 10.290780 8.304929 22.818528
600 1 10.115550 10.110382 20.788475
601 1 8.194374 8.332326 24.372149
602 1 8.005997 10.339415 26.587640
603 1 9.915984 8.578304 26.606386
604 1 10.122454 10.311170 24.358541
605 1 7.891126 8.242601 28.574130
606 1 8.174708 9.871448 30.856434
607 1 10.050290 8.018075 30.428886
608 1 10.015337 10.248119 28.569873
609 1 8.197361 12.099573 0.028446
610 1 7.951000 14.288995 2.006526
611 1 10.110457 12.055743 1.964602
612 1 10.124303 14.143943 0.110681
613 1 8.109046 12.022143 4.251533
614 1 7.778258 14.748415 5.915200
615 1 9.929575 12.141060 6.272335
616 1 10.028811 13.948832 3.992694
617 1 7.994080 12.185964 8.156349
618 1 8.268195 14.405137 9.839108
619 1 10.075482 12.235988 10.125060
620 1 9.985742 14.288072 8.032566
621 1 8.374014 12.371055 12.527111
622 1 8.182691 14.706154 14.201222
623 1 10.321884 11.972952 14.186185
624 1 9.989357 14.837715 12.126116
625 1 8.392758 12.396676 16.472756
626 1 8.086853 14.577400 18.157544
627 1 10.243758 12.416057 18.282313
628 1 10.333821 14.216992 16.188198
629 1 8.139403 12.516044 20.174062
630 1 7.703903 14.114743 22.609149
631 1 10.228291 12.422833 22.189049
632 1 10.177630 14.373737 20.354140
633 1 8.442313 12.120024 24.794439
634 1 8.083410 14.358772 26.438423
635 1 10.171591 12.301813 26.824189
636 1 10.237296 14.355207 24.780463
637 1 7.676447 12.204083 28.433647
638 1 8.048245 14.009768 30.993556
639 1 10.251962 12.067135 30.477346
640 1 10.304946 14.236949 28.948176
641 1 8.096662 16.124015 32.620582
642 1 8.115120 18.409268 2.026467
643 1 9.847082 16.330028 1.939972
644 1 10.147472 18.464102 0.260397
645 1 8.229609 16.268558 3.913956
646 1 8.341572 18.306810 6.088610
647 1 10.395037 16.220812 5.923952
648 1 9.825480 18.289463 4.013970
649 1 7.986937 16.256474 8.078240
650 1 8.346413 18.276058 9.920407
651 1 10.490012 16.349432 10.045682
652 1 10.600982 18.385565 8.302480
653 1 7.959242 16.486447 12.153419
654 1 8.267184 18.213312 14.223501
655 1 10.392857 16.554402 14.520528
656 1 10.649750 18.009499 12.315478
657 1 8.161047 16.548984 16.157627
658 1 8.433175 18.360024 18.259586
659 1 10.785572 16.437404 17.839116
660 1 10.602853 18.524706 16.376430
661 1 7.939686 16.261352 20.180550
662 1 8.400031 18.153702 22.060405
663 1 10.001638 16.069790 22.118638
664 1 10.213586 18.115384 20.376849
665 1 8.160986 16.349316 24.382396
666 1 8.127141 17.916656 26.674231
667 1 10.115072 15.934393 26.872836
668 1 10.398842 18.189044 24.505596
669 1 8.106186 16.168708 29.064899
670 1 8.229346 17.980502 30.769515
671 1 10.450341 16.356858 30.644610
672 1 10.378009 18.044866 28.683159
673 1 8.223555 20.292995 32.361057
674 1 8.144329 22.632552 1.732658
675 1 10.220392 20.518325 2.112308
676 1 9.976484 22.093684 32.617162
677 1 8.077384 20.488270 4.076026
678 1 8.492352 22.444612 6.140610
679 1 10.215346 20.474763 6.110174
680 1 10.422188 22.312862 4.226290
681 1 8.161977 20.592768 8.276976
682 1 7.978644 22.414399 10.158492
683 1 10.495038 20.562944 9.846678
684 1 10.531678 22.270153 8.125585
685 1 8.542565 20.017972 12.198753
686 1 8.531907 22.328834 14.667929
687 1 10.240543 20.030532 14.233145
688 1 9.922896 22.251298 12.234252
689 1 8.082463 20.300612 16.184072
690 1 8.115134 22.772473 17.916479
691 1 10.448762 20.262652 18.515146
692 1 10.613766 22.484048 16.545131
693 1 8.207491 20.513859 19.898037
694 1 8.554448 22.179296 22.056348
695 1 10.357912 20.106719 22.369940
696 1 10.277117 22.549260 20.101794
697 1 8.496171 19.926747 24.653410
698 1 8.459460 22.386992 26.816988
699 1 10.040161 20.171137 26.733814
700 1 10.313940 22.647803 24.222255
701 1 8.410257 20.065509 28.727121
702 1 8.407729 22.334951 30.454970
703 1 10.307778 20.448645 30.473066
704 1 10.301630 22.367288 28.425943
705 1 8.259913 24.768984 32.532221
706 1 8.239107 26.504045 2.046343
707 1 10.213143 24.783283 1.753574
708 1 10.028200 26.663130 32.381818
709 1 8.455202 24.304913 3.907322
710 1 8.407832 26.208367 6.154918
711 1 10.472650 24.351972 5.909474
712 1 10.536133 26.240445 4.100019
713 1 8.571369 24.066078 8.173805
714 1 8.230875 26.723134 10.250338
715 1 10.249162 24.436394 10.615077
716 1 10.076659 26.418493 8.171015
717 1 8.034805 24.290682 12.125314
718 1 8.157511 26.179084 14.296949
719 1 10.529403 24.240859 14.244045
720 1 9.858780 26.887035 12.501720
721 1 8.621378 24.528066 16.275568
722 1 7.907300 26.314524 18.293946
723 1 10.212008 24.531833 18.248220
724 1 10.428053 26.782667 16.542643
725 1 8.018092 24.366665 20.290365
726 1 8.266437 26.508409 22.276290
727 1 9.802213 24.458592 22.422741
728 1 9.978925 26.296657 20.354522
729 1 7.991180 24.764430 24.596463
730 1 7.971212 26.613183 26.873359
731 1 10.323166 24.724948 26.725992
732 1 10.101784 26.519009 24.567691
733 1 8.251440 24.387549 28.465147
734 1 8.239586 26.386476 30.295114
735 1 10.400337 24.650599 30.409989
736 1 10.130961 26.675867 28.444685
737 1 8.336802 28.572192 32.609368
738 1 8.197610 30.389535 2.054370
739 1 10.319693 28.835295 1.858386
740 1 10.108058 30.520425 32.633297
741 1 8.646332 28.409755 4.166592
742 1 8.451091 30.120263 6.023207
743 1 10.344856 28.274199 6.299012
744 1 10.480249 30.347662 4.264539
745 1 8.308660 28.375031 8.335548
746 1 8.385760 30.667983 10.201885
747 1 10.166967 28.526414 10.208267
748 1 10.304903 30.945610 8.026866
749 1 8.105121 28.925947 12.423298
750 1 8.208292 30.834388 14.417550
751 1 10.358609 28.779379 14.409973
752 1 10.163863 30.796630 12.326507
753 1 8.191175 28.815148 15.929991
754 1 8.134408 30.538508 18.053826
755 1 9.884314 28.547763 18.288085
756 1 10.497736 30.931719 16.412070
757 1 8.100706 28.657871 20.535708
758 1 7.892716 30.602933 22.468770
759 1 9.905860 28.672930 22.468670
760 1 10.007863 30.483878 20.042234
761 1 8.049318 28.561209 24.621101
762 1 7.975959 30.656728 26.839218
763 1 10.625723 28.360790 26.494662
764 1 10.201963 30.410281 24.897189
765 1 7.882422 28.675926 28.678403
766 1 8.129725 30.448462 30.705394
767 1 10.179031 28.723288 30.203671
768 1 10.049924 30.181499 28.286796
769 1 12.198363 32.590835 32.623006
770 1 12.281684 2.064254 1.951437
771 1 14.139398 0.114642 2.018674
772 1 14.155774 2.199172 32.594191
773 1 12.093070 32.535449 4.096165
774 1 12.465544 1.670170 6.070413
775 1 14.591183 32.351447 6.554635
776 1 14.189580 2.168152 4.179882
777 1 12.107333 0.144469 8.222102
778 1 12.157802 2.354862 10.237009
779 1 14.279969 0.442751 10.241098
780 1 14.542999 2.205423 8.386590
781 1 12.215782 0.287573 12.579095
782 1 12.202694 2.312387 14.076075
783 1 14.398782 32.497447 14.412039
784 1 14.517210 2.046331 12.129845
785 1 12.019477 0.186091 15.899308
786 1 12.272225 1.802156 18.475426
787 1 14.026031 32.471466 18.289507
788 1 14.022082 2.071250 16.588366
789 1 11.821681 32.383838 20.653848
790 1 11.970088 2.086265 22.247297
791 1 13.744741 0.038304 22.450912
792 1 14.204698 2.011071 20.401115
793 1 12.045135 0.214617 24.640949
794 1 11.946310 2.229505 26.593627
795 1 14.026044 0.672952 26.772401
796 1 14.462920 2.099027 24.484181
797 1 11.975652 0.434101 28.524025
798 1 12.096819 2.147137 30.703178
799 1 14.181547 32.653208 30.408448
800 1 13.968799 2.063576 28.939098
801 1 12.318851 4.054024 0.066802
802 1 12.452235 5.963440 2.180932
803 1 14.539864 4.237494 2.096769
804 1 14.263107 6.388356 0.092333
805 1 12.315704 3.826517 4.028320
806 1 12.159791 6.338868 6.232037
807 1 13.794518 3.831531 6.300870
808 1 14.037540 5.824203 4.332343
809 1 11.905798 4.323781 8.067855
810 1 11.900429 6.258438 10.097203
811 1 13.812774 4.258919 10.261362
812 1 14.358936 6.138146 8.143257
813 1 12.562642 4.277461 12.458615
814 1 11.883144 6.239349 14.071805
815 1 14.695348 4.327083 14.004761
816 1 14.231713 6.359013 12.212456
817 1 12.284161 4.138495 16.429184
818 1 12.119498 6.165705 18.621546
819 1 13.791121 4.124204 18.574933
820 1 14.138677 6.056286 16.056081
821 1 11.957795 3.854216 20.335159
822 1 12.322076 6.096506 22.707553
823 1 14.356366 4.205082 22.349793
824 1 14.261947 5.960142 20.442604
825 1 12.322639 3.869471 24.445970
826 1 12.366581 5.870450 26.618503
827 1 14.376926 3.746837 26.747096
828 1 14.211659 5.607504 24.690150
829 1 12.204267 4.026915 28.599154
830 1 12.390301 5.968672 30.456434
831 1 14.265589 4.011524 30.641962
832 1 14.352955 5.795043 28.425341
833 1 12.360821 8.196051 0.106881
834 1 12.071428 10.266927 2.090271
835 1 14.259431 7.974939 2.193236
836 1 14.513069 10.071386 0.245608
837 1 12.250268 8.244870 4.270864
838 1 11.963235 9.854755 6.071430
839 1 14.634610 8.097133 6.080715
840 1 14.106594 10.297310 4.155966
841 1 12.301469 8.217444 8.336550
842 1 12.304597 10.265239 9.866083
843 1 14.408601 8.163854 10.158530
844 1 13.954647 10.185071 7.679925
845 1 12.203271 7.789542 12.187472
846 1 11.858031 9.962050 14.168844
847 1 14.030894 8.311575 14.098900
848 1 13.960839 10.201246 11.990622
849 1 11.949687 7.932885 16.170181
850 1 11.992872 10.436801 18.247825
851 1 13.774613 8.535523 18.138888
852 1 13.893341 10.168536 15.973049
853 1 12.465784 8.290851 20.585964
854 1 12.405612 10.281663 22.558118
855 1 14.237602 7.737735 22.698578
856 1 14.258394 10.027489 20.447523
857 1 12.720648 8.072236 24.680463
858 1 12.263650 10.471249 26.811501
859 1 14.472161 8.040950 26.413228
860 1 14.366844 10.117643 24.542503
861 1 12.006018 8.069707 28.300898
862 1 12.683991 10.520215 30.798253
863 1 14.329737 8.195474 30.598424
864 1 14.355623 10.445361 28.307417
865 1 12.370413 12.214155 0.200886
866 1 12.041300 14.526505 1.938308
867 1 14.336936 12.487232 1.777237
868 1 14.390645 14.368224 32.584967
869 1 12.117717 12.309362 3.765905
870 1 12.008384 14.130814 5.778233
871 1 14.253466 12.517899 5.651533
872 1 14.254100 14.354364 3.865074
873 1 11.996235 12.449650 7.974872
874 1 12.202963 14.257389 9.800906
875 1 14.054758 12.242401 9.995863
876 1 14.033756 14.348815 7.934231
877 1 11.801918 13.083131 12.045681
878 1 12.098643 14.329845 13.963829
879 1 13.880283 12.152825 13.932388
880 1 14.310703 14.149127 12.242081
881 1 12.316262 12.194043 16.083652
882 1 12.450905 14.122508 18.288334
883 1 14.129513 12.036176 18.368257
884 1 14.069287 14.195863 16.009100
885 1 12.144918 11.982267 20.525572
886 1 12.068442 14.297193 22.620695
887 1 14.478349 12.067013 22.364369
888 1 14.324474 14.018846 20.508648
889 1 12.324991 12.488954 24.353461
890 1 12.436090 14.053735 26.323868
891 1 14.434865 12.310077 26.392698
892 1 14.452976 14.104701 24.069234
893 1 12.097080 12.480133 28.536599
894 1 12.194027 13.833776 30.923739
895 1 14.649002 12.316808 30.609996
896 1 14.134370 14.192018 28.889108
897 1 12.206082 16.310782 32.588569
898 1 12.048393 18.359109 1.766592
899 1 14.408636 16.399884 1.767936
900 1 14.024283 18.631633 32.457524
901 1 12.024489 16.466952 3.592884
902 1 12.358703 18.231254 5.988024
903 1 14.215655 16.311377 5.927748
904 1 13.960541 18.169405 3.850213
905 1 12.367532 16.625487 7.938635
906 1 12.432501 18.200810 10.344726
907 1 14.927329 16.314573 10.171135
908 1 14.609410 18.243208 8.255209
909 1 12.540676 16.234973 12.268854
910 1 12.572937 18.721065 14.466269
911 1 14.718875 16.289397 14.021954
912 1 14.573952 18.818149 12.115184
913 1 12.644706 16.412895 16.037741
914 1 12.560928 18.151028 18.674465
915 1 14.248335 16.263391 18.203121
916 1 14.483003 18.332665 16.283828
917 1 12.137001 15.967861 20.603806
918 1 12.230939 18.431793 22.239074
919 1 14.054356 16.396627 22.580012
920 1 14.502322 18.095172 20.346820
921 1 12.298305 16.233662 24.695446
922 1 12.199000 18.469333 26.438809
923 1 14.494333 16.443544 26.532441
924 1 14.230934 18.666444 24.310026
925 1 12.379850 16.172591 28.275908
926 1 12.607732 18.370129 30.367380
927 1 14.155604 15.959494 30.571375
928 1 14.412160 18.494967 28.294028
929 1 12.171988 20.582595 32.600235
930 1 12.367894 22.439037 2.014033
931 1 14.403925 20.618209 2.006226
932 1 14.414343 22.681795 32.394921
933 1 12.288308 20.158619 4.221226
934 1 12.506781 22.316289 6.120693
935 1 14.265431 20.367425 6.301316
936 1 14.332602 22.409679 4.021563
937 1 12.891606 20.372259 8.738515
938 1 12.500252 22.573746 10.637040
939 1 14.987175 20.554441 10.375263
940 1 14.714842 22.515111 8.256723
941 1 12.375705 20.442504 12.126941
942 1 12.570239 22.564636 13.714167
943 1 14.671426 20.695551 14.113210
944 1 14.919701 22.980032 12.668721
945 1 12.390357 20.725499 16.279013
946 1 12.499808 22.596669 18.599553
947 1 14.414209 20.540348 18.083016
948 1 14.897830 22.290558 16.277112
949 1 12.316259 20.580621 20.164940
950 1 12.009195 22.029072 22.532331
951 1 14.151291 20.520072 22.439630
952 1 14.113120 22.537765 20.534741
953 1 12.170909 20.251428 24.647316
954 1 12.310151 22.217268 26.396395
955 1 14.626400 20.515284 26.673422
956 1 14.415139 22.673326 24.164381
957 1 12.243247 20.391997 28.687884
958 1 12.315123 22.743073 30.506007
959 1 14.374668 20.382494 30.370880
960 1 14.449931 22.569381 28.293180
961 1 12.203804 24.370371 32.556485
962 1 12.023957 26.575599 2.057488
963 1 13.844067 24.614359 1.929200
964 1 14.609719 26.709095 32.536480
965 1 12.444708 24.476453 4.084714
966 1 12.494127 26.308499 6.259785
967 1 14.805291 24.115821 6.371454
968 1 14.166747 26.297403 4.236492
969 1 12.503960 24.610225 8.441807
970 1 11.925703 26.839368 10.105835
971 1 14.760173 24.521224 10.457819
972 1 14.504191 26.666249 8.258783
973 1 12.283777 24.819354 12.292027
974 1 12.186578 26.745269 14.321720
975 1 14.297710 24.870054 14.567600
976 1 14.576601 26.549921 12.522651
977 1 12.215677 24.538181 16.285622
978 1 12.256418 26.392331 18.654476
979 1 14.411985 24.377240 18.136999
980 1 14.379171 26.789840 16.820937
981 1 12.105683 24.498877 20.762793
982 1 12.258001 26.795168 22.082364
983 1 14.038584 24.683341 22.416874
984 1 14.599308 26.539238 20.150551
985 1 12.098081 24.764412 24.045956
986 1 12.294715 26.411217 26.125588
987 1 14.532439 24.333719 26.562057
988 1 14.317133 26.662761 24.418158
989 1 12.683194 24.676364 28.497789
990 1 12.328763 26.969972 30.781654
991 1 14.469416 24.652275 30.628465
992 1 14.293154 26.814836 28.284729
993 1 12.242331 28.870997 32.648730
994 1 12.427471 30.762310 1.911809
995 1 14.072450 28.488601 2.141004
996 1 14.301618 30.550608 32.438045
997 1 12.396282 28.575777 4.467918
998 1 12.460378 30.758541 6.261143
999 1 14.225077 28.606528 6.477722
1000 1 14.174288 30.873945 4.237384
1001 1 12.313848 28.632065 8.300585
1002 1 11.906359 30.548805 10.376805
1003 1 14.658939 28.411081 10.430667
1004 1 14.143891 30.655294 8.814393
1005 1 12.398184 28.654682 12.180799
1006 1 12.136137 30.998126 14.190653
1007 1 14.105789 29.021792 14.016410
1008 1 14.045671 30.916726 12.005520
1009 1 12.449941 28.609308 16.663482
1010 1 12.176515 30.466656 18.369202
1011 1 14.020225 28.655391 18.762995
1012 1 14.141749 30.654292 16.395250
1013 1 12.128867 29.035261 20.404675
1014 1 12.051588 30.735900 22.959105
1015 1 14.287788 28.424443 22.303587
1016 1 14.399757 30.575191 20.886341
1017 1 12.341885 28.410663 24.139142
1018 1 12.237483 31.213165 26.698089
1019 1 14.543115 28.717762 26.444263
1020 1 13.995991 31.035201 24.746908
1021 1 12.407139 28.666274 28.647559
1022 1 12.196235 30.405941 30.555865
1023 1 14.548369 28.518242 30.302496
1024 1 14.376711 30.758870 28.468872
1025 1 16.149596 32.633321 0.062977
1026 1 16.221665 2.060279 1.967331
1027 1 18.611395 0.065775 1.974201
1028 1 18.242620 2.037645 32.345410
1029 1 16.403969 32.627915 3.587426
1030 1 16.175309 2.015096 6.241420
1031 1 18.433041 0.227140 6.362155
1032 1 18.366090 1.999428 4.072707
1033 1 16.784447 0.213954 8.409636
1034 1 16.831986 2.335023 10.169169
1035 1 18.539726 0.102377 10.597292
1036 1 18.733481 2.275383 8.145355
1037 1 16.305119 0.106180 12.435846
1038 1 15.827977 1.918346 14.434551
1039 1 18.225306 0.185282 14.328492
1040 1 18.293053 2.370140 12.664966
1041 1 16.260597 0.176969 16.434337
1042 1 16.246655 2.485624 18.267345
1043 1 18.230526 0.201352 18.367103
1044 1 18.046496 1.914710 16.011381
1045 1 16.015140 0.176207 20.665399
1046 1 16.080888 2.297446 22.326618
1047 1 18.143986 32.593728 22.206247
1048 1 18.294788 2.085584 20.506543
1049 1 16.440907 0.419046 24.406526
1050 1 16.328205 1.893058 26.617602
1051 1 18.610589 0.439063 26.477738
1052 1 18.241846 2.083522 24.305703
1053 1 16.260986 0.173244 28.504082
1054 1 16.283083 1.961657 30.492014
1055 1 18.489907 32.560253 30.677294
1056 1 18.558548 1.800806 28.812251
1057 1 16.368169 3.752090 32.523172
1058 1 16.145130 6.312950 2.059921
1059 1 18.257685 3.973491 1.998788
1060 1 17.897536 6.056823 32.538813
1061 1 16.063642 3.955119 4.112387
1062 1 16.142569 5.829350 6.126603
1063 1 18.050065 4.069510 6.222754
1064 1 18.331190 5.936396 3.985771
1065 1 16.451698 4.282608 8.353169
1066 1 16.241597 6.206192 9.886183
1067 1 18.397443 4.080753 10.031883
1068 1 18.698576 6.261895 8.271292
1069 1 16.464097 4.259883 12.058151
1070 1 16.521699 6.384156 14.038134
1071 1 17.970109 4.321902 14.501993
1072 1 18.445360 6.258574 12.049049
1073 1 16.126894 3.948587 16.319484
1074 1 15.860468 6.091378 18.313549
1075 1 18.112079 4.259239 18.144764
1076 1 18.051276 6.273925 16.419468
1077 1 16.358723 3.988394 20.388968
1078 1 16.370733 6.186710 22.152626
1079 1 18.510216 4.203207 22.332711
1080 1 18.497522 5.866053 20.414991
1081 1 16.311951 3.866340 24.556980
1082 1 16.224119 6.072435 26.664123
1083 1 18.491434 4.040989 26.542174
1084 1 17.982862 6.041564 24.756363
1085 1 16.474196 3.828171 28.704520
1086 1 16.334642 5.982507 30.570967
1087 1 18.505925 4.178054 30.740234
1088 1 18.232770 5.955867 28.313533
1089 1 16.389632 8.136888 0.181589
1090 1 16.262160 10.301655 2.182391
1091 1 18.405021 8.448703 2.307903
1092 1 18.426023 10.123800 0.224880
1093 1 16.090813 8.188766 4.146571
1094 1 16.220581 10.417787 5.838278
1095 1 18.350300 8.016294 5.833763
1096 1 18.335983 10.351256 4.008761
1097 1 16.548062 8.212341 8.135966
1098 1 15.915742 10.270506 9.853844
1099 1 19.177059 8.367619 9.895072
1100 1 18.064545 10.471671 7.785673
1101 1 16.419251 8.267706 12.063402
1102 1 16.270796 10.486108 14.155613
1103 1 18.184834 8.570602 14.350258
1104 1 18.381492 10.264635 12.115190
1105 1 15.830305 8.012470 15.968545
1106 1 16.352725 9.698258 18.050531
1107 1 18.290111 7.898821 18.446818
1108 1 18.245675 10.501124 16.220437
1109 1 16.291730 8.146072 20.255716
1110 1 16.177035 10.067663 22.350283
1111 1 18.017404 8.181245 22.422196
1112 1 18.155828 10.105871 20.534801
1113 1 16.195344 8.241004 24.299335
1114 1 16.380940 9.971305 26.631884
1115 1 18.427779 8.095433 26.175019
1116 1 18.526948 10.270805 24.381705
1117 1 16.035010 8.066818 28.617339
1118 1 16.231383 9.992199 30.646310
1119 1 18.305548 8.293283 30.826069
1120 1 18.375182 10.164411 28.737919
1121 1 16.177886 12.057499 0.065191
1122 1 16.516001 14.245384 2.082543
1123 1 18.247558 12.293532 1.983091
1124 1 18.211147 14.607472 32.660605
1125 1 16.308784 12.670055 3.945540
1126 1 16.255942 14.464485 5.872665
1127 1 18.453181 12.617704 5.871832
1128 1 18.519491 14.412634 4.135605
1129 1 16.008336 12.459484 7.929537
1130 1 16.233055 14.072051 10.103268
1131 1 18.556831 12.106331 9.831462
1132 1 18.454364 14.331832 7.811896
1133 1 16.123740 11.999207 11.911441
1134 1 16.561299 14.481480 14.458083
1135 1 18.384115 12.389140 13.769132
1136 1 18.404389 14.067957 11.544237
1137 1 16.119316 12.416253 16.160900
1138 1 16.084813 14.149415 18.167299
1139 1 18.497326 12.242048 18.389170
1140 1 18.625091 14.377623 16.462431
1141 1 16.181938 11.865666 19.928288
1142 1 16.566000 14.339505 22.411242
1143 1 18.448678 12.606779 23.004011
1144 1 18.417748 14.102853 20.321147
1145 1 16.326598 12.110337 24.307474
1146 1 16.195265 14.087828 26.446394
1147 1 18.344790 12.250042 26.336593
1148 1 18.215385 14.729220 24.581932
1149 1 16.437575 12.435761 28.410301
1150 1 16.497054 14.283917 30.682524
1151 1 18.207856 12.372847 30.769226
1152 1 18.597286 14.419892 28.439550
1153 1 16.379977 16.481797 32.437757
1154 1 16.353966 18.417725 2.020315
1155 1 18.507285 16.408895 1.910150
1156 1 18.285822 18.562010 0.133881
1157 1 16.120933 16.358153 3.820741
1158 1 16.210324 18.166921 5.893854
1159 1 18.172060 16.442071 6.158681
1160 1 18.304162 18.641245 3.972208
1161 1 16.324682 15.929927 8.116225
1162 1 16.520615 18.387262 9.926986
1163 1 18.429394 16.448680 10.118622
1164 1 18.520542 18.456429 7.921473
1165 1 16.444532 16.540113 12.201004
1166 1 16.710725 18.832698 14.214347
1167 1 18.574632 16.470716 14.421511
1168 1 18.568336 18.234483 11.966809
1169 1 16.377179 16.404222 16.625353
1170 1 16.425695 18.247621 18.631169
1171 1 18.495854 16.204778 18.755414
1172 1 18.218511 18.115789 16.287838
1173 1 16.358119 16.282363 20.335235
1174 1 16.165501 18.505546 22.288311
1175 1 18.346075 16.448065 22.576155
1176 1 18.614278 18.265265 20.824763
1177 1 16.009885 16.491743 24.382563
1178 1 16.334340 18.379598 26.426881
1179 1 18.390860 16.615496 26.463317
1180 1 18.383432 18.487375 24.484934
1181 1 16.113780 16.063956 28.547673
1182 1 16.407028 18.437487 30.412195
1183 1 18.666943 16.664947 30.605218
1184 1 18.659364 18.540345 28.455456
1185 1 16.138893 20.336082 32.377662
1186 1 16.277047 22.775249 2.032406
1187 1 18.053077 20.909089 2.283990
1188 1 18.192984 22.531217 32.475249
1189 1 16.005723 20.109263 3.922144
1190 1 16.293847 22.342486 5.662587
1191 1 18.172605 20.432621 6.078611
1192 1 18.537800 22.558626 4.449034
1193 1 16.655444 20.503190 8.341144
1194 1 16.649947 22.981007 10.448640
1195 1 18.446287 20.260594 10.247523
1196 1 18.417565 22.514723 7.867760
1197 1 16.860765 20.646613 12.447562
1198 1 16.979929 22.505567 14.745628
1199 1 18.706074 20.854308 14.637324
1200 1 18.991634 22.502928 12.396949
1201 1 16.664065 20.362225 16.509702
1202 1 16.361284 22.419714 18.343321
1203 1 18.672830 20.075300 18.249254
1204 1 18.782553 22.230210 16.675253
1205 1 16.692446 20.421313 20.320693
1206 1 16.170038 22.679405 21.995762
1207 1 18.444518 20.390950 22.464632
1208 1 18.448999 22.424449 20.007206
1209 1 16.275173 20.681927 24.498146
1210 1 16.417874 22.607654 26.273820
1211 1 18.389829 20.669951 26.222457
1212 1 18.439759 22.747556 24.506321
1213 1 16.623214 20.491422 28.403417
1214 1 16.327900 22.154104 30.350610
1215 1 18.446024 20.240921 30.580904
1216 1 18.503374 22.530868 28.380100
1217 1 16.659444 24.620852 32.549474
1218 1 16.050822 26.313575 2.215809
1219 1 18.424578 24.387653 2.303735
1220 1 18.381790 26.546158 32.522625
1221 1 16.427526 24.356285 3.913159
1222 1 16.378811 26.247225 5.839268
1223 1 18.447993 24.435914 6.148400
1224 1 18.584554 26.544393 4.287484
1225 1 16.748265 24.739399 8.472315
1226 1 16.415614 26.641492 10.598320
1227 1 18.838062 24.823376 10.828024
1228 1 18.733209 26.420900 8.125036
1229 1 16.790468 24.472470 12.570059
1230 1 16.613692 26.937236 14.490256
1231 1 18.697422 24.629944 14.327506
1232 1 18.582517 26.907655 12.914953
1233 1 16.305527 24.821790 16.214665
1234 1 16.657685 26.845582 18.649070
1235 1 18.541657 24.680656 18.100783
1236 1 18.600057 27.061632 16.418874
1237 1 16.547474 24.306738 20.171573
1238 1 16.528993 26.727615 22.400552
1239 1 18.502587 24.407893 22.276378
1240 1 18.554841 26.655756 20.626201
1241 1 16.597928 24.824345 24.400907
1242 1 16.363471 26.748077 26.499724
1243 1 18.424144 24.783216 26.594189
1244 1 18.634847 26.542348 24.438590
1245 1 16.799520 24.437894 28.330722
1246 1 16.496634 26.520175 30.408160
1247 1 18.341658 24.222969 30.548530
1248 1 18.486885 26.727429 28.458429
1249 1 16.449869 28.590834 32.243076
1250 1 15.955407 30.532887 1.849402
1251 1 18.156657 28.256433 2.219844
1252 1 18.255439 30.886728 32.535757
1253 1 15.789865 28.513729 3.922032
1254 1 16.432295 30.342215 6.691198
1255 1 18.188892 28.291313 6.087006
1256 1 18.280838 30.580791 4.336880
1257 1 16.593536 28.484834 8.440332
1258 1 16.369232 30.861305 10.652682
1259 1 18.282005 28.452440 10.357319
1260 1 18.256489 30.798274 8.809714
1261 1 16.584154 28.864435 12.314098
1262 1 16.297834 30.614283 14.489155
1263 1 18.636546 29.058334 14.386229
1264 1 18.474137 30.828398 12.637518
1265 1 16.496741 28.812858 16.489781
1266 1 16.040214 30.252852 18.536750
1267 1 18.422309 29.012920 18.359403
1268 1 18.107913 30.770692 16.604330
1269 1 16.614406 28.645453 20.742729
1270 1 16.049194 30.676537 22.753011
1271 1 18.619581 28.926823 22.805548
1272 1 18.105986 30.749744 20.324621
1273 1 16.337844 28.535196 24.235498
1274 1 16.046785 30.749935 25.950322
1275 1 18.168545 28.646984 26.386428
1276 1 18.476326 30.845968 24.829378
1277 1 16.295453 28.883139 28.279014
1278 1 16.235293 30.824704 30.622402
1279 1 18.595059 28.508104 30.310777
1280 1 18.033560 30.921282 28.018308
1281 1 20.443766 0.033119 0.176102
1282 1 20.335547 2.098066 2.144621
1283 1 22.407812 0.392112 2.409845
1284 1 22.679859 1.792001 0.034285
1285 1 20.286217 32.553713 4.173782
1286 1 20.727603 2.319482 6.056312
1287 1 22.546868 0.089550 6.002484
1288 1 22.746144 2.218027 4.075632
1289 1 20.546498 0.039926 7.937813
1290 1 20.284224 2.317892 10.276419
1291 1 22.097755 32.638500 10.036708
1292 1 22.381652 1.899433 8.149487
1293 1 20.202475 0.111322 12.520738
1294 1 20.190539 2.272343 14.601373
1295 1 22.738067 0.733652 14.498051
1296 1 22.265010 1.867794 12.104808
1297 1 20.409644 0.224034 16.772549
1298 1 20.047744 2.277058 18.399162
1299 1 22.562613 32.660269 18.424161
1300 1 22.344831 2.328332 16.765972
1301 1 20.352472 0.088141 20.341918
1302 1 20.374656 1.798025 22.207439
1303 1 22.623223 0.135853 22.514073
1304 1 22.464953 2.101632 20.650148
1305 1 20.668071 0.383673 24.440405
1306 1 20.482269 2.344491 26.518352
1307 1 22.609896 32.441753 26.765359
1308 1 22.609769 2.410009 24.370439
1309 1 20.579473 0.125200 28.306306
1310 1 20.874041 2.076204 30.547023
1311 1 22.562110 32.551192 30.908986
1312 1 22.672594 2.084199 28.379313
1313 1 20.872903 4.114774 32.587712
1314 1 20.004155 5.743039 1.742252
1315 1 22.487776 3.724163 2.144222
1316 1 22.568159 6.365574 32.579647
1317 1 20.365482 4.116040 3.993370
1318 1 20.282030 6.065761 5.882372
1319 1 22.342516 4.484675 5.910116
1320 1 22.645991 5.990792 3.747103
1321 1 20.709564 4.172859 8.292900
1322 1 20.650213 5.978993 10.309996
1323 1 22.440265 3.747606 10.121967
1324 1 22.738549 5.818759 8.233272
1325 1 20.239774 4.165870 12.476890
1326 1 20.264246 6.305238 14.388553
1327 1 22.538008 3.596139 14.276289
1328 1 22.372266 5.741648 12.343081
1329 1 20.276449 4.322849 16.471698
1330 1 20.463015 6.232662 18.352757
1331 1 22.386101 3.826878 18.808552
1332 1 22.481922 6.344371 16.336504
1333 1 20.534516 4.113448 20.473196
1334 1 19.997524 6.309152 22.697367
1335 1 22.533165 4.237270 22.306307
1336 1 22.495311 6.253970 20.461675
1337 1 20.330591 4.375078 24.399758
1338 1 20.630731 6.310790 26.619804
1339 1 22.747997 4.226300 26.303070
1340 1 22.410114 6.074026 24.510845
1341 1 20.442077 4.157063 28.676885
1342 1 20.292913 6.056709 30.490582
1343 1 22.394183 4.488472 30.320667
1344 1 22.367539 6.453497 28.689124
1345 1 20.077758 7.820777 0.169531
1346 1 20.203547 10.194754 2.095047
1347 1 22.117291 8.168089 1.724661
1348 1 22.200178 10.406038 0.032292
1349 1 20.298255 7.951260 3.926157
1350 1 20.327851 10.223767 5.753034
1351 1 22.557961 8.234836 5.806687
1352 1 22.453268 10.444948 3.897132
1353 1 20.769468 8.263011 7.764002
1354 1 20.835259 10.345682 9.649290
1355 1 22.126875 8.069686 10.342196
1356 1 22.721923 10.863341 7.624552
1357 1 20.271901 8.387298 12.565701
1358 1 20.201434 10.626908 14.041728
1359 1 22.317839 8.237765 14.430964
1360 1 22.373380 10.016922 12.027300
1361 1 20.179149 8.085931 16.353572
1362 1 20.126981 9.992711 18.377772
1363 1 22.629805 8.326093 18.362088
1364 1 22.301886 10.174119 16.410215
1365 1 20.415874 8.580651 20.560572
1366 1 20.131296 10.358985 22.435062
1367 1 22.602671 8.372590 22.525352
1368 1 22.486403 10.204971 20.255040
1369 1 20.778319 8.175648 24.538812
1370 1 20.415618 10.291566 26.463378
1371 1 22.352301 8.286283 26.587422
1372 1 22.526553 10.352390 24.497406
1373 1 20.135443 8.174293 28.326896
1374 1 20.363614 10.268597 30.841068
1375 1 22.164802 8.222837 30.320522
1376 1 22.015882 10.236192 28.697326
1377 1 20.213180 12.476363 0.102019
1378 1 20.566229 14.272593 1.839312
1379 1 22.142293 12.284563 1.935054
1380 1 22.296982 14.628721 32.642466
1381 1 20.382528 12.421704 4.101988
1382 1 20.275801 14.535982 6.024444
1383 1 22.557818 12.679699 5.553917
1384 1 22.553279 14.438075 3.765029
1385 1 20.325458 12.220074 7.876032
1386 1 20.511672 14.166942 9.918258
1387 1 22.717807 12.389392 10.053762
1388 1 22.429945 13.981858 8.035791
1389 1 20.759889 12.201820 11.875949
1390 1 20.471086 13.933275 14.310339
1391 1 22.482851 12.218803 14.183783
1392 1 22.255969 14.204648 11.987274
1393 1 20.335147 12.172099 16.263090
1394 1 20.296650 14.173088 18.675435
1395 1 22.406063 12.384286 18.625125
1396 1 22.301443 14.143908 16.291977
1397 1 20.271617 12.123637 20.381945
1398 1 20.474611 14.312045 22.651020
1399 1 22.394990 12.112654 22.461674
1400 1 22.474493 14.402899 20.679145
1401 1 20.715689 12.054282 24.463036
1402 1 20.287884 13.902818 26.499759
1403 1 22.496344 12.281240 26.937616
1404 1 22.363531 14.049123 24.343515
1405 1 20.362873 12.360519 28.868895
1406 1 20.204604 14.512545 30.898282
1407 1 22.503462 12.325462 31.084370
1408 1 22.437456 14.214260 28.892361
1409 1 20.263650 16.316199 0.158963
1410 1 20.281313 18.496350 1.868696
1411 1 22.288001 16.527374 2.226684
1412 1 22.321924 18.469483 0.101395
1413 1 20.252891 16.612077 4.048304
1414 1 20.491666 18.490331 5.880021
1415 1 22.655930 16.021351 5.863817
1416 1 22.564542 18.253756 4.210999
1417 1 20.270205 16.670769 7.973830
1418 1 20.299190 18.331067 9.972936
1419 1 22.384660 16.218547 9.807738
1420 1 22.476954 18.399341 7.986953
1421 1 20.273011 15.958756 12.303555
1422 1 20.369587 18.568873 14.394188
1423 1 22.341223 16.309917 14.040821
1424 1 22.690458 17.909116 11.735628
1425 1 20.664989 16.641332 15.996908
1426 1 20.465734 18.095515 18.327928
1427 1 22.468705 16.048061 18.217993
1428 1 22.501129 18.218690 16.325637
1429 1 20.674242 16.268967 20.622426
1430 1 20.606304 18.052113 22.399380
1431 1 22.631487 16.412350 22.651052
1432 1 22.496583 18.306664 20.498076
1433 1 20.425011 16.138295 24.682062
1434 1 20.525890 18.231468 26.087596
1435 1 22.811135 16.362435 26.263531
1436 1 22.738247 18.179029 24.295689
1437 1 20.499473 16.236088 28.278242
1438 1 20.644382 18.664477 30.730238
1439 1 22.097045 16.723465 30.498950
1440 1 22.470999 18.103746 28.033520
1441 1 20.070244 20.659944 0.208104
1442 1 20.277436 22.391231 2.340768
1443 1 22.394292 20.372859 2.095136
1444 1 22.230591 22.274383 0.035021
1445 1 20.480873 20.368193 4.216212
1446 1 20.597888 22.505012 6.191946
1447 1 22.897443 20.281887 6.265435
1448 1 22.761026 22.227116 4.139229
1449 1 20.309685 20.407371 7.777173
1450 1 20.398718 22.270450 10.063614
1451 1 22.243661 20.289167 9.816374
1452 1 22.390437 22.309248 7.958443
1453 1 20.885178 19.960101 12.027625
1454 1 20.861331 22.143765 14.213749
1455 1 22.453907 20.311564 14.372512
1456 1 22.660638 21.956775 11.890377
1457 1 20.755130 20.347319 16.415456
1458 1 20.725606 22.576787 18.699149
1459 1 22.780909 20.369791 18.721122
1460 1 22.584358 22.364393 16.521842
1461 1 20.141026 20.298120 20.134259
1462 1 20.509833 22.538448 22.801058
1463 1 22.182525 20.366871 22.407571
1464 1 22.752160 22.580693 20.350162
1465 1 20.415997 20.635861 24.555951
1466 1 20.747712 22.397513 26.691825
1467 1 22.574189 20.266286 26.206334
1468 1 22.748386 22.698826 24.576979
1469 1 20.527459 20.346337 28.270038
1470 1 20.378132 22.279107 30.622507
1471 1 22.346148 20.396311 30.499642
1472 1 22.365757 22.471272 28.664569
1473 1 20.528439 24.538230 32.630586
1474 1 20.403485 26.652594 2.100297
1475 1 22.355319 24.126102 2.050977
1476 1 22.324783 26.320760 0.050657
1477 1 20.755501 24.541679 4.004135
1478 1 20.651273 26.544936 6.029766
1479 1 22.594509 24.220731 6.044417
1480 1 22.577591 26.194405 4.189113
1481 1 20.315256 24.485442 7.711392
1482 1 20.452430 26.685014 10.237728
1483 1 22.299087 24.251869 10.030417
1484 1 22.615519 26.312230 8.080841
1485 1 20.780379 24.648482 12.288583
1486 1 20.727667 26.652793 14.528044
1487 1 22.486964 24.417852 14.404362
1488 1 22.312328 26.520850 12.322221
1489 1 20.553954 24.460634 16.258862
1490 1 20.644216 27.020527 18.488595
1491 1 22.423510 24.757419 18.316490
1492 1 23.022095 27.034105 16.047772
1493 1 20.624283 24.528566 20.423408
1494 1 20.230565 26.384227 22.473909
1495 1 22.664987 24.181808 22.339644
1496 1 22.646008 26.566195 20.585695
1497 1 20.497940 24.528068 24.501671
1498 1 20.631410 26.349146 26.698547
1499 1 22.852729 24.507810 26.588052
1500 1 22.716201 26.563163 24.623322
1501 1 20.694600 24.379286 28.455230
1502 1 20.419229 26.304412 30.199568
1503 1 22.585078 24.361401 31.020498
1504 1 22.771755 26.400728 28.475326
1505 1 20.341334 28.674005 32.624067
1506 1 20.413048 30.699899 1.864223
1507 1 22.273913 28.215509 2.013816
1508 1 22.358709 30.920335 0.272458
1509 1 20.113854 28.493925 4.235465
1510 1 20.032294 30.426236 6.356742
1511 1 22.512884 28.253957 6.421452
1512 1 22.305409 30.323350 4.266209
1513 1 20.440576 28.417641 8.190540
1514 1 20.482305 30.406658 10.513817
1515 1 22.444879 28.448911 9.869753
1516 1 22.234025 30.667752 7.887727
1517 1 20.348587 28.749940 12.413600
1518 1 20.481559 31.023572 14.452830
1519 1 22.604369 28.942072 14.290737
1520 1 22.368075 30.978027 12.499644
1521 1 20.783942 28.825416 16.378161
1522 1 20.634522 30.527297 18.478624
1523 1 22.712839 28.378740 18.781968
1524 1 22.942614 30.941009 16.228067
1525 1 20.176401 28.913877 20.640646
1526 1 20.444784 31.237873 22.645435
1527 1 22.150520 28.399728 22.802872
1528 1 22.300208 30.662167 20.639348
1529 1 20.493731 28.519662 24.698192
1530 1 20.379873 30.988170 26.278828
1531 1 22.363034 28.647702 26.821957
1532 1 22.368743 30.582960 24.455671
1533 1 20.127787 28.855885 28.118240
1534 1 20.537426 30.665430 30.440083
1535 1 22.431764 28.669100 31.032484
1536 1 22.516170 30.538074 28.581479
1537 1 24.330478 32.492985 0.485770
1538 1 24.898758 1.943145 1.617222
1539 1 26.429235 32.176607 2.253002
1540 1 26.751718 2.206202 32.454688
1541 1 24.468059 32.083667 4.323068
1542 1 24.571331 1.820509 6.199301
1543 1 26.660441 32.421378 6.112223
1544 1 26.157719 2.022868 3.953115
1545 1 24.352932 32.433898 8.034045
1546 1 24.326115 1.827639 10.053587
1547 1 26.615270 0.234478 10.023940
1548 1 26.776078 1.954930 8.059000
1549 1 24.406572 32.530337 12.274815
1550 1 24.815528 2.131637 14.251107
1551 1 26.475569 0.131504 14.427176
1552 1 26.395032 1.797486 11.973144
1553 1 24.339043 0.593386 16.508046
1554 1 24.415684 2.197170 18.680373
1555 1 26.385410 0.120018 18.329659
1556 1 26.665394 2.142620 16.522741
1557 1 24.451632 32.661291 20.465030
1558 1 24.794799 2.302604 22.476556
1559 1 26.770325 0.063305 22.330269
1560 1 26.624434 2.455073 20.152234
1561 1 24.557930 32.512020 24.578466
1562 1 24.505213 2.439984 26.484562
1563 1 26.649164 32.618183 26.481994
1564 1 26.671290 1.966361 24.497333
1565 1 24.387377 0.177314 28.711257
1566 1 24.185522 2.111728 30.625963
1567 1 26.304874 32.567558 30.800662
1568 1 26.445851 2.002586 28.412081
1569 1 24.560304 4.051517 32.630645
1570 1 24.404654 6.103133 1.884956
1571 1 26.602580 4.131659 2.097005
1572 1 26.562129 6.035275 0.017513
1573 1 24.574716 4.179694 3.744325
1574 1 24.696383 6.408380 6.283449
1575 1 26.412154 3.973646 6.130463
1576 1 26.255547 6.057317 4.039264
1577 1 24.665832 3.690121 8.241062
1578 1 24.389755 5.967628 10.397455
1579 1 26.596767 4.085514 10.386767
1580 1 26.599223 5.694743 8.253763
1581 1 24.473456 3.979591 12.191663
1582 1 24.241625 6.155650 14.430175
1583 1 26.354382 4.384371 14.290858
1584 1 26.318402 5.989022 12.256331
1585 1 24.551627 3.963705 16.427927
1586 1 24.480400 6.277436 18.631420
1587 1 26.531413 4.761164 18.622731
1588 1 26.026324 6.331552 16.596490
1589 1 24.660904 4.150650 20.340334
1590 1 24.204857 6.370461 22.733072
1591 1 26.463738 4.151238 22.681551
1592 1 26.250065 6.160481 20.941966
1593 1 24.731577 4.333545 24.582964
1594 1 24.402654 6.122667 26.703522
1595 1 26.621197 4.156850 26.726457
1596 1 26.546773 6.399814 24.743204
1597 1 24.149318 4.141308 28.546512
1598 1 24.486377 6.218884 30.774619
1599 1 26.466714 3.968411 30.628118
1600 1 26.568931 6.185118 28.642202
1601 1 24.553416 8.169675 0.095567
1602 1 24.365550 9.995852 1.961507
1603 1 26.607639 8.143878 1.914711
1604 1 26.780641 10.091050 0.171990
1605 1 24.630402 8.284646 4.103156
1606 1 24.702135 10.382302 6.167453
1607 1 26.846253 8.153539 5.971361
1608 1 26.557680 9.955029 4.012863
1609 1 24.118045 8.176635 8.246714
1610 1 24.330616 9.958526 10.155303
1611 1 26.176066 8.056307 10.271381
1612 1 26.493382 10.391248 8.024170
1613 1 24.406562 8.052967 12.343797
1614 1 24.519358 9.760292 14.261997
1615 1 26.474466 7.807419 14.523504
1616 1 26.668820 9.848019 12.138628
1617 1 24.398516 8.388805 16.440154
1618 1 24.225806 10.186581 18.566339
1619 1 26.601638 8.304903 18.773640
1620 1 26.281327 10.319491 16.173212
1621 1 24.547715 8.222553 20.759211
1622 1 24.425233 10.409798 22.371721
1623 1 26.019162 8.250209 22.901995
1624 1 26.485739 10.593273 20.478254
1625 1 24.521968 8.737484 25.100853
1626 1 24.482625 10.370423 27.121483
1627 1 26.395258 8.365166 26.686677
1628 1 26.551526 10.600408 24.332418
1629 1 24.790180 8.343404 28.861475
1630 1 24.601680 9.980182 30.631459
1631 1 26.634833 7.971546 30.764587
1632 1 26.703099 10.191369 28.778401
1633 1 24.480192 11.945751 0.315055
1634 1 24.347700 14.338055 1.559614
1635 1 26.864533 12.064126 2.229315
1636 1 26.764147 13.992075 32.522697
1637 1 24.479802 12.489014 3.603415
1638 1 24.645590 14.168094 5.677298
1639 1 26.623762 12.558886 5.753061
1640 1 26.554507 14.450605 3.669029
1641 1 24.944145 12.700098 7.886304
1642 1 24.575858 14.176606 10.065126
1643 1 26.410825 11.995855 10.761971
1644 1 26.796600 14.404249 8.313197
1645 1 24.220958 11.776668 12.373914
1646 1 24.172956 14.077902 14.122881
1647 1 26.323712 12.286191 13.963867
1648 1 26.161714 14.269467 12.206640
1649 1 24.205503 12.038223 16.069004
1650 1 24.412492 14.013618 18.032503
1651 1 26.451260 12.235613 18.266701
1652 1 26.282280 14.442117 15.971776
1653 1 24.561851 12.504536 20.580948
1654 1 24.638341 14.811342 21.968033
1655 1 26.498666 12.984397 22.794855
1656 1 26.757500 14.255391 20.246731
1657 1 24.417487 12.499230 24.755001
1658 1 24.155050 14.263556 26.734319
1659 1 26.688158 12.075986 27.117439
1660 1 26.753452 13.866656 25.451283
1661 1 24.614276 12.290211 28.812181
1662 1 24.301839 14.231652 30.707131
1663 1 26.214022 11.953323 30.792738
1664 1 26.367141 14.353332 29.096577
1665 1 24.175680 16.495973 32.514161
1666 1 24.672751 18.558587 1.629729
1667 1 26.298412 16.112118 1.811653
1668 1 26.453604 18.286313 32.573871
1669 1 24.565585 16.516571 3.911493
1670 1 24.757433 18.120497 6.354247
1671 1 26.403294 15.885465 6.311186
1672 1 26.591206 18.384471 3.619241
1673 1 24.222928 15.929854 8.027005
1674 1 24.486936 18.365332 9.845372
1675 1 26.392254 16.366756 10.234211
1676 1 26.669648 18.081465 8.053432
1677 1 24.320610 15.981207 12.137030
1678 1 24.330195 18.313465 13.822483
1679 1 26.299102 16.260687 14.046856
1680 1 26.771117 18.177987 12.053541
1681 1 24.157006 16.316486 16.223986
1682 1 24.686278 18.296336 18.064381
1683 1 26.385055 15.948540 18.104217
1684 1 26.243782 18.326491 16.079445
1685 1 24.614527 16.313737 20.112845
1686 1 24.733201 18.297091 22.533593
1687 1 26.753798 16.265048 22.520646
1688 1 26.670876 18.419712 20.248935
1689 1 24.868342 15.457485 24.604426
1690 1 24.914165 18.224646 26.326456
1691 1 26.594662 15.971005 26.842132
1692 1 26.637710 18.375633 24.370171
1693 1 24.738893 16.572003 28.701787
1694 1 24.361723 18.314984 30.606865
1695 1 26.210883 16.356477 30.764112
1696 1 26.543896 18.454342 28.703086
1697 1 24.158117 20.477684 32.492894
1698 1 24.566196 22.334053 1.993401
1699 1 26.466954 20.462331 1.736620
1700 1 26.114858 22.180714 32.491587
1701 1 24.658608 20.195926 3.833952
1702 1 24.600050 22.353153 6.265393
1703 1 26.335946 20.028657 6.065831
1704 1 26.730862 22.498784 4.206640
1705 1 24.559201 20.411707 8.102790
1706 1 24.740725 22.544251 10.032535
1707 1 26.419078 20.277036 9.973244
1708 1 26.734743 22.421632 7.829257
1709 1 24.396233 20.306484 11.913241
1710 1 24.405074 22.592875 14.183372
1711 1 26.116535 20.176579 13.941028
1712 1 26.673800 22.285081 12.237978
1713 1 24.456636 20.429719 16.163933
1714 1 24.629769 22.526389 18.243031
1715 1 26.594997 20.511633 18.244925
1716 1 26.535331 22.367165 16.271853
1717 1 24.671326 20.273243 20.528333
1718 1 24.543001 22.444098 22.480928
1719 1 26.551635 20.265012 22.220374
1720 1 26.385855 22.540462 20.336683
1721 1 24.792108 20.360112 24.550337
1722 1 24.771743 22.324643 26.573690
1723 1 26.919834 20.470342 26.529440
1724 1 26.436830 22.329414 24.341183
1725 1 24.500820 19.999130 28.500737
1726 1 24.605384 22.345062 30.496049
1727 1 26.531988 20.275329 30.497411
1728 1 26.891761 22.217244 28.530294
1729 1 24.669118 24.460592 32.467925
1730 1 24.433295 26.201632 1.709718
1731 1 26.526069 24.273090 2.197691
1732 1 26.671353 26.416195 0.179972
1733 1 24.684155 24.406097 4.147706
1734 1 24.694204 26.142621 6.204393
1735 1 26.908598 24.591734 6.417598
1736 1 26.569519 26.476060 4.154481
1737 1 24.412944 24.426837 8.139462
1738 1 24.362649 26.415593 10.365542
1739 1 26.612777 24.342471 10.154328
1740 1 26.475606 26.495880 8.286142
1741 1 24.093837 24.238848 12.170519
1742 1 24.424473 26.181676 13.946263
1743 1 26.635604 24.357840 14.199377
1744 1 26.489092 26.287681 12.061988
1745 1 24.424896 24.479416 16.262862
1746 1 24.957243 26.900114 18.326834
1747 1 26.380677 24.440659 18.281324
1748 1 26.410212 26.787546 15.994779
1749 1 24.615185 24.518480 20.643360
1750 1 24.651649 26.427096 22.705621
1751 1 26.566316 24.686217 22.562972
1752 1 26.590108 26.634139 20.513532
1753 1 24.576039 24.435384 24.505620
1754 1 24.894715 26.619272 26.203871
1755 1 26.464097 24.248549 26.463402
1756 1 26.878131 26.469175 24.568283
1757 1 24.509091 24.351848 28.655647
1758 1 24.753242 26.341907 30.765305
1759 1 26.822912 24.352289 30.832608
1760 1 26.271642 26.612028 28.663023
1761 1 24.613629 28.573092 32.522532
1762 1 24.487700 30.079895 2.085970
1763 1 26.418270 28.153891 2.220154
1764 1 26.481294 30.551998 0.044035
1765 1 24.383345 28.115233 4.132943
1766 1 24.506501 30.403118 6.430938
1767 1 26.431379 28.369735 6.276888
1768 1 26.378775 30.183108 4.251583
1769 1 24.617581 28.534032 8.687415
1770 1 24.257470 30.590209 10.251274
1771 1 26.657062 28.310295 10.360198
1772 1 26.328572 30.641508 8.304315
1773 1 24.674235 28.363684 12.511987
1774 1 24.883617 30.936101 14.156944
1775 1 26.687047 28.887199 14.415849
1776 1 26.610298 30.632327 11.925473
1777 1 24.808811 28.977307 16.134045
1778 1 24.503044 30.582304 18.414819
1779 1 26.685831 28.723911 18.397578
1780 1 26.585165 30.713946 16.346752
1781 1 24.583089 28.465157 20.584801
1782 1 24.459884 30.580401 22.457012
1783 1 26.630125 28.559692 22.414819
1784 1 26.351520 30.544735 20.540072
1785 1 24.680284 28.573263 24.488470
1786 1 24.789047 30.958099 26.427163
1787 1 26.379494 28.587618 26.697674
1788 1 26.617133 30.581594 24.473288
1789 1 24.185382 28.600721 28.827558
1790 1 24.334574 30.705544 30.831465
1791 1 26.294132 28.784698 30.475486
1792 1 26.482525 30.684319 28.727246
1793 1 28.523008 32.654931 32.624233
1794 1 28.139914 1.721243 1.979685
1795 1 30.635230 0.056977 2.160038
1796 1 30.231878 2.188563 0.212750
1797 1 28.531976 32.389729 3.868509
1798 1 28.477954 1.900664 6.084317
1799 1 30.667686 32.359161 6.298971
1800 1 30.430754 2.047541 3.956735
1801 1 28.533919 32.599542 8.004392
1802 1 28.936903 1.946076 10.261146
1803 1 30.358732 32.428868 10.005389
1804 1 30.746807 2.166477 8.077032
1805 1 28.819396 32.065038 12.121188
1806 1 28.646177 1.726401 13.832837
1807 1 30.602523 32.367391 14.404059
1808 1 31.094759 1.569390 12.217212
1809 1 28.675558 0.267307 16.474390
1810 1 28.648824 2.417066 18.458364
1811 1 31.105683 0.368809 18.440083
1812 1 30.757280 2.104676 16.292900
1813 1 28.286667 0.035745 20.339710
1814 1 28.561436 2.219004 22.275577
1815 1 30.515645 0.311625 22.092227
1816 1 30.552651 2.181945 20.423221
1817 1 28.675062 32.648078 24.655358
1818 1 28.826268 2.024382 26.482463
1819 1 30.468968 32.351458 26.573271
1820 1 30.865203 1.791985 24.457796
1821 1 28.590283 32.491569 28.511920
1822 1 28.823377 1.561564 30.547806
1823 1 30.708940 32.511903 30.706747
1824 1 30.462532 1.527879 28.494843
1825 1 28.628335 4.312013 32.610914
1826 1 28.366127 6.380396 2.114653
1827 1 30.490209 4.152792 2.044739
1828 1 31.043277 6.419500 0.103495
1829 1 28.313216 3.917278 3.984134
1830 1 28.648367 6.109810 6.390424
1831 1 30.470293 4.091232 6.088548
1832 1 30.412879 6.150938 3.798344
1833 1 28.687188 3.754109 8.150489
1834 1 28.558924 6.153504 10.265859
1835 1 30.293157 4.121514 10.360547
1836 1 30.488198 6.411041 8.189537
1837 1 28.364687 3.755098 12.380198
1838 1 28.605724 6.017299 14.098916
1839 1 30.336288 3.852332 14.251971
1840 1 30.622382 6.131628 12.155601
1841 1 27.861438 4.339860 16.208288
1842 1 28.562996 6.521890 18.453355
1843 1 30.532108 4.240664 18.399321
1844 1 30.162245 6.235416 16.347268
1845 1 28.456619 4.276920 20.846394
1846 1 28.339327 6.295102 22.431401
1847 1 30.563837 4.066355 22.390201
1848 1 30.602338 5.846332 20.608787
1849 1 28.626189 3.940255 24.509865
1850 1 28.639250 6.094766 26.467366
1851 1 30.641739 4.009285 27.112826
1852 1 30.432662 6.199031 24.480071
1853 1 28.435431 4.340100 28.570328
1854 1 28.674633 6.328742 30.692001
1855 1 30.450132 3.984078 30.614060
1856 1 30.651239 6.184355 28.895147
1857 1 28.643782 7.943032 0.041439
1858 1 28.725134 10.506561 2.095875
1859 1 30.688234 8.343625 2.270511
1860 1 30.504024 10.233750 0.061414
1861 1 28.516405 8.366174 4.074738
1862 1 28.510518 10.220911 6.257624
1863 1 30.527294 8.480474 5.994149
1864 1 30.648115 10.371066 4.097831
1865 1 28.519723 8.332758 8.138699
1866 1 28.486202 10.156336 10.297720
1867 1 30.418075 8.257705 10.445577
1868 1 30.498834 10.440566 8.128970
1869 1 28.341510 8.216505 12.292003
1870 1 28.564265 10.231827 14.729280
1871 1 30.327337 8.127529 14.301383
1872 1 30.475759 10.304468 12.427024
1873 1 28.283722 8.237421 16.520248
1874 1 28.452648 10.199468 18.687154
1875 1 30.633918 8.158555 18.261622
1876 1 30.522924 10.314514 16.481396
1877 1 28.857150 8.142357 20.619239
1878 1 28.682394 10.131373 22.488055
1879 1 30.569216 8.274366 22.729575
1880 1 30.560075 10.503342 20.715957
1881 1 28.275717 8.493497 24.464658
1882 1 28.500860 10.074584 26.499675
1883 1 30.536320 8.107037 26.771700
1884 1 30.644081 10.172662 24.626563
1885 1 28.455815 8.054514 28.619428
1886 1 28.544623 10.256392 30.810768
1887 1 30.687821 8.309817 30.947117
1888 1 30.314461 9.914673 28.808428
1889 1 28.674519 12.273485 32.554156
1890 1 28.496979 14.329373 1.960573
1891 1 30.686229 12.318369 1.865726
1892 1 30.528329 14.223661 32.563653
1893 1 28.933707 12.468030 4.165816
1894 1 28.717720 14.171246 6.055922
1895 1 30.648390 12.418872 6.069512
1896 1 30.764818 14.611385 4.115407
1897 1 28.508636 12.435390 8.179194
1898 1 28.633084 14.481749 10.524477
1899 1 30.259984 12.376893 10.047631
1900 1 31.103770 14.461344 8.029495
1901 1 28.287931 12.372268 12.313501
1902 1 28.413746 14.084478 14.156120
1903 1 30.411549 12.221433 14.389736
1904 1 30.473081 13.784463 12.312473
1905 1 28.759778 12.256003 16.544339
1906 1 28.842304 14.359889 18.411031
1907 1 30.661259 12.535360 18.799579
1908 1 30.690513 14.375160 16.405629
1909 1 28.518949 12.318511 20.907311
1910 1 28.721623 14.567685 22.374266
1911 1 30.550618 12.478915 22.563340
1912 1 30.625523 14.623556 20.571893
1913 1 28.516127 12.437399 24.489100
1914 1 28.860486 14.425638 26.917315
1915 1 30.514311 11.967856 26.622131
1916 1 30.580557 14.346393 24.687804
1917 1 28.825842 12.278387 28.710970
1918 1 28.505439 13.993131 30.532378
1919 1 30.911289 12.290445 30.707595
1920 1 30.812222 14.418808 28.746315
1921 1 28.603839 16.277959 0.056520
1922 1 28.596182 18.492235 1.992705
1923 1 30.854151 16.319763 1.850435
1924 1 30.467055 18.057190 32.225930
1925 1 28.492165 16.312143 3.980959
1926 1 28.335017 18.123735 5.921361
1927 1 30.953382 16.550949 5.973725
1928 1 30.630354 18.341245 3.986017
1929 1 28.891901 16.101291 8.150717
1930 1 29.033444 18.259494 10.124844
1931 1 30.822802 16.119150 10.415954
1932 1 30.605420 18.519203 8.034037
1933 1 28.938371 16.290367 12.221542
1934 1 28.593684 18.387038 14.275957
1935 1 30.501370 16.144914 14.369532
1936 1 30.508182 18.509942 12.423191
1937 1 28.365670 16.335136 16.278722
1938 1 28.468336 18.279433 18.164574
1939 1 30.940101 16.694480 18.353191
1940 1 30.659369 18.768854 16.471418
1941 1 28.503759 16.487344 20.192767
1942 1 28.693902 18.796932 22.260348
1943 1 30.613217 16.311719 22.657594
1944 1 31.119625 18.375213 20.338570
1945 1 28.320259 15.919807 24.802916
1946 1 28.733917 18.161661 26.742289
1947 1 30.914525 16.100662 26.727021
1948 1 30.420407 18.201702 24.820715
1949 1 28.344168 16.388130 28.961430
1950 1 28.304693 18.397901 30.678895
1951 1 30.291878 16.066262 30.582379
1952 1 30.676245 17.966045 28.867196
1953 1 28.565421 20.490547 32.384148
1954 1 28.118953 22.331486 2.019837
1955 1 30.553856 20.238031 2.071223
1956 1 30.994513 22.460815 32.532610
1957 1 28.625845 20.518208 4.008211
1958 1 28.655818 22.430576 6.055473
1959 1 30.520452 20.293423 6.032525
1960 1 30.192990 22.507378 4.011419
1961 1 28.529242 20.232166 7.776264
1962 1 28.244391 22.311795 10.226351
1963 1 30.389055 20.483480 10.388955
1964 1 30.577539 22.108244 8.330651
1965 1 28.581537 20.198279 12.265194
1966 1 28.419519 22.656480 13.965723
1967 1 30.951957 20.533333 14.071951
1968 1 30.729350 22.572887 12.188134
1969 1 28.886472 20.990930 15.703660
1970 1 28.432366 22.379487 18.180004
1971 1 30.368757 20.371748 18.278910
1972 1 30.821568 22.692338 16.267520
1973 1 28.893307 20.734294 20.450037
1974 1 28.902875 22.700585 22.282290
1975 1 30.909223 20.433026 22.384708
1976 1 30.883480 22.464246 20.390600
1977 1 28.935791 20.374010 24.474941
1978 1 28.586624 22.299802 26.644268
1979 1 30.817224 20.232760 26.656751
1980 1 30.992969 22.015798 24.527219
1981 1 28.600606 20.212773 28.681255
1982 1 28.868353 22.468335 30.686076
1983 1 30.713729 20.585955 30.543785
1984 1 30.425367 22.292704 28.744387
1985 1 28.791488 24.411465 0.057189
1986 1 28.514806 26.317197 2.009947
1987 1 30.654408 24.357635 1.988013
1988 1 30.305476 26.803175 0.074517
1989 1 28.805210 24.719282 4.419879
1990 1 28.835151 26.687903 6.462007
1991 1 30.420253 24.495322 6.487637
1992 1 30.400525 26.722053 4.040866
1993 1 28.594585 24.447868 8.363064
1994 1 28.749842 26.509489 9.994965
1995 1 30.648043 24.469370 10.258876
1996 1 30.861997 26.596594 8.321199
1997 1 28.490571 24.425922 11.956508
1998 1 28.458014 26.914939 14.242254
1999 1 30.899204 24.428050 14.134370
2000 1 30.407774 26.669734 12.297268
2001 1 28.508603 24.566955 15.966757
2002 1 28.608768 26.532014 18.340582
2003 1 30.229271 24.318071 18.483916
2004 1 30.619032 26.161296 16.178417
2005 1 28.123253 24.382005 20.660919
2006 1 28.940395 26.208680 22.798001
2007 1 30.704592 24.379164 22.764908
2008 1 30.478224 26.274220 20.331945
2009 1 28.600203 24.299258 24.781940
2010 1 28.204482 26.588268 26.639960
2011 1 30.599715 24.345055 26.580892
2012 1 30.547721 26.479651 24.798894
2013 1 28.593298 24.191829 28.538900
2014 1 28.514073 26.597294 30.459659
2015 1 30.635286 24.566546 30.625075
2016 1 30.501662 26.519712 28.750455
2017 1 28.211784 28.338392 32.518699
2018 1 28.502115 30.470916 1.946244
2019 1 30.413729 28.448847 2.069716
2020 1 30.733090 30.478754 0.154215
2021 1 28.520598 28.611080 4.224278
2022 1 28.751838 30.535193 6.235599
2023 1 31.036102 28.311394 5.988993
2024 1 30.751906 30.363932 4.433758
2025 1 28.512864 28.477873 8.166208
2026 1 28.588812 30.248757 10.100459
2027 1 30.800738 28.578596 9.918616
2028 1 30.898065 30.383219 7.987027
2029 1 28.183460 28.586163 12.272964
2030 1 28.993860 30.322579 14.350115
2031 1 31.192429 28.141254 14.252844
2032 1 30.640256 29.888388 12.231602
2033 1 28.463856 28.477579 16.440232
2034 1 28.612888 30.536116 18.524486
2035 1 30.606250 28.565601 18.638007
2036 1 30.552878 30.420994 16.284217
2037 1 28.662183 28.481274 20.781420
2038 1 28.635815 30.612958 22.599407
2039 1 30.737912 28.892531 22.709995
2040 1 30.546658 30.949656 20.266931
2041 1 28.697299 28.621782 24.585308
2042 1 28.242131 30.492320 26.462613
2043 1 30.841403 28.745058 26.610405
2044 1 30.729582 30.992867 24.430190
2045 1 28.599017 28.675697 28.590374
2046 1 28.471304 30.450705 30.492874
2047 1 30.661458 28.641497 30.626825
2048 1 30.629824 30.754791 28.607561
